**Heading
nonlinear buckling analysis, skirt  with openings and holes under load, shell mesh
*INCLUDE, INPUT=all.msh
*INCLUDE, INPUT=base_plate_center_YFIX.nam
*INCLUDE, INPUT=skir_sless_top_LOAD.nam
*BOUNDARY
Nbase_plate_center_YFIX,1,3

*MATERIAL,NAME=STEEL
*ELASTIC
210000,0.3
*DENSITY
7.8E-9

*SHELL SECTION, ELSET=Eall, MATERIAL=STEEL
25

** step 1, nonlinear displacement control buckling analysis 
*STEP,NLGEOM,INC=10000
*STATIC, SOLVER=PARDISO
0.02,1,1e-4,0.1 
*BOUNDARY, 
Nskir_sless_top_LOAD,3,3,100
*NODE FILE, OUTPUT=2D
U
*EL FILE
S
*NODE PRINT, NSET=Nskir_sless_top_LOAD
U
*NODE PRINT, NSET=Nbase_plate_center_YFIX, TOTALS=ONLY
RF

*END STEP