**Heading
 skirt  with openings and holes under load, shell mesh

*INCLUDE, INPUT=gmsh_hls7.inp
*TRANSFORM, NSET=skir_sless, TYPE=C
0.0, 0.0, 0.0, 0.0, 0.0, 1.0
*TRANSFORM, NSET=skir_carbo_mid, TYPE=C
0.0, 0.0, 0.0, 0.0, 0.0, 1.0
*TRANSFORM, NSET=skir_carbo_und, TYPE=C
0.0, 0.0, 0.0, 0.0, 0.0, 1.0

*BOUNDARY
base_plate_center_YFIX,1,6

*MATERIAL,NAME=STEEL
*ELASTIC
210000,0.3

*ORIENTATION, NAME=CYL_CSYS, SYSTEM=C
0.0, 0.0, 0.0, 0.0, 0.0, 1.0

*SHELL SECTION, ELSET=skir_sless, MATERIAL=STEEL, ORIENTATION=CYL_CSYS
25
*SHELL SECTION, ELSET=skir_carbo_mid, MATERIAL=STEEL, ORIENTATION=CYL_CSYS
25
*SHELL SECTION, ELSET=skir_carbo_und, MATERIAL=STEEL, ORIENTATION=CYL_CSYS
25
** step 1, static preload
*STEP, NLGEOM, INC=200
*STATIC
*CLOAD
skir_sless_top_LOAD,3,2337.5
*NODE FILE
U
*NODE PRINT, TOTALS=YES
RF
RM
*EL FILE
S
*END STEP

** step 2, linear buckling using preloaded state
*STEP, PERTURBATION
*BUCKLE
1
*CLOAD
skir_sless_top_LOAD,3,2337.5
*NODE FILE
U
*EL FILE
S
*END STEP

** step 3, inject geometric imperfection from Mode 1
*IMPERFECTION, FILE=solve_hls7, STEP=2
1, 2.5

** step 4, nonlinear displacement control buckling analysis
*STEP, NLGEOM, INC=400
*STATIC
0.01, 1.0, 1e-6, 0.1
*BOUNDARY, OP=NEW
base_plate_center_YFIX, 1, 6
skir_sless_top_LOAD, 3, 3, -10.0
*NODE FILE
U
*EL FILE
S
*NODE PRINT, NSET=skir_sless_top_LOAD, TOTALS=YES
RF
*END STEP 

