*Heading
 gmsh_hls7.inp
*NODE
1, -275, 1593.9514578556, -410
2, 275, 1593.9514578556, -410
3, -275, 1593.9514578556, 40
4, 275, 1593.9514578556, 40
5, -275, 1593.9514578556, -5810
6, 275, 1593.9514578556, -5810
7, -275, 1593.9514578556, -5360
8, 275, 1593.9514578556, -5360
9, -1617.5, -3.7939279160473e-28, 1282.5
10, -1617.5, -2.5662631322971e-28, 867.5
11, -1617.5, -9.8730206907249e-14, -45
12, -1617.5, 2.5028921106216e-15, 615
13, 6.3284076384127e-12, 1617.5, -9385
14, 5.9322343988885e-12, -1617.5, -9385
15, 6.3284076384127e-12, -1617.5, -7385
16, 6.2293643285316e-12, -1617.5, 867.5
17, 1617.5, 8.9528384705773e-13, -2705
18, 1617.5, -4.1237339006717e-15, -3405
19, 1617.5, 0, 1282.5
20, 7.8207432445437e-05, 1617.5000005613, -685.00000032734
21, 194.44324801168, 1605.7702429706, -604.46548027812
22, -194.46198483663, 1605.7679747535, -604.44675357995
23, -275, 1593.9514578556, -185
24, -7.8207433700378e-05, 1617.5000005613, 315.00000032734
25, -194.44324801168, 1605.7702429706, 234.46548027812
26, 194.46198483663, 1605.7679747535, 234.44675357995
27, 275, 1593.9514578556, -185
28, -7.8207431757626e-05, 1617.5000005613, -6085.0000003273
29, -194.44324801168, 1605.7702429706, -6004.4654802781
30, 194.46198483663, 1605.7679747535, -6004.44675358
31, -275, 1593.9514578556, -5585
32, 7.8207435099398e-05, 1617.5000005613, -5084.9999996727
33, 194.44324801168, 1605.7702429706, -5165.5345197219
34, -194.46198483662, 1605.7679747535, -5165.55324642
35, 275, 1593.9514578556, -5585
36, -1597.5858909126, 253.03274720257, 1282.5
37, -1538.3339151074, 499.83498840148, 1282.5
38, -1441.2030528747, 734.32963332872, 1282.5
39, -1308.5849884015, 950.74264558308, 1282.5
40, -1143.7452185692, 1143.7452185692, 1282.5
41, -950.74264558307, 1308.5849884015, 1282.5
42, -734.32963332871, 1441.2030528747, 1282.5
43, -499.83498840147, 1538.3339151074, 1282.5
44, -253.03274720257, 1597.5858909126, 1282.5
45, 5.0528495732519e-12, 1617.5, 1282.5
46, 253.03274720258, 1597.5858909126, 1282.5
47, 499.83498840148, 1538.3339151074, 1282.5
48, 734.32963332872, 1441.2030528747, 1282.5
49, 950.74264558308, 1308.5849884015, 1282.5
50, 1143.7452185692, 1143.7452185692, 1282.5
51, 1308.5849884015, 950.74264558307, 1282.5
52, 1441.2030528747, 734.32963332872, 1282.5
53, 1538.3339151074, 499.83498840147, 1282.5
54, 1597.5858909126, 253.03274720257, 1282.5
55, 1597.5858909126, -253.03274720258, 1282.5
56, 1538.3339151074, -499.83498840148, 1282.5
57, 1441.2030528747, -734.32963332872, 1282.5
58, 1308.5849884015, -950.74264558308, 1282.5
59, 1143.7452185692, -1143.7452185692, 1282.5
60, 950.74264558308, -1308.5849884015, 1282.5
61, 734.32963332872, -1441.2030528747, 1282.5
62, 499.83498840148, -1538.3339151074, 1282.5
63, 253.03274720257, -1597.5858909126, 1282.5
64, -2.0932773050149e-12, -1617.5, 1282.5
65, -253.03274720258, -1597.5858909126, 1282.5
66, -499.83498840148, -1538.3339151074, 1282.5
67, -734.32963332872, -1441.2030528747, 1282.5
68, -950.74264558307, -1308.5849884015, 1282.5
69, -1143.7452185692, -1143.7452185692, 1282.5
70, -1308.5849884015, -950.74264558307, 1282.5
71, -1441.2030528747, -734.32963332871, 1282.5
72, -1538.3339151074, -499.83498840148, 1282.5
73, -1597.5858909126, -253.03274720257, 1282.5
74, -1612.5137873133, 126.90758733979, 1282.5
75, -1572.8083462432, 377.59787603693, 1282.5
76, -1494.375143837, 618.99045185053, 1282.5
77, -1379.1454658427, 845.14142842805, 1282.5
78, -1229.956649358, 1050.4822181741, 1282.5
79, -1050.4822181741, 1229.956649358, 1282.5
80, -845.14142842804, 1379.1454658427, 1282.5
81, -618.99045185053, 1494.375143837, 1282.5
82, -377.59787603692, 1572.8083462432, 1282.5
83, -126.90758733978, 1612.5137873133, 1282.5
84, 126.90758733979, 1612.5137873133, 1282.5
85, 377.59787603693, 1572.8083462432, 1282.5
86, 618.99045185054, 1494.375143837, 1282.5
87, 845.14142842805, 1379.1454658427, 1282.5
88, 1050.4822181741, 1229.956649358, 1282.5
89, 1229.9566493581, 1050.4822181741, 1282.5
90, 1379.1454658428, 845.14142842805, 1282.5
91, 1494.375143837, 618.99045185053, 1282.5
92, 1572.8083462432, 377.59787603692, 1282.5
93, 1612.5137873133, 126.90758733979, 1282.5
94, 1612.5137873133, -126.90758733979, 1282.5
95, 1572.8083462432, -377.59787603693, 1282.5
96, 1494.375143837, -618.99045185054, 1282.5
97, 1379.1454658427, -845.14142842805, 1282.5
98, 1229.9566493581, -1050.4822181741, 1282.5
99, 1050.4822181741, -1229.9566493581, 1282.5
100, 845.14142842805, -1379.1454658427, 1282.5
101, 618.99045185053, -1494.375143837, 1282.5
102, 377.59787603693, -1572.8083462432, 1282.5
103, 126.90758733979, -1612.5137873133, 1282.5
104, -126.90758733979, -1612.5137873133, 1282.5
105, -377.59787603693, -1572.8083462432, 1282.5
106, -618.99045185053, -1494.375143837, 1282.5
107, -845.14142842805, -1379.1454658427, 1282.5
108, -1050.4822181741, -1229.956649358, 1282.5
109, -1229.956649358, -1050.4822181741, 1282.5
110, -1379.1454658427, -845.14142842804, 1282.5
111, -1494.375143837, -618.99045185053, 1282.5
112, -1572.8083462432, -377.59787603693, 1282.5
113, -1612.5137873133, -126.90758733979, 1282.5
114, -1617.5, -3.1800955241722e-28, 1075
115, -1617.5, -3.4870117201098e-28, 1178.75
116, -1617.5, -2.8731793282347e-28, 971.25
117, -1597.5858909126, 253.03274720257, 867.5
118, -1538.3339151074, 499.83498840148, 867.5
119, -1441.2030528747, 734.32963332872, 867.5
120, -1308.5849884015, 950.74264558308, 867.5
121, -1143.7452185692, 1143.7452185692, 867.5
122, -950.74264558307, 1308.5849884015, 867.5
123, -734.32963332871, 1441.2030528747, 867.5
124, -499.83498840147, 1538.3339151074, 867.5
125, -253.03274720257, 1597.5858909126, 867.5
126, 5.3984154445093e-12, 1617.5, 867.5
127, 253.03274720258, 1597.5858909126, 867.5
128, 499.83498840148, 1538.3339151074, 867.5
129, 734.32963332872, 1441.2030528747, 867.5
130, 950.74264558308, 1308.5849884015, 867.5
131, 1143.7452185692, 1143.7452185692, 867.5
132, 1308.5849884015, 950.74264558307, 867.5
133, 1441.2030528747, 734.32963332872, 867.5
134, 1538.3339151074, 499.83498840147, 867.5
135, 1597.5858909126, 253.03274720257, 867.5
136, 1617.5, -3.3934848649003e-12, 867.5
137, 1597.5858909126, -253.03274720258, 867.5
138, 1538.3339151074, -499.83498840148, 867.5
139, 1441.2030528747, -734.32963332872, 867.5
140, 1308.5849884015, -950.74264558308, 867.5
141, 1143.7452185692, -1143.7452185692, 867.5
142, 950.74264558308, -1308.5849884015, 867.5
143, 734.32963332872, -1441.2030528747, 867.5
144, 499.83498840148, -1538.3339151074, 867.5
145, 253.03274720257, -1597.5858909126, 867.5
146, -253.03274720258, -1597.5858909126, 867.5
147, -499.83498840148, -1538.3339151074, 867.5
148, -734.32963332872, -1441.2030528747, 867.5
149, -950.74264558307, -1308.5849884015, 867.5
150, -1143.7452185692, -1143.7452185692, 867.5
151, -1308.5849884015, -950.74264558307, 867.5
152, -1441.2030528747, -734.32963332871, 867.5
153, -1538.3339151074, -499.83498840148, 867.5
154, -1597.5858909126, -253.03274720257, 867.5
155, -1612.5137873133, 126.90758733979, 867.5
156, -1572.8083462432, 377.59787603693, 867.5
157, -1494.375143837, 618.99045185053, 867.5
158, -1379.1454658427, 845.14142842805, 867.5
159, -1229.956649358, 1050.4822181741, 867.5
160, -1050.4822181741, 1229.956649358, 867.5
161, -845.14142842804, 1379.1454658427, 867.5
162, -618.99045185053, 1494.375143837, 867.5
163, -377.59787603692, 1572.8083462432, 867.5
164, -126.90758733978, 1612.5137873133, 867.5
165, 126.90758733979, 1612.5137873133, 867.5
166, 377.59787603693, 1572.8083462432, 867.5
167, 618.99045185054, 1494.375143837, 867.5
168, 845.14142842805, 1379.1454658427, 867.5
169, 1050.4822181741, 1229.956649358, 867.5
170, 1229.9566493581, 1050.4822181741, 867.5
171, 1379.1454658428, 845.14142842805, 867.5
172, 1494.375143837, 618.99045185053, 867.5
173, 1572.8083462432, 377.59787603692, 867.5
174, 1612.5137873133, 126.90758733979, 867.5
175, 1612.5137873133, -126.90758733979, 867.5
176, 1572.8083462432, -377.59787603693, 867.5
177, 1494.375143837, -618.99045185054, 867.5
178, 1379.1454658427, -845.14142842805, 867.5
179, 1229.9566493581, -1050.4822181741, 867.5
180, 1050.4822181741, -1229.9566493581, 867.5
181, 845.14142842805, -1379.1454658427, 867.5
182, 618.99045185053, -1494.375143837, 867.5
183, 377.59787603693, -1572.8083462432, 867.5
184, 126.90758733979, -1612.5137873133, 867.5
185, -126.90758733979, -1612.5137873133, 867.5
186, -377.59787603693, -1572.8083462432, 867.5
187, -618.99045185053, -1494.375143837, 867.5
188, -845.14142842805, -1379.1454658427, 867.5
189, -1050.4822181741, -1229.956649358, 867.5
190, -1229.956649358, -1050.4822181741, 867.5
191, -1379.1454658427, -845.14142842804, 867.5
192, -1494.375143837, -618.99045185053, 867.5
193, -1572.8083462432, -377.59787603693, 867.5
194, -1612.5137873133, -126.90758733979, 867.5
195, -1583.4791593195, -330.00000103857, 284.99997667522
196, -1600.5772087463, -233.36420031428, 51.673723620554
197, -1600.5820642688, -233.33089242439, 518.35958139681
198, -1583.4791569213, 330.00001723885, 284.99991047666
199, -1600.5827183862, 233.32640725771, 518.36407157049
200, -1600.5753573677, 233.3768911529, 51.686433004257
201, -253.03274720257, -1597.5858909126, -9385
202, -499.83498840147, -1538.3339151074, -9385
203, -734.32963332871, -1441.2030528747, -9385
204, -950.74264558307, -1308.5849884015, -9385
205, -1143.7452185692, -1143.7452185692, -9385
206, -1308.5849884015, -950.74264558308, -9385
207, -1441.2030528747, -734.32963332872, -9385
208, -1538.3339151074, -499.83498840148, -9385
209, -1597.5858909126, -253.03274720257, -9385
210, -1617.5, 2.5761272580868e-12, -9385
211, -1597.5858909126, 253.03274720258, -9385
212, -1538.3339151074, 499.83498840148, -9385
213, -1441.2030528747, 734.32963332872, -9385
214, -1308.5849884015, 950.74264558308, -9385
215, -1143.7452185692, 1143.7452185692, -9385
216, -950.74264558306, 1308.5849884015, -9385
217, -734.3296333287, 1441.2030528747, -9385
218, -499.83498840147, 1538.3339151074, -9385
219, -253.03274720257, 1597.5858909126, -9385
220, -126.90758733978, -1612.5137873133, -9385
221, -377.59787603692, -1572.8083462432, -9385
222, -618.99045185053, -1494.375143837, -9385
223, -845.14142842804, -1379.1454658427, -9385
224, -1050.4822181741, -1229.9566493581, -9385
225, -1229.956649358, -1050.4822181741, -9385
226, -1379.1454658427, -845.14142842805, -9385
227, -1494.375143837, -618.99045185053, -9385
228, -1572.8083462432, -377.59787603693, -9385
229, -1612.5137873133, -126.90758733979, -9385
230, -1612.5137873133, 126.90758733979, -9385
231, -1572.8083462432, 377.59787603693, -9385
232, -1494.375143837, 618.99045185054, -9385
233, -1379.1454658427, 845.14142842805, -9385
234, -1229.956649358, 1050.4822181741, -9385
235, -1050.4822181741, 1229.9566493581, -9385
236, -845.14142842803, 1379.1454658427, -9385
237, -618.99045185052, 1494.375143837, -9385
238, -377.59787603692, 1572.8083462432, -9385
239, -126.90758733978, 1612.5137873133, -9385
240, 6.3284076384127e-12, -1617.5, -9135
241, 6.3284076384127e-12, -1617.5, -8885
242, 6.3284076384127e-12, -1617.5, -8635
243, 6.3284076384127e-12, -1617.5, -8385
244, 6.3284076384127e-12, -1617.5, -8135
245, 6.3284076384127e-12, -1617.5, -7885
246, 6.3284076384127e-12, -1617.5, -7635
247, 6.3284076384127e-12, -1617.5, -9260
248, 6.3284076384127e-12, -1617.5, -9010
249, 6.3284076384127e-12, -1617.5, -8760
250, 6.3284076384127e-12, -1617.5, -8510
251, 6.3284076384127e-12, -1617.5, -8260
252, 6.3284076384127e-12, -1617.5, -8010
253, 6.3284076384127e-12, -1617.5, -7760
254, 6.3284076384127e-12, -1617.5, -7510
255, 253.03274720258, -1597.5858909126, -7385
256, 499.83498840148, -1538.3339151074, -7385
257, 734.32963332872, -1441.2030528747, -7385
258, 950.74264558308, -1308.5849884015, -7385
259, 1143.7452185692, -1143.7452185692, -7385
260, 1308.5849884015, -950.74264558308, -7385
261, 1441.2030528747, -734.32963332872, -7385
262, 1538.3339151074, -499.83498840148, -7385
263, 1597.5858909126, -253.03274720257, -7385
264, 1617.5, -1.1765147552798e-12, -7385
265, 1597.5858909126, 253.03274720257, -7385
266, 1538.3339151074, 499.83498840148, -7385
267, 1441.2030528747, 734.32963332872, -7385
268, 1308.5849884015, 950.74264558308, -7385
269, 1143.7452185692, 1143.7452185692, -7385
270, 950.74264558308, 1308.5849884015, -7385
271, 734.32963332872, 1441.2030528747, -7385
272, 499.83498840148, 1538.3339151074, -7385
273, 253.03274720258, 1597.5858909126, -7385
274, 2.9349227735124e-12, 1617.5, -7385
275, -253.03274720257, 1597.5858909126, -7385
276, -499.83498840148, 1538.3339151074, -7385
277, -734.32963332871, 1441.2030528747, -7385
278, -950.74264558307, 1308.5849884015, -7385
279, -1143.7452185692, 1143.7452185692, -7385
280, -1308.5849884015, 950.74264558307, -7385
281, -1441.2030528747, 734.32963332871, -7385
282, -1538.3339151074, 499.83498840147, -7385
283, -1597.5858909126, 253.03274720257, -7385
284, -1617.5, -8.3226416335466e-12, -7385
285, -1597.5858909126, -253.03274720258, -7385
286, -1538.3339151074, -499.83498840149, -7385
287, -1441.2030528747, -734.32963332873, -7385
288, -1308.5849884015, -950.74264558308, -7385
289, -1143.7452185692, -1143.7452185692, -7385
290, -950.74264558306, -1308.5849884015, -7385
291, -734.32963332871, -1441.2030528747, -7385
292, -499.83498840147, -1538.3339151074, -7385
293, -253.03274720256, -1597.5858909126, -7385
294, 126.9075873398, -1612.5137873133, -7385
295, 377.59787603693, -1572.8083462432, -7385
296, 618.99045185054, -1494.375143837, -7385
297, 845.14142842805, -1379.1454658427, -7385
298, 1050.4822181741, -1229.9566493581, -7385
299, 1229.9566493581, -1050.4822181741, -7385
300, 1379.1454658428, -845.14142842805, -7385
301, 1494.375143837, -618.99045185053, -7385
302, 1572.8083462432, -377.59787603693, -7385
303, 1612.5137873133, -126.90758733979, -7385
304, 1612.5137873133, 126.90758733979, -7385
305, 1572.8083462432, 377.59787603693, -7385
306, 1494.375143837, 618.99045185053, -7385
307, 1379.1454658428, 845.14142842805, -7385
308, 1229.9566493581, 1050.4822181741, -7385
309, 1050.4822181741, 1229.9566493581, -7385
310, 845.14142842805, 1379.1454658427, -7385
311, 618.99045185054, 1494.375143837, -7385
312, 377.59787603693, 1572.8083462432, -7385
313, 126.90758733979, 1612.5137873133, -7385
314, -126.90758733979, 1612.5137873133, -7385
315, -377.59787603693, 1572.8083462432, -7385
316, -618.99045185053, 1494.375143837, -7385
317, -845.14142842805, 1379.1454658427, -7385
318, -1050.4822181741, 1229.956649358, -7385
319, -1229.956649358, 1050.4822181741, -7385
320, -1379.1454658427, 845.14142842804, -7385
321, -1494.375143837, 618.99045185053, -7385
322, -1572.8083462432, 377.59787603692, -7385
323, -1612.5137873133, 126.90758733978, -7385
324, -1612.5137873133, -126.9075873398, -7385
325, -1572.8083462432, -377.59787603693, -7385
326, -1494.375143837, -618.99045185054, -7385
327, -1379.1454658427, -845.14142842805, -7385
328, -1229.956649358, -1050.4822181741, -7385
329, -1050.4822181741, -1229.9566493581, -7385
330, -845.14142842804, -1379.1454658427, -7385
331, -618.99045185052, -1494.375143837, -7385
332, -377.59787603692, -1572.8083462432, -7385
333, -126.90758733978, -1612.5137873133, -7385
334, 253.03274720258, 1597.5858909126, -9385
335, 499.83498840148, 1538.3339151074, -9385
336, 734.32963332872, 1441.2030528747, -9385
337, 950.74264558308, 1308.5849884015, -9385
338, 1143.7452185692, 1143.7452185692, -9385
339, 1308.5849884015, 950.74264558308, -9385
340, 1441.2030528747, 734.32963332872, -9385
341, 1538.3339151074, 499.83498840148, -9385
342, 1597.5858909126, 253.03274720257, -9385
343, 1617.5, -1.6967424324501e-12, -9385
344, 1597.5858909126, -253.03274720258, -9385
345, 1538.3339151074, -499.83498840148, -9385
346, 1441.2030528747, -734.32963332872, -9385
347, 1308.5849884015, -950.74264558308, -9385
348, 1143.7452185692, -1143.7452185692, -9385
349, 950.74264558308, -1308.5849884015, -9385
350, 734.32963332872, -1441.2030528747, -9385
351, 499.83498840148, -1538.3339151074, -9385
352, 253.03274720258, -1597.5858909126, -9385
353, 126.9075873398, 1612.5137873133, -9385
354, 377.59787603693, 1572.8083462432, -9385
355, 618.99045185054, 1494.375143837, -9385
356, 845.14142842805, 1379.1454658427, -9385
357, 1050.4822181741, 1229.9566493581, -9385
358, 1229.9566493581, 1050.4822181741, -9385
359, 1379.1454658428, 845.14142842805, -9385
360, 1494.375143837, 618.99045185053, -9385
361, 1572.8083462432, 377.59787603693, -9385
362, 1612.5137873133, 126.90758733979, -9385
363, 1612.5137873133, -126.90758733979, -9385
364, 1572.8083462432, -377.59787603693, -9385
365, 1494.375143837, -618.99045185054, -9385
366, 1379.1454658427, -845.14142842805, -9385
367, 1229.9566493581, -1050.4822181741, -9385
368, 1050.4822181741, -1229.9566493581, -9385
369, 845.14142842805, -1379.1454658427, -9385
370, 618.99045185054, -1494.375143837, -9385
371, 377.59787603693, -1572.8083462432, -9385
372, 126.9075873398, -1612.5137873133, -9385
373, 5.8331910890075e-12, -1617.5, -7127.109375
374, 5.8331910890075e-12, -1617.5, -6869.21875
375, 5.8331910890075e-12, -1617.5, -6611.328125
376, 5.8331910890075e-12, -1617.5, -6353.4375
377, 5.8331910890075e-12, -1617.5, -6095.546875
378, 5.8331910890075e-12, -1617.5, -5837.65625
379, 5.8331910890075e-12, -1617.5, -5579.765625
380, 5.8331910890075e-12, -1617.5, -5321.875
381, 5.8331910890075e-12, -1617.5, -5063.984375
382, 5.8331910890075e-12, -1617.5, -4806.09375
383, 5.8331910890075e-12, -1617.5, -4548.203125
384, 5.8331910890075e-12, -1617.5, -4290.3125
385, 5.8331910890075e-12, -1617.5, -4032.421875
386, 5.8331910890075e-12, -1617.5, -3774.53125
387, 5.8331910890075e-12, -1617.5, -3516.640625
388, 5.8331910890075e-12, -1617.5, -3258.75
389, 5.8331910890075e-12, -1617.5, -3000.859375
390, 5.8331910890075e-12, -1617.5, -2742.96875
391, 5.8331910890075e-12, -1617.5, -2485.078125
392, 5.8331910890075e-12, -1617.5, -2227.1875
393, 5.8331910890075e-12, -1617.5, -1969.296875
394, 5.8331910890075e-12, -1617.5, -1711.40625
395, 5.8331910890075e-12, -1617.5, -1453.515625
396, 5.8331910890075e-12, -1617.5, -1195.625
397, 5.8331910890075e-12, -1617.5, -937.734375
398, 5.8331910890075e-12, -1617.5, -679.84375
399, 5.8331910890075e-12, -1617.5, -421.953125
400, 5.8331910890075e-12, -1617.5, -164.0625
401, 5.8331910890075e-12, -1617.5, 93.828125
402, 5.8331910890075e-12, -1617.5, 351.71875
403, 5.8331910890075e-12, -1617.5, 609.609375
404, 5.8331910890075e-12, -1617.5, -7256.0546875
405, 5.8331910890075e-12, -1617.5, -6998.1640625
406, 5.8331910890075e-12, -1617.5, -6740.2734375
407, 5.8331910890075e-12, -1617.5, -6482.3828125
408, 5.8331910890075e-12, -1617.5, -6224.4921875
409, 5.8331910890075e-12, -1617.5, -5966.6015625
410, 5.8331910890075e-12, -1617.5, -5708.7109375
411, 5.8331910890075e-12, -1617.5, -5450.8203125
412, 5.8331910890075e-12, -1617.5, -5192.9296875
413, 5.8331910890075e-12, -1617.5, -4935.0390625
414, 5.8331910890075e-12, -1617.5, -4677.1484375
415, 5.8331910890075e-12, -1617.5, -4419.2578125
416, 5.8331910890075e-12, -1617.5, -4161.3671875
417, 5.8331910890075e-12, -1617.5, -3903.4765625
418, 5.8331910890075e-12, -1617.5, -3645.5859375
419, 5.8331910890075e-12, -1617.5, -3387.6953125
420, 5.8331910890075e-12, -1617.5, -3129.8046875
421, 5.8331910890075e-12, -1617.5, -2871.9140625
422, 5.8331910890075e-12, -1617.5, -2614.0234375
423, 5.8331910890075e-12, -1617.5, -2356.1328125
424, 5.8331910890075e-12, -1617.5, -2098.2421875
425, 5.8331910890075e-12, -1617.5, -1840.3515625
426, 5.8331910890075e-12, -1617.5, -1582.4609375
427, 5.8331910890075e-12, -1617.5, -1324.5703125
428, 5.8331910890075e-12, -1617.5, -1066.6796875
429, 5.8331910890075e-12, -1617.5, -808.7890625
430, 5.8331910890075e-12, -1617.5, -550.8984375
431, 5.8331910890075e-12, -1617.5, -293.0078125
432, 5.8331910890075e-12, -1617.5, -35.1171875
433, 5.8331910890075e-12, -1617.5, 222.7734375
434, 5.8331910890075e-12, -1617.5, 480.6640625
435, 5.8331910890075e-12, -1617.5, 738.5546875
436, 275, 1593.9514578556, -297.5
437, 275, 1593.9514578556, -72.499999999999
438, 254.01896112127, 1597.4293778046, 145.35353219874
439, 105.35481435464, 1614.0652445315, 294.01843152983
440, -105.35407557588, 1614.065283174, 294.01866349643
441, -254.01934448535, 1597.4293172278, 145.35261289396
442, -275, 1593.9514578556, -297.5
443, -275, 1593.9514578556, -72.499999999999
444, -254.01896112127, 1597.4293778046, -515.35353219874
445, -105.35481435464, 1614.0652445315, -664.01843152983
446, 105.35407557588, 1614.065283174, -664.01866349643
447, 254.01934448534, 1597.4293172278, -515.35261289396
448, -1612.546621701, 126.48969382195, -19.795597897875
449, -1588.5228084218, 304.79753456219, 158.51497005092
450, -1588.5227494854, 304.7978360437, 411.48425853916
451, -1612.5467229849, 126.48840149208, 589.79613457215
452, -1612.5467466537, -126.48812588237, 589.79626886251
453, -1588.5228381319, -304.79737299117, 411.4853324581
454, -1588.5228868593, -304.79712571226, 158.51399695417
455, -1612.546577117, -126.49031458678, -19.795363593211
456, 275, 1593.9514578556, -5697.5
457, 275, 1593.9514578556, -5472.5
458, -254.01896112127, 1597.4293778046, -5254.6464678013
459, -105.35481435464, 1614.0652445315, -5105.9815684702
460, 105.35407557588, 1614.065283174, -5105.9813365036
461, 254.01934448535, 1597.4293172278, -5254.647387106
462, -275, 1593.9514578556, -5697.5
463, -275, 1593.9514578556, -5472.5
464, 254.01896112127, 1597.4293778046, -5915.3535321987
465, 105.35481435464, 1614.0652445315, -6064.0184315298
466, -105.35407557588, 1614.065283174, -6064.0186634964
467, -254.01934448534, 1597.4293172278, -5915.352612894
468, 1604.3473274554, 205.85427985698, -2771.9379020403
469, 1582.8944121385, 332.79353381259, -2946.609709548
470, 1582.8943400724, 332.79408984368, -3163.3905704297
471, 1604.3472869273, 205.85415930356, -3338.0620192908
472, 1604.3473489697, -205.85453261074, -3338.062437463
473, 1582.8943852879, -332.79370261899, -3163.3903809794
474, 1582.8944723864, -332.79320611417, -2946.6097785198
475, 1604.3473007422, -205.85403343179, -2771.938239034
476, 1613.8639433883, 108.39348729149, -2722.2079801749
477, 1592.5380860024, 283.07014856285, -2849.1569731849
478, 1579.178978528, 350.00000214824, -3055.0010987076
479, 1592.5380420071, 283.07037221402, -3260.8425603695
480, 1613.8640197647, 108.39365834545, -3387.7924827477
481, 1613.8639278349, -108.39477497057, -3387.792045172
482, 1592.5380993003, -283.0700249046, -3260.8430211699
483, 1579.1789748503, -350.00002586969, -3054.9999345285
484, 1592.5380541786, -283.07026413052, -2849.1574377463
485, 1613.8641199006, -108.3937640022, -2722.2069127418
486, -1400.7960906213, -808.75, 1282.5
487, -808.74999999999, -1400.7960906213, 1282.5
488, 808.75000000001, -1400.7960906213, 1282.5
489, 1400.7960906213, -808.75, 1282.5
490, -1562.3850240226, -418.63980545333, 1282.5
491, -418.63980545332, -1562.3850240226, 1282.5
492, 418.63980545334, -1562.3850240226, 1282.5
493, 1562.3850240226, -418.63980545333, 1282.5
494, 1400.7960906213, 808.75, 1282.5
495, 808.75, 1400.7960906213, 1282.5
496, -808.75, 1400.7960906213, 1282.5
497, -1400.7960906213, 808.75, 1282.5
498, 1562.3850240226, 418.63980545333, 1282.5
499, 418.63980545333, 1562.3850240226, 1282.5
500, -418.63980545332, 1562.3850240226, 1282.5
501, -1562.3850240226, 418.63980545333, 1282.5
502, -1610.3304203414, -152.12556433091, 1054.25
503, -1610.3304203414, 152.12556433091, 1054.25
504, -1571.7028608596, -382.17321618045, 1070.4182420267
505, -1500.8165262418, -603.2047782964, 1074.497344887
506, -1429.0780391336, -757.6557318902, 1074.9198576034
507, -1301.1448880498, -960.89969835658, 1074.9875006677
508, -1136.3654184662, -1151.0777062015, 1074.998087677
509, -942.58425461768, -1314.4737247077, 1074.9997122569
510, -725.39724544333, -1445.7195738812, 1074.9999573237
511, -490.31354225911, -1541.3951084253, 1074.9999937494
512, -243.15080603813, -1599.1197377067, 1074.9999990945
513, 10.000053144992, -1617.469087475, 1074.9999998701
514, 262.90482279415, -1595.9910100472, 1074.9999999815
515, 509.33602463952, -1535.2143381315, 1074.9999999974
516, 743.22568623818, -1436.6355937801, 1074.9999999996
517, 958.81466524124, -1302.6821130722, 1075
518, 1150.7944451193, -1136.6522753607, 1075
519, 1314.4378464979, -942.63428629235, 1075
520, 1445.7154257276, -725.40551267081, 1075
521, 1541.3946931216, -490.31484784431, 1075
522, 1599.1197075752, -243.15100420218, 1075
523, 1617.4690876543, 10.000024135331, 1075
524, 1595.9910107232, 262.90481869045, 1075
525, 1535.2143383176, 509.33602407834, 1075
526, 1436.6355938184, 743.22568616408, 1075
527, 1302.6821130792, 958.81466523182, 1075
528, 1136.6522753619, 1150.7944451181, 1075
529, 942.63428629253, 1314.4378464978, 1075
530, 725.40551267083, 1445.7154257276, 1075
531, 490.31484784431, 1541.3946931216, 1075
532, 243.15100420218, 1599.1197075752, 1075
533, -10.00002413533, 1617.4690876543, 1075
534, -262.90481869045, 1595.9910107232, 1075
535, -509.33602407834, 1535.2143383176, 1075
536, -743.22568616407, 1436.6355938184, 1075
537, -958.81466523181, 1302.6821130792, 1075
538, -1150.7944451181, 1136.6522753619, 1075
539, -1314.4090344192, 942.67446143252, 1074.9594726562
540, -1445.9524321335, 724.9329720789, 1074.5035400391
541, -1544.7327657972, 479.69462397693, 1071.5235137939
542, -1604.7514853993, -202.67935294143, 960.875
543, -1615.706610883, -76.147209724779, 1064.625
544, -1604.7514853993, -202.67935294143, 1168.375
545, -1615.706610883, 76.14720972478, 1064.625
546, -1604.7514853993, 202.67935294143, 960.875
547, -1604.7514853993, 202.67935294143, 1168.375
548, -1520.4539386821, -551.83880830008, 970.99867244349
549, -1520.4539386821, -551.83880830008, 1178.4986724435
550, -1556.1308621473, -441.31960059872, 1176.4591210134
551, -1556.1308621473, -441.31960059872, 968.95912101337
552, -1541.5662322119, 489.77525632078, 1177.011756897
553, -1443.585388179, 729.63516707742, 1178.5017700195
554, -1500.3616064554, 604.33542000655, 1073.0135269165
555, -1443.585388179, 729.63516707742, 971.00177001953
556, -1541.5662322119, 489.77525632078, 969.51175689697
557, -1311.5032157174, 946.71303210784, 1178.7297363281
558, -1384.4680189711, 836.3937795358, 1074.7315063477
559, -1311.5032157174, 946.71303210784, 971.22973632812
560, -1147.2753133052, 1140.2041946426, 1178.75
561, -1236.4117020455, 1042.8769596865, 1074.9797363281
562, -1147.2753133052, 1140.2041946426, 971.25
563, -954.78321717859, 1305.6397888369, 1178.75
564, -1058.0662202201, 1223.438647268, 1075
565, -954.78321717859, 1305.6397888369, 971.25
566, -738.78118950127, 1438.92619826, 1178.75
567, -853.65169899409, 1373.8941104774, 1075
568, -738.78118950127, 1438.92619826, 971.25
569, -504.58791706423, 1536.7814691597, 1178.75
570, -257.97001547778, 1596.7960800035, 1178.75
571, -387.31438236559, 1570.4438287353, 1075
572, -257.97001547778, 1596.7960800035, 971.25
573, -504.58791706423, 1536.7814691597, 971.25
574, -628.21743983123, 1490.5197409937, 1075
575, -5.0000359568757, 1617.4922718951, 1178.75
576, -136.87435938336, 1611.6983774092, 1075
577, -5.0000359568755, 1617.4922718951, 971.25
578, 248.09306104346, 1598.3604359036, 1178.75
579, 116.93596458684, 1613.267563111, 1075
580, 248.09306104346, 1598.3604359036, 971.25
581, 495.07728350724, 1539.8716613261, 1178.75
582, 729.87106018377, 1443.4661359056, 1178.75
583, 609.73980458474, 1498.1734281134, 1075
584, 729.87106018377, 1443.4661359056, 971.25
585, 495.07728350724, 1539.8716613261, 971.25
586, 367.8669370207, 1575.112747281, 1075
587, 946.6929890554, 1311.5176836297, 1178.75
588, 836.59885454951, 1384.3441069931, 1075
589, 946.6929890554, 1311.5176836297, 971.25
590, 1042.8580642029, 1236.4276395839, 1075
591, 1140.2041946426, 1147.2753133052, 971.25
592, 1140.2041946426, 1147.2753133052, 1178.75
593, 1373.8941104774, 853.65169899409, 1075
594, 1438.92619826, 738.78118950128, 971.25
595, 1305.6397888369, 954.7832171786, 971.25
596, 1305.6397888369, 954.7832171786, 1178.75
597, 1438.92619826, 738.78118950128, 1178.75
598, 1223.438647268, 1058.0662202202, 1075
599, 1570.4438287353, 387.31438236559, 1075
600, 1596.7960800035, 257.97001547779, 971.25
601, 1536.7814691597, 504.58791706423, 971.25
602, 1536.7814691597, 504.58791706423, 1178.75
603, 1596.7960800035, 257.97001547779, 1178.75
604, 1490.5197409937, 628.21743983124, 1075
605, 1617.4922718951, 5.0000359568771, 1178.75
606, 1611.6983774092, 136.87435938336, 1075
607, 1617.4922718951, 5.0000359568771, 971.25
608, 1598.3604359037, -248.09306104346, 1178.75
609, 1613.267563111, -116.93596458684, 1075
610, 1598.3604359037, -248.09306104346, 971.25
611, 1539.8716613261, -495.07728350724, 1178.75
612, 1575.112747281, -367.86693702069, 1075
613, 1539.8716613261, -495.07728350724, 971.25
614, 1498.1734281134, -609.73980458472, 1075
615, 1443.4661359056, -729.87106018375, 971.25
616, 1443.4661359056, -729.87106018375, 1178.75
617, 1311.5176836297, -946.69298905531, 1178.75
618, 1147.2753133057, -1140.204194642, 1178.75
619, 1236.4276395845, -1042.8580642021, 1075
620, 1147.2753133057, -1140.204194642, 971.25
621, 1311.5176836297, -946.69298905531, 971.25
622, 1384.3441069931, -836.59885454939, 1075
623, 954.78321718332, -1305.6397888335, 1178.75
624, 1058.0662202252, -1223.4386472637, 1075
625, 954.78321718332, -1305.6397888335, 971.24999999998
626, 738.78118953839, -1438.926198241, 1178.7499999998
627, 853.65169903449, -1373.8941104523, 1074.9999999998
628, 738.78118953839, -1438.926198241, 971.24999999982
629, 504.58791734511, -1536.7814690675, 1178.7499999987
630, 628.2174401421, -1490.5197408627, 1074.9999999985
631, 504.58791734511, -1536.7814690675, 971.2499999987
632, 257.97001753067, -1596.7960796718, 1178.7499999908
633, 5.0000504619158, -1617.4922718503, 1178.749999935
634, 136.87437590848, -1611.6983760058, 1074.9999999258
635, 5.000050461916, -1617.4922718503, 971.24999993503
636, 257.97001753067, -1596.7960796718, 971.24999999076
637, 387.31438467162, -1570.4438281666, 1074.9999999895
638, -248.09296200848, -1598.3604512756, 1178.7499995472
639, -116.93585016106, -1613.267571405, 1074.9999994823
640, -248.09296200848, -1598.3604512756, 971.24999954723
641, -495.0766313597, -1539.871870995, 1178.7499968747
642, -729.86693300416, -1443.4682227563, 1178.7499786619
643, -609.73488649707, -1498.1754297106, 1074.9999755365
644, -729.86693300416, -1443.4682227563, 971.24997866187
645, -495.07663135969, -1539.871870995, 971.24999687468
646, -367.86617235374, -1575.1129258684, 1074.9999964219
647, -946.66802896251, -1311.5357002157, 1178.7498561285
648, -836.56855030999, -1384.3624202615, 1074.9998347903
649, -946.66802896251, -1311.5357002157, 971.24985612847
650, -1140.0612135426, -1147.4173954476, 1178.7490438385
651, -1042.6804402691, -1236.5774336774, 1074.998899967
652, -1140.0612135426, -1147.4173954476, 971.24904383849
653, -1304.8748209851, -955.82841114872, 1178.7437503339
654, -1222.4590145522, -1059.1979077302, 1074.9927941724
655, -1304.8748209851, -955.82841114872, 971.24375033387
656, -1435.1879366493, -746.01731648562, 1178.7099288017
657, -1368.8887228353, -861.65533393244, 1074.9536791356
658, -1435.1879366493, -746.01731648562, 971.20992880168
659, -1466.9813616132, -681.37503232763, 1074.7086012452
660, -1595.1690917261, -267.84663298586, 1062.3341210134
661, -1586.0111283787, 317.60817158688, 1062.886756897
662, -176.22481510004, 1607.8715945445, -8114.7749441887
663, 76.782473434399, 1615.6765461482, -7922.1087945732
664, -278.61727506707, 1593.3231511637, -7870.8675220865
665, -58.199382028832, 1616.452622854, -7679.6035310182
666, -621.8250672366, 1493.1978555289, -8008.4127698397
667, -517.23404580497, 1532.5714312423, -7788.8904992654
668, -755.35606635466, 1430.2948867353, -7883.5136986751
669, -527.05097951151, 1529.2231737049, -7597.7540495335
670, -869.84352917002, 1363.7002913988, -8126.7303700649
671, -1013.2995010545, 1260.7657875921, -7866.298546905
672, -754.60506102682, 1430.6912496666, -7616.7173194495
673, 229.86978663975, 1601.0827996048, -8095.0617867943
674, 283.02019267291, 1592.5469602305, -7796.3920926915
675, 235.62914631444, 1600.2453422545, -7608.3367041653
676, 1347.1016208477, 895.33428009296, -8643.1195954854
677, 1363.6512905008, 869.9203457303, -8388.9012456008
678, 1226.2488227577, 1054.8080748105, -8388.5769458827
679, 1591.3017728043, 289.93950725931, -8620.6342824013
680, 1615.8462697899, 73.123747209731, -8385.0221847769
681, 1590.6050651323, 293.73759850516, -8395.7372758185
682, 1611.4533944835, -139.72904997712, -8629.1511919916
683, 1610.7061616221, -148.09426360453, -8392.6882296084
684, 1615.3558112831, 83.257750112525, -8628.123970351
685, 953.68033818344, -1306.4455834677, -8048.5556534862
686, 1193.6846766167, -1091.5233129945, -8128.2912203422
687, 1057.9132479405, -1223.5709255421, -8435.4719980907
688, 1277.2971403591, -992.38010118629, -8517.362272289
689, 1098.1262156395, 1187.6131796697, -8131.717741992
690, 1050.5800290018, 1229.8731042927, -8394.4907895031
691, -962.29572958318, -1300.1127561969, -8702.6766671665
692, -1164.9693604564, -1122.1197080516, -8601.8005196838
693, -1030.7761683329, -1246.5178461606, -8395.0361033165
694, -1164.4804369186, -1122.6270805721, -8241.1652303569
695, -1071.5296165548, 1211.6643639416, -8102.3803114248
696, -1207.0201068908, 1076.7584276714, -7859.8288165762
697, -977.84780102342, 1288.4564129351, -7624.1596912773
698, -1252.8628679878, 1023.054682809, -8093.0128656352
699, -1363.3217900443, 870.43664145673, -7857.3404614769
700, -1173.8107040752, 1112.8677733668, -7622.5544616556
701, -1399.5645838838, 810.87929159529, -8089.6901059354
702, -1484.3473187705, 642.66576636595, -7856.994759308
703, -1335.6837893218, 912.2801460861, -7621.4279770729
704, 577.71034179696, 1510.8133607368, -8138.3241703181
705, 746.98355574637, 1434.6852677311, -7844.1165130215
706, 552.50363761758, 1520.2124787079, -7779.6234550677
707, 653.52652955709, 1479.5976903081, -7588.1296087588
708, -1510.4666538851, 578.61622644119, -8088.3287343124
709, -1568.5118918108, 395.06543160364, -7856.3376514267
710, -1463.2849596749, 689.27743092983, -7621.5008448343
711, -1583.5261704934, 329.77434309306, -8084.678096208
712, -1611.8714192702, 134.82128073764, -7850.3298444896
713, -1554.4832768435, 447.08834922641, -7621.5594607006
714, 880.79087391387, 1356.6553307418, -8139.258381719
715, 965.44003811209, 1297.7795586347, -7871.7746229949
716, 858.33060122329, 1370.9758674038, -7609.1492807863
717, -1615.8642184145, 72.72604518096, -8073.0370351198
718, -1606.0704032505, 191.94819562232, -7618.9748530819
719, -1607.6897826075, -177.87583562553, -8049.9373303831
720, -1612.7083150131, -124.41117589452, -7836.3700910797
721, -1616.1025136441, -67.22287849621, -7611.7961028311
722, 1164.6898521122, 1122.4098174851, -7874.3825348429
723, 1058.4417765883, 1223.1137541425, -7622.6600891163
724, -1577.1154480853, -359.18395483472, -8021.9135311882
725, -1565.9559197286, -405.07814982652, -7831.0240059847
726, -1586.7861033013, -313.71342395552, -7595.6279065908
727, 1270.2957471619, 1001.3266024342, -8128.751350274
728, 1327.1449497567, 924.65806238594, -7875.0112928251
729, 1238.3327392113, 1040.5951551865, -7627.0423780748
730, -1391.7546547761, -824.21188471722, -8024.0870848907
731, -1456.5078775251, -703.48493424321, -7765.5022494989
732, -1349.4027129153, -891.86241560949, -7816.4708933497
733, -1441.4596600161, -733.82579577606, -7580.4720001462
734, 1403.9534701327, 803.25643707503, -8139.3379912969
735, 1454.2900996007, 708.05830000323, -7883.9145899206
736, 1387.044154584, 832.1146334697, -7628.9185894705
737, -1279.2943681232, -989.80410672433, -8107.0789554489
738, -1181.9195846893, -1104.2519392457, -7874.0209864544
739, -1176.2876752823, -1110.2493210892, -7604.6358557692
740, 1514.131633089, 568.95663075439, -8208.5537429897
741, 1548.2805302961, 468.11713225004, -7895.0668075304
742, 1500.1989772604, 604.73901695429, -7632.2280452625
743, -171.03746931639, -1608.431669077, -9240.6008753222
744, -215.88398509204, -1603.0284947501, -9007.5653658277
745, 599.63324951894, -1502.2470556042, -7784.6131109253
746, 568.70108846637, -1514.2276321535, -7594.5308904111
747, 769.83963511454, -1422.5516462353, -7596.4243430774
748, 171.0374693164, -1608.431669077, -7529.3991246778
749, 215.88398509205, -1603.0284947501, -7762.4346341723
750, -638.5754490179, -1486.1115859556, -8994.1134622767
751, -674.07010213192, -1470.3522528333, -9193.1765137315
752, -828.22241853827, -1389.3717556617, -9182.5475216059
753, 646.52843621396, -1482.6689553527, -9166.2594283451
754, 554.29351363354, -1519.5607756006, -8959.8515541528
755, 461.24879849958, -1550.3405419077, -7781.6698042674
756, -703.92918614197, -1456.2932228427, -7862.3653583234
757, -641.60371108575, -1484.8066971566, -7648.0638150283
758, -483.67416659992, -1543.4913509845, -7781.1124168513
759, -423.50535243878, -1561.0731778029, -8997.8099240756
760, 1430.5939330467, -754.78953936179, -8373.5264630295
761, 1521.0705995948, -550.13678394411, -8533.5593367059
762, 1398.0763889228, -813.4424753704, -8606.5299256523
763, 1541.5583430095, -489.80008687003, -8398.3543970891
764, -187.0834299025, -1606.6443415566, -8760.7697324384
765, -756.35463900536, -1429.7670824491, -8357.836301694
766, -594.82856488496, -1504.1559853941, -8534.9691221512
767, -764.64209095734, -1425.3521399066, -8613.2324697202
768, -1129.6081005685, -1157.7097171269, -8868.8263775266
769, -1291.3709859906, -973.99549616085, -8893.0844030583
770, -1223.2777385491, -1058.2522498773, -9134.6244993724
771, 1617.0946412598, 36.210098159284, -8146.3309438263
772, -1521.4245302341, 549.15721683499, -8745.2288904843
773, -1483.3099212092, 645.05653057876, -8532.892724528
774, -1566.2046595963, 404.11534771486, -8530.8763983547
775, 442.7750942015, -1555.7173477065, -8756.8929744231
776, 742.83088911035, -1436.8397684445, -8879.7645511522
777, -870.45701918906, -1363.3087793103, -8985.1561292814
778, 769.03481293781, -1422.9868961061, -7990.7463965468
779, 596.00427999058, -1503.6905094576, -7968.2439876916
780, -1539.470156291, 496.32437768993, -8312.1422311709
781, -488.90595772608, -1541.8421496703, -7941.9241213592
782, -790.11857044678, -1411.3889947974, -8044.1242586783
783, -797.16146939799, -1407.4231210646, -8759.4869970011
784, -611.44886711696, -1497.4767219898, -8781.5829759073
785, 364.65228885256, 1575.8600693699, -8687.2733621511
786, 228.08893924181, 1601.3374678048, -8864.8175173769
787, 356.0874518391, 1577.8174725369, -8960.6052330388
788, 1165.1998300263, -1121.8803885026, -7616.7423674632
789, 1327.6750079922, -923.89681412634, -7619.9631038106
790, 1346.0463830303, -896.91994332325, -7857.0716034185
791, 650.43595077766, 1480.958920408, -8664.0772692316
792, 545.42731617148, 1522.7656723127, -8865.6193681369
793, 550.19662342497, 1521.0489556789, -8465.9261704476
794, 794.53915850248, 1408.9051691318, -8896.7654452979
795, 1021.8125925491, 1253.8761006208, -8651.9300184341
796, 1002.0550993752, 1269.721161443, -8900.8738768344
797, -1363.5461381428, 870.08515626688, -8534.0067818158
798, -1416.4528478724, 781.00421237917, -8745.4958829808
799, 1202.0616257577, 1082.2911336054, -8647.5856577673
800, 1186.1103241097, 1099.7493119072, -8899.9650031468
801, 1472.3321055355, 669.73458997543, -8624.813387791
802, 1456.5634558505, 703.36985226894, -8905.7605216584
803, 1448.2812989071, 720.26906724911, -8404.9296902587
804, -1442.2573502397, 732.25677578261, -8313.6131207135
805, 1558.8115211907, 431.75559220836, -8615.5517095481
806, 1534.4084124463, 511.7588043347, -8443.0535002405
807, 1576.9425546645, -359.94225826961, -8608.102554365
808, 1612.5857443054, -125.98994905589, -8881.3939136555
809, 1579.2822184273, -349.53386754268, -8399.3065911221
810, 1485.4811716259, -640.04057585817, -8720.4912730346
811, 1563.5814205302, -414.14899658563, -8876.9105665707
812, 1378.2218944827, -846.64671473327, -8097.7469575145
813, 1366.4538014846, -865.51155879535, -8742.1299260592
814, 1425.1748409672, -764.97249798547, -8914.9216719554
815, 1304.281194964, -956.63828820677, -8353.8473895915
816, 1268.371280992, -1003.7631909742, -8727.5305689743
817, 1287.8870550453, -978.5975594936, -8943.7384534649
818, -1610.0994338154, 154.55116702001, -8524.3618369143
819, -1588.6864678616, 303.94334477556, -8742.5266350482
820, 1108.3162932489, -1178.109181748, -8734.6120331853
821, 1145.5878467392, -1141.8996170432, -8964.8857678997
822, 1158.9379096253, -1128.3479833958, -9176.1718905106
823, 997.09230228662, -1273.6220753115, -9021.1658849095
824, -1598.499831109, 247.19332504048, -8305.3798700615
825, -1276.2401179651, 993.73910625298, -8746.9405193084
826, -1209.9264213206, 1073.4916417887, -8537.5214010348
827, -1308.5045893427, 950.85329555562, -8316.7195320202
828, 1484.6834369427, -641.8888860761, -8058.8104974408
829, 1515.9474296159, -564.1007362529, -8259.1647751377
830, 1616.9795753558, -41.028074315804, -7902.9177684538
831, 1603.5891819104, 211.67896839273, -7896.3409456087
832, 783.2188195392, -1415.2294975443, -7801.729317762
833, 973.16172785081, -1291.9994200643, -7607.5368617679
834, 1179.1597686407, -1107.1984871825, -7853.8362801198
835, 1464.4444062586, -686.81062235372, -7849.2203165305
836, -1027.4284102932, 1249.2786365429, -8544.0346757212
837, -1105.137466087, 1181.0916268651, -8749.9009220353
838, 1550.8822157225, -459.42420806449, -8004.4989642634
839, 1528.0142720075, -530.54560081228, -7855.7430679252
840, -1142.138340512, 1145.3498422458, -8324.2945151789
841, 1606.2614810421, -190.34259775622, -8169.1356033501
842, 1594.4509632799, -272.08891137989, -7946.5874294934
843, -1616.6104997255, 53.635269899882, -8736.9593269037
844, -1614.6890962905, -95.317219433319, -8508.2364042845
845, 1593.8657093005, 275.49655300235, -8156.9549059561
846, 836.29931943012, 1384.5250804231, -8407.9194928369
847, 408.39638102889, 1565.0938137896, -7944.7622575116
848, -1617.4910457002, -5.3821073566373, -8289.1859784629
849, 1569.7477626615, -390.1258920133, -8204.5977229776
850, -476.10403724825, 1545.8431989422, -7961.7491483965
851, -908.21743042752, 1338.449606473, -8755.7135904958
852, -823.25125653837, 1392.3231013698, -8553.9250213991
853, -950.76187853185, 1308.5710146303, -8337.6277569793
854, -604.86526967099, 1500.1480778729, -8569.8016755246
855, -694.46273024994, 1460.8311902112, -8769.1888584924
856, -1597.4144680234, -254.11270599762, -8257.0292652432
857, -1490.2416130456, -628.87692337, -7949.5616254344
858, -743.57216564775, 1436.4562939658, -8351.6307604239
859, -1580.6143484867, -343.45965026188, -8479.1327831929
860, -1605.6746919567, -195.23071891894, -8724.1449895235
861, -1045.539586324, -1234.1609390308, -8068.5926040703
862, -1010.0182570204, -1263.395967417, -7746.2641617067
863, 1302.8094972423, -958.6415721714, -9166.3898077453
864, -380.96608316159, 1571.9958948676, -8606.8132400258
865, -477.15521115615, 1545.5190566494, -8804.0629425247
866, -521.93917084374, 1530.9754249951, -8362.5223680896
867, 1613.7692897957, 109.79494210752, -7638.8946841176
868, -1058.9105460991, -1222.7079395179, -9090.3616658316
869, -1350.1018699054, -890.80367695571, -8654.6247620904
870, 187.08342990251, -1606.6443415566, -8009.2302675616
871, -1472.3286229982, -669.74224586788, -8683.8207667469
872, -1425.5090723996, -764.34948453337, -8914.783423838
873, -412.15656237244, 1564.1078025805, -9152.4552805314
874, -1557.0010085896, -438.23978510729, -8705.4725288381
875, -1525.4790304654, -537.79176045233, -8930.5193196281
876, -1506.6441734329, -588.49773547614, -8449.822823661
877, -1589.8363267352, -297.87028081569, -8942.1715372908
878, -1616.7548394835, -49.092148116167, -8949.8964848578
879, -1604.7372600201, 202.79195325024, -8954.0458532484
880, 1585.5367632354, -319.96784592981, -9150.7893295452
881, 1522.7944035813, -545.34709536365, -9166.3892251153
882, 1510.6153361814, -578.22794475334, -8997.2508999614
883, -1553.3284467812, 451.08423428474, -8955.8522968394
884, -1463.4851643475, 688.85225101964, -8956.6006661737
885, -879.40712060883, -1357.552712134, -8522.7401737445
886, -1337.4595384902, 909.67479513368, -8957.3243458018
887, -1370.6010598084, -858.92897544091, -9148.4490295921
888, -1178.6586247246, 1107.7319605222, -8958.8815466493
889, -1486.6998189571, -637.2047538373, -9156.8150292052
890, -991.84469065033, 1277.7129410117, -8962.3987074283
891, -782.98705868278, 1415.357734262, -8968.2873625105
892, -549.20094471161, 1521.4087459746, -8961.0464589443
893, 53.834683221291, 1616.6038713558, -9079.4890109382
894, 1610.5856756843, -149.39889986416, -7652.2346376196
895, -1567.3735579912, -399.55773013416, -9162.5779512149
896, 1576.4885011276, 361.92576008402, -7636.3836952741
897, -1610.4023913907, -151.36177788004, -9166.3452177388
898, -1614.3142405848, 101.46813610694, -9168.4781780244
899, -1578.6240828828, 352.4943332061, -9169.5024352455
900, 1454.6969749413, -707.22200269541, -7630.2287977793
901, -1504.0141346313, 595.18714101471, -9169.9754190415
902, -1323.5174861992, -929.84284356276, -7598.8135690539
903, -1392.3057725729, 823.28056314972, -9170.365562063
904, -1246.3879885825, 1030.9331849917, -9171.1089323681
905, -1070.2220047198, 1212.8194880581, -9172.5300245052
906, -1331.7847554276, -917.96275262704, -8235.8634371586
907, -1277.9992197253, -991.47579112222, -8368.7135986256
908, -868.82537058321, 1364.3491948291, -9173.6739418717
909, -653.0138294212, 1479.8240397374, -9174.1884749785
910, -1527.7005583138, -531.44826100727, -7577.9538392791
911, -1519.1678760613, -555.36943951168, -7720.0443230041
912, -418.58002302115, 1562.4010414511, -9014.5585718918
913, -45.397737422942, 1616.8627942522, -8898.2061756652
914, -1416.6735226714, -780.60385610234, -8219.0580205108
915, -1397.1406716873, -815.04858353176, -8425.3537977118
916, 165.01091105252, 1609.0611079862, -8564.3320684527
917, 1429.2804453922, -757.27383318027, -9165.6362660184
918, 283.62589738165, 1592.4391983164, -8368.5343367256
919, 1613.2869394307, 116.66833787371, -8872.6054407214
920, 1615.8782160771, -72.41436879107, -9135.2619921901
921, 1584.2069135582, 326.48844548374, -8836.2992037057
922, 1607.2749517307, 181.58601140783, -9123.2265050854
923, 822.1128001894, -1392.995618717, -8560.7946543748
924, 981.43347280364, -1285.7272605264, -7829.9486803857
925, -257.35381638631, 1596.8955079126, -8903.0582442555
926, 1519.6867707344, 553.94798388929, -8907.5514284945
927, 1551.6276499045, 456.90030209209, -9077.4659922317
928, -160.86285480234, 1609.4810940004, -8670.0039458528
929, 1450.9811518173, 714.81462427042, -9136.6104014333
930, 1338.9269776165, 907.51352530459, -8897.2486730103
931, 1325.4501129623, 927.08589032957, -9143.6135400547
932, 1166.779449031, 1120.2374602373, -9144.0267290429
933, 357.62287395759, 1577.4701677123, -8209.8866456281
934, 978.39091005862, 1288.0440509217, -9143.2864657436
935, 539.05848444034, 1525.0318686352, -9140.9577843571
936, 310.79847951765, 1587.3596174558, -9136.1402243554
937, 396.64884425128, -1568.1122231378, -9005.5950950176
938, 200.22159749826, -1605.0599870084, -8832.8674610865
939, 454.12429647239, 1552.4423897052, -7579.78494123
940, 429.68896539191, 1559.3824556601, -7718.0746855196
941, 72.699814861743, 1615.8653987629, -8262.6858260061
942, -310.21014392864, 1587.4746979413, -7603.197610097
943, -364.4327404775, 1575.9108565106, -7750.7093039643
944, -676.02953358111, 1469.452387703, -8152.6562946608
945, -469.73773878591, 1547.7896196707, -8150.305884996
946, -287.53807832422, 1591.7374480465, -8392.9045324387
947, -54.297062694665, 1616.5884074132, -8465.6888040058
948, 1539.9347128155, 494.88112740917, -8754.4166419543
949, 1557.6818311136, -435.81367924668, -7696.2409557296
950, -862.20239059765, -1368.5442220285, -7659.812450073
951, -827.51182898755, -1389.7951010439, -7811.750388841
952, -908.43663666335, -1338.3008358242, -8216.7098769545
953, -998.8642853452, -1272.2328361828, -8843.4971777348
954, 862.76069131923, -1368.1923254844, -8229.9174404441
955, 748.25440925898, -1434.0228690731, -8123.8656455563
956, 835.66998794526, -1384.9050224646, -9102.9776213826
957, 764.81342259917, 1425.2602143511, -9139.6665674639
958, -376.71730856091, -1573.0194911159, -8609.7768941901
959, -159.08092505502, -1609.6581964143, -8562.6131001931
960, -200.22159749824, -1605.0599870084, -7937.1325389135
961, -146.85774885138, -1610.8193727424, -8209.1057460723
962, -363.95098608838, -1576.0221856704, -8157.5560566293
963, 413.66166400058, -1563.7104200383, -8179.1928026164
964, 159.08092505504, -1609.6581964143, -8207.3868998069
965, 146.85774885139, -1610.8193727424, -8560.8942539277
966, 354.4488815311, -1578.1863769471, -8597.6134918358
967, 401.00389852917, -1567.0041874113, -9195.3854714374
968, 390.19337361943, -1569.7309900692, -7639.5929461268
969, 385.38375477891, -1570.9187157687, -7939.6668090444
970, -398.609341079, -1567.6150175361, -7572.1143027941
971, -384.54784607855, -1571.123548317, -7755.5092909424
972, -451.41033666271, -1553.2337100237, -9200.816498396
973, -402.63863685036, -1566.5849412385, -8784.1671592015
974, 42.491995837688, 1616.9417677485, -8757.6302723423
975, -1530.5783481164, -523.10244721028, -8175.0358183913
976, 818.82935760367, 1394.9282179117, -8655.9935092634
977, 450.72997835368, -1553.4312783684, -8427.7327854733
978, 626.52885366277, -1491.2303127043, -8662.8054649915
979, -456.4477999882, -1551.7608243173, -8303.8893525025
980, -632.47486708528, -1488.7181709462, -8172.2527436359
981, -224.42486921903, 1601.8550895996, -9142.7508621621
982, 699.5564407089, -1458.3987919162, -8345.2390889335
983, 150.12284550768, -1610.5183579384, -9132.291815041
984, -150.12284550767, -1610.5183579384, -7637.708184959
985, 616.84966118444, -1495.2600929259, -8152.0409844478
986, -921.85736660918, -1329.091887579, -7913.4658550263
987, -252.94320772669, -1597.6000700003, -8396.9912056795
988, 252.9432077267, -1597.6000700003, -8373.0087943205
989, 925.06455744716, -1326.8616410746, -8795.0711265411
990, -1055.9446807168, -1225.2702074505, -7599.0239245312
991, 1042.61369004, -1236.6337142991, -9179.4422362242
992, -49.874082912574, 1616.7309070633, -8018.4418693809
993, 9.2996449023736, 1617.4732661175, -7800.8561627957
994, -168.80494139534, 1608.6675050365, -7775.2355265523
995, -227.53735088573, 1601.4159372105, -7992.8212331376
996, -193.47958947544, -1605.8866393542, -9124.0831205749
997, -108.18424039967, -1613.8780685446, -8946.2826829138
998, -85.638850027137, -1615.2313262706, -9187.8004376611
999, 193.47958947545, -1605.8866393542, -7645.9168794251
1000, 108.18424039968, -1613.8780685446, -7823.7173170862
1001, 85.638850027149, -1615.2313262706, -7582.1995623389
1002, 1611.0852073837, -143.91214177239, -8510.9197108
1003, 1617.0635424249, -37.573258577342, -8388.8552071927
1004, 1615.6089863226, 78.191133215822, -8506.573077564
1005, 1617.2523584335, -28.302988204758, -8628.6375811713
1006, -752.23677432437, -1431.9378776169, -9187.8620176687
1007, -849.43968457065, -1376.5022601785, -9083.8518254436
1008, -757.01048860349, -1429.419941845, -8989.634795779
1009, -656.37007464042, -1478.3384508009, -9093.6449880041
1010, -834.10093793044, -1385.8505963283, -8872.3215631413
1011, -705.74300052788, -1455.4150841619, -8770.5349864542
1012, -625.03799029449, -1491.8558109578, -8887.848219092
1013, 598.29690742622, 1502.7797777999, -8764.8483186842
1014, 600.65085306783, 1501.8404717908, -8565.0017198396
1015, 458.24469186217, 1551.231140862, -8576.5997662993
1016, 455.81353163316, 1551.9472524477, -8776.446365144
1017, 670.83823591806, -1471.8295795473, -7595.4776167442
1018, 776.53785764651, -1418.9063413918, -7699.0768304197
1019, 692.79360207588, -1461.6235065579, -7793.1712143437
1020, 584.19788161419, -1508.3166395414, -7689.5720006682
1021, 1291.7689382045, -973.46764727441, -8113.0190889284
1022, 1186.4481101669, -1099.384887963, -7991.063750231
1023, 1266.9730832228, -1005.5274518325, -7855.4539417691
1024, 1362.3660526247, -871.93175688003, -7977.4092804665
1025, 1500.8194922772, -603.19739853615, -8158.9876362893
1026, 1476.3526189153, -660.82463227538, -8316.3456190836
1027, 1405.1587182278, -801.14619551512, -8235.636710272
1028, 1435.1091165048, -746.16893109065, -8078.2787274777
1029, 1608.6225268601, -169.23302301352, -8280.9119164793
1030, 1615.6539554626, -77.256366715476, -8157.7332735882
1031, 1616.5758219015, 54.67048603795, -8265.6765643016
1032, 1615.2340364259, 85.587718578479, -7899.6293570312
1033, 1599.0458456087, 243.6362732467, -8026.6479257824
1034, 1609.9320156719, 156.28549169578, -8151.6429248912
1035, 1617.4982050891, -2.4096749991987, -8024.6243561401
1036, 1506.07122603, 589.96246670836, -7889.4906987255
1037, 1429.9142447385, 756.07638681157, -8011.6262906087
1038, 1463.7381142887, 688.31459579074, -8173.9458671433
1039, 1532.0359707679, 518.81792015423, -8051.81027526
1040, 1394.9279901538, 818.82974560377, -7879.4629413729
1041, 1299.285980745, 963.41174491468, -8001.8813215496
1042, 1340.7871444235, 904.76299844135, -8134.0446707855
1043, 1068.6683179708, 1214.1887316911, -7873.0785789189
1044, 923.58471959282, 1327.8921325675, -8005.516502357
1045, 993.06194370813, 1276.7670993406, -8135.4880618555
1046, 1131.8776474199, 1155.4909092118, -8003.0501384175
1047, 858.94379006811, 1370.5917756588, -7857.9455680082
1048, 663.43978791093, 1475.1792765006, -7991.2203416698
1049, 733.3127733856, 1441.7207171951, -8138.7912760186
1050, 651.14934337954, 1480.645393947, -7811.8699840446
1051, 480.97379868177, 1544.3349555655, -7862.1928562896
1052, 493.79976619728, 1540.2818056783, -8041.5432139148
1053, 153.49966290415, 1610.2000197144, -8008.5852906837
1054, 319.63999589007, 1585.6028894485, -8019.9120221529
1055, 345.98069080479, 1580.0644327338, -7870.5771751015
1056, 180.27266589991, 1607.4227869261, -7859.2504436323
1057, -689.30846835846, 1463.2703391545, -7945.9632342574
1058, -549.59527169045, 1521.2663433257, -7985.0809591181
1059, -496.71336982754, 1539.3446911704, -7875.319823831
1060, -638.34670930513, 1486.2098535265, -7836.2020989702
1061, -888.38091936732, 1351.6973004723, -7874.90612279
1062, -1042.7036251299, 1236.5578838619, -7984.3394291649
1063, -973.65864323427, 1291.6249829015, -8114.5553407449
1064, -813.28171094363, 1398.1699140822, -8005.12203437
1065, -1113.9656491485, 1172.7688529788, -7863.0636817406
1066, -1230.2345652669, 1050.1567332654, -7976.4208411057
1067, -1166.0160841531, 1121.0319984266, -8097.69658853
1068, -1289.3046717714, 976.7290890254, -7858.5846390266
1069, -1381.7641073244, 840.85325813127, -7973.5152837061
1070, -1330.4500915178, 919.89608325085, -8091.3514857853
1071, -1428.381857631, 758.96740298287, -7857.1676103925
1072, -1497.7494011331, 610.78063280154, -7972.6617468102
1073, -1459.6427590532, 696.95714785309, -8089.0094201239
1074, -1531.4417459869, 520.56933126012, -7856.6662053673
1075, -1576.3571036137, 362.49763018078, -7970.5078738173
1076, -1551.9917751243, 455.66191408373, -8086.5034152602
1077, -1595.5065828337, 265.82888130213, -7853.3337479581
1078, -1614.1664385263, 103.79286456805, -7961.6834398047
1079, -1604.8498908072, 201.89868245242, -8078.8575656639
1080, -1610.4209369757, -151.16433359198, -7943.1537107314
1081, -1616.6401656034, -52.733527834053, -8061.4871827515
1082, -1617.4915710231, 5.2218453952904, -7843.3499677846
1083, -1571.7032083305, -382.17178718946, -7926.4687685864
1084, -1594.9809553361, -268.96468562837, -8035.9254307856
1085, -1595.5156116035, -265.77468489181, -7833.6970485322
1086, -1370.9960164766, -858.2984171052, -7920.2789891202
1087, -1444.3041780441, -728.21129576818, -7986.8243551625
1088, -1473.8469150038, -666.39441859433, -7857.5319374667
1089, -1406.1134659969, -799.46930569099, -7790.9865714243
1090, -1231.936730101, -1048.1594072602, -7990.5499709516
1091, -1338.0885309575, -908.7493236971, -8065.5830201698
1092, -1270.1084485292, -1001.5641661795, -7845.245939902
1093, -1115.6221029941, -1171.1932262914, -7971.3067952623
1094, -1106.4163213632, -1179.8937129339, -8154.8789172136
1095, -1223.6908555819, -1057.7745222709, -8174.1220929029
1096, 1233.7950155141, -1045.9713713542, -9171.2808491279
1097, 1305.7032159618, -954.69647628291, -9275.6949038726
1098, 1151.3673027886, -1136.071997749, -9280.5859452553
1099, 597.81920041319, -1502.9698778144, -7876.4285493085
1100, 776.13650809161, -1419.125917883, -7896.2378571544
1101, 683.71134231318, -1465.8939424093, -7979.4951921192
1102, -1213.9697949848, -1068.9170158925, -8880.9553902924
1103, -1321.3912864116, -932.86189663605, -8773.8545825743
1104, -1262.8430623038, -1010.7094785303, -8628.2126408871
1105, -1147.426726788, -1140.0518219154, -8735.3134486052
1106, -680.87636729437, -1467.2128756455, -8574.1007959357
1107, -822.72330896506, -1392.6351305656, -8567.9863217323
1108, -818.67750816425, -1395.0173431273, -8440.2882377192
1109, -676.61469082423, -1469.1830417483, -8446.4027119226
1110, -1432.9453881987, -750.31577648344, -9152.6320293987
1111, -1340.3793894778, -905.36696552453, -9266.724514796
1112, -1464.7566751083, -686.14439641063, -9270.9075146026
1113, -1415.5371810365, -782.66259595258, -8669.2227644186
1114, -1362.4783211, -871.75631602676, -8903.9339134481
1115, -1449.6908151806, -717.42789908177, -8799.3020952924
1116, -1519.0812524479, -555.60633407243, -8694.6466477925
1117, -1479.8360707855, -652.98656464137, -8922.6513717331
1118, -1542.0435943066, -488.2702154116, -8817.9959242331
1119, 1600.878088037, -231.29115253924, -8057.8615164218
1120, 1609.8660825444, -156.96320037928, -7924.7525989736
1121, -1585.9989748638, -317.66885546264, -8714.8087591808
1122, -1562.2701503902, -419.06828465042, -8936.3454284595
1123, -1598.5794905359, -246.67764884165, -8833.1582634072
1124, -1615.9406035592, -71.008561234658, -8730.5521582136
1125, -1608.1136050184, -174.00253835711, -8946.0340110743
1126, -1617.4984033385, 2.2727070591817, -8843.4279058807
1127, -1607.5278211256, 179.33363964183, -8739.7429809759
1128, -1615.6621667048, 77.084454195398, -8951.9711690531
1129, -1597.5126532993, 253.49471897567, -8848.2862441483
1130, -1559.881426866, 427.87402832891, -8743.8777627663
1131, -1583.905621028, 327.94699827255, -8954.9490750439
1132, -1538.1583289417, 500.37506443396, -8850.5405936618
1133, 1520.5222943419, -551.65043497614, -8031.6547308521
1134, 1474.7349760156, -664.42682103913, -7954.0154069856
1135, 1498.2679748703, -609.50744497347, -7852.4816922279
1136, 1539.858908688, -495.11694712898, -7930.1210160943
1137, -1473.5057276893, 667.14849956117, -8745.3623867326
1138, -1513.0844320521, 571.73573570457, -8956.2264815065
1139, -1440.7059847703, 735.30436925607, -8851.0482745773
1140, -1350.5417008873, 890.13671094073, -8746.2182011446
1141, -1404.8179441073, 801.74359611667, -8956.9625059877
1142, -1307.5255927284, 952.19907286258, -8852.1324325551
1143, -1194.3680509798, 1090.7755079752, -8748.4207206718
1144, -1261.9505984805, 1011.8235700925, -8958.1029462255
1145, -1142.4870048552, 1145.002049665, -8854.3912343423
1146, -1009.7474279573, 1263.6124333567, -8752.8072562656
1147, -1088.5745468021, 1196.374400451, -8960.6401270388
1148, -950.51630791984, 1308.7494024367, -8859.0561489621
1149, -1253.1532570383, -1022.6989607769, -7601.7247124115
1150, -1316.0927245566, -940.32238640218, -7491.906784527
1151, -1160.1373414063, -1127.1147231204, -7494.8179278846
1152, -1222.9991346935, -1058.5742139968, -8304.9394144912
1153, -1305.4095682767, -955.09795783025, -8302.2885178921
1154, -1306.0336298887, -954.24441711738, -8171.4711963038
1155, -803.67296667666, 1403.7150753031, -8762.4512244941
1156, -890.08059010824, 1350.5786882343, -8965.3430349694
1157, -739.07471104302, 1438.7754590264, -8868.7381105015
1158, -587.33734670684, 1507.0969083517, -8786.6259005085
1159, -668.20125962789, 1473.0286238331, -8964.6669107274
1160, -513.31965327866, 1533.8869526656, -8882.5547007345
1161, 1560.9104953147, 424.10455741073, -8182.7543244729
1162, 1581.1422464952, 341.02118167077, -7895.7038765695
1163, 1191.5368594855, -1093.8675251087, -8731.0713010798
1164, 1278.1911036273, -991.22840587226, -8835.6345112196
1165, 1219.4740320744, -1062.6332081656, -8954.3121106823
1166, 1127.0974896645, -1160.1540840734, -8849.7489005425
1167, 1319.224841436, -935.92310994978, -8734.8302475168
1168, 1396.719243451, -815.770559026, -8828.5257990073
1169, 1360.7296313467, -874.48334482437, -8929.3300627102
1170, 1539.2861657443, -496.89470710416, -8937.0807332661
1171, 1470.8617790605, -672.95755950806, -8956.0862859584
1172, 1456.6679793978, -703.15336008389, -8817.706472495
1173, 1528.7093981912, -528.53933238883, -8798.7009198027
1174, 1612.0342064715, -132.86070587576, -8755.2725528236
1175, 1594.6060246698, -271.17867926304, -8879.1522401131
1176, 1570.4958778401, -387.10327780474, -8742.5065604679
1177, 1597.9958217757, -250.4308359358, -8618.6268731783
1178, 418.43654326198, 1562.4394737919, -8417.2302535866
1179, 224.47231107815, 1601.8484421315, -8466.4332025891
1180, 265.35137756326, 1595.5860667558, -8625.8027153019
1181, -484.3243669779, 1543.2874513685, -8987.802515418
1182, -338.40671664159, 1581.7038737172, -8958.8084080736
1183, -368.15182034243, 1575.0461857287, -8853.5605933901
1184, 1414.2225565348, 785.03554734042, -8633.9664916382
1185, 1343.0281052328, 901.4331692115, -8770.1841342478
1186, 1401.4672135699, 807.5864655184, -8901.5045973343
1187, 1464.5443438469, 686.59749118827, -8765.2869547247
1188, 1115.2418952581, 1171.5552761441, -8649.7578381007
1189, 1011.964858625, 1261.8373012826, -8776.4019476342
1190, 1097.3785069621, 1188.3041119417, -8900.4194399906
1191, 1194.1178805004, 1091.0493744415, -8773.775330457
1192, 735.89092741127, 1440.4064679644, -8660.0353892475
1193, 672.39764415017, 1471.1178260565, -8881.1924067174
1194, 806.71452880309, 1401.9693003122, -8776.3794772807
1195, 292.32483903772, 1590.8653112321, -8912.7113752079
1196, 451.59704871963, 1553.1794344466, -8913.1123005878
1197, 296.64425719784, 1590.0655441432, -8776.045439764
1198, -826.29991113588, 1390.5159858329, -9070.9806521911
1199, -763.10696997155, 1426.174604451, -9173.9312084251
1200, -601.46688415407, 1501.5138485096, -9067.6174669614
1201, -1031.5437722645, 1245.8826974889, -9067.4643659668
1202, -972.47955964425, 1292.5129616658, -9173.1019831884
1203, -1213.131189179, 1069.8686685015, -9064.9952395087
1204, -1161.8696665624, 1125.328897666, -9171.8194784366
1205, 1524.5382908096, 540.45281926846, -8325.8036216151
1206, 1566.3047661007, 403.72717234572, -8419.3953880295
1207, 1592.2615087476, 284.6217450595, -8276.3460908873
1208, -1365.5660563301, 866.91152708858, -9063.8449539324
1209, -1323.4258929497, 929.97320169474, -9170.7372472156
1210, -1484.4885686889, 642.3394269637, -9063.2880426076
1211, -1452.643763461, 711.42979026593, -9170.1704905523
1212, -1566.7519440441, 401.98830310608, -9062.6773660424
1213, -1546.08846602, 475.30695896426, -9169.7389271435
1214, -1610.3228775208, 152.2053879897, -9061.2620156364
1215, -1601.3954297033, 227.68163677688, -9168.9903066349
1216, -1614.3886513132, -100.27727813925, -9058.1208512983
1217, -1617.3064275166, -25.02337933563, -9167.4116978816
1218, -1579.4235177402, -348.89482886577, -9052.3747442528
1219, -1593.7268598466, -276.29865400248, -9164.4615844768
1220, -1506.9094501796, -587.81813425539, -9043.6671744167
1221, -1531.6527266045, -519.94824269835, -9159.6964902101
1222, -1398.8546342934, -812.10341836234, -9031.6162267151
1223, 151.46525095764, 1610.3926625989, -8178.8738064002
1224, 178.54747273003, 1607.6153302273, -8315.6100813659
1225, 320.71173139648, 1585.3864624579, -8289.2104911769
1226, 293.98349555742, 1590.5596355811, -8152.4742162112
1227, -1258.0299488065, -1016.6941024251, -9013.8544512153
1228, -1300.7629480713, -961.41666457621, -9141.5367644822
1229, -1094.7418229571, -1190.7336356501, -8979.5940216791
1230, -1144.0529970723, -1143.4373572216, -9112.493082602
1231, 491.48667237805, 1541.0214472468, -7748.8490702936
1232, 356.74018148817, 1577.6700202868, -7757.2333891055
1233, -1523.481168178, -543.42559767362, -7648.9990811416
1234, -1544.3911670221, -480.79327493627, -7775.5341644944
1235, -1577.0327974484, -359.54666702937, -7713.3259562878
1236, -1561.0441717521, -423.61225647861, -7586.790872935
1237, -1614.6586224813, -95.832055423245, -7724.0830969554
1238, -1606.1797129804, -191.03135766215, -7603.712004711
1239, -1609.2244294638, 163.41048196752, -7734.6523487857
1240, -1616.289574305, 62.56406310966, -7615.3854779565
1241, -1561.7142190071, 421.13530860171, -7738.9485560636
1242, -1585.4176155462, 320.55769264796, -7620.2671568912
1243, -1474.0003982536, 666.05485956361, -7739.2478020712
1244, -1513.7355020475, 570.00971907602, -7621.5301527674
1245, -1349.6649580849, 891.46550741896, -7739.3842192749
1246, -1403.9191811521, 803.31636532138, -7621.4644109536
1247, -321.64285725668, 1585.197818058, -7810.7884130254
1248, -441.365672605, 1556.1177953632, -7769.7999016148
1249, -378.10666653932, 1572.686109406, -7916.3083352415
1250, -1190.55231251, 1094.9390125377, -7741.1916391159
1251, -1258.7491815894, 1015.8034986394, -7621.9912193643
1252, -995.66991886167, 1274.7343498447, -7745.2291190911
1253, -1079.4055879173, 1204.6534052468, -7623.3570764665
1254, -754.98058970193, 1430.4931174855, -7750.1155090623
1255, -869.14090744914, 1364.1482078566, -7620.4385053634
1256, -522.14519650399, 1530.9051713832, -7693.3222743994
1257, -642.71897947374, 1484.3242783921, -7607.2356844915
1258, -337.37099160586, 1581.925113279, -7676.9534570306
1259, -184.77371224585, 1606.9116109055, -7641.4005705576
1260, -472.9218893869, 1546.8196845588, -8056.0275166963
1261, -324.37534767904, 1584.6409321414, -8132.5404145923
1262, 259.35323495081, 1596.5719994791, -7702.3643984284
1263, 89.084225874841, 1615.044968631, -7643.9701175917
1264, 441.92025478661, 1555.9603910156, -7648.9298133748
1265, 603.35692694543, 1500.755366043, -7683.8765319132
1266, 555.02177944519, 1519.2949267149, -7583.9572749944
1267, 803.28893155845, 1403.9348782745, -7726.6328969039
1268, 757.87708177226, 1428.9606638828, -7598.6394447725
1269, 1012.6293228812, 1261.3041284485, -7747.2173560556
1270, 961.23352429051, 1300.8982903287, -7615.9046849513
1271, 1202.2074710068, 1082.129126609, -7750.7124564588
1272, 1152.0076188324, 1135.4226949256, -7624.8512335955
1273, 1478.1475382672, 656.79989731631, -7758.0713175916
1274, 1448.0912068451, 720.65116849827, -7630.5733173665
1275, 1357.8831669512, 878.89678285377, -7751.9649411478
1276, 1563.2864506599, 415.26103017642, -7765.7252514022
1277, 1543.1270295557, 484.8352510437, -7634.3058702683
1278, 1609.4856235977, 160.81752837368, -7767.6178148631
1279, 1600.1027093534, 236.59579353815, -7637.6391896958
1280, 1569.2725752519, 392.03295086275, -8956.8825979687
1281, 1564.3382783918, 411.28092681064, -8795.35792283
1282, 1530.0957908032, 524.51226960521, -8830.9840352244
1283, 1536.4236494996, 505.67639776681, -8992.5087103631
1284, 1614.6920515652, -95.267143402576, -7777.5762030367
1285, 1617.3780008961, -19.865855561744, -7645.5646608686
1286, 1578.1909701541, -354.42842962158, -7821.4141926115
1287, 1590.5936329308, -293.79949775311, -7674.2377966746
1288, 1459.6063705569, -697.03335144716, -7739.7245571549
1289, 1512.2903614391, -573.83282643852, -7663.2348767544
1290, 1543.5749558882, -483.40728744491, -7775.9920118274
1291, 1336.9287404692, -910.45471765899, -7738.5173536145
1292, 1172.2027860068, -1114.5612941772, -7735.2893237915
1293, 1250.3621929014, -1026.1094661696, -7618.3527356369
1294, -1489.6798641203, -630.20643636398, -7742.7732862515
1295, -1532.1903643456, -518.36178235507, -7890.2928157095
1296, -603.14796184617, -1500.8393605316, -8658.2760490293
1297, -780.95323337176, -1416.4809554972, -8686.3597333607
1298, 1516.7939708101, -561.82052304464, -9081.8200625384
1299, 1575.2631069493, -367.22254000066, -9013.8499480579
1300, 1558.2456841493, -433.79331233915, -9158.5892773302
1301, 1614.4542333471, -99.215817426814, -9008.3279529228
1302, 1605.4859539879, -196.7767810171, -9143.0256608676
1303, 1617.4932469635, -4.6739734069513, -8876.9996771884
1304, 1610.6080528126, 149.1574678498, -8997.9159729034
1305, 1616.5729597122, 54.755053897006, -9129.2442486378
1306, 884.69889542481, -1354.110082096, -7815.8389990738
1307, 873.94187951163, -1361.0774560016, -7601.9806024226
1308, 977.30263204479, -1288.8699761412, -7718.7427710768
1309, 1602.1853370834, 222.05493832634, -8854.4523222135
1310, 1585.4387094171, 320.45334868248, -9100.3462486586
1311, 1332.2244891791, 917.32445755661, -9020.4311065325
1312, 1392.2670055022, 823.3461212576, -9140.111970744
1313, 1453.7835661116, 709.09773156025, -9021.1854615459
1314, 1176.4894866479, 1110.035466914, -9021.9958660949
1315, 1249.8515630497, 1026.7313769152, -9143.8201345488
1316, 1266.1721814943, 1006.5357702586, -8898.6068380785
1317, 542.2440841942, 1523.9020976285, -9003.288576247
1318, 653.84178762248, 1479.4584031863, -9140.3121759105
1319, 779.71917375625, 1417.1606331242, -9018.2160063809
1320, 333.47709740371, 1582.7505411489, -9048.3727286971
1321, 426.0697147947, 1560.3752267114, -9138.5490043563
1322, 141.16833212525, 1611.3279467585, -8972.1532641576
1323, 182.90200228207, 1607.1257286103, -9107.8146176468
1324, 1249.8346327064, 1026.7519860646, -7874.696913834
1325, 1187.8683936718, 1097.8501397347, -8130.234546133
1326, 1141.7746477252, 1145.7124001302, -8391.5338676929
1327, 1248.5586747809, 1028.3032070501, -8258.6641480784
1328, 1074.5608902, 1208.9768993875, -8263.1042657476
1329, 806.17977442383, -1402.2768704182, -8176.8915430002
1330, 758.66467831544, -1428.542668553, -8057.3060210515
1331, 863.32632437772, -1367.8354826647, -8019.6510250165
1332, 908.74510642567, -1338.0913950652, -8139.2365469651
1333, 1587.8595059111, 308.23439050125, -8728.4667430535
1334, 1576.6519564376, 361.21303722512, -8618.0929959747
1335, 1549.6945711948, 463.41448618865, -8684.9841757512
1336, 1278.004902467, 991.4684660998, -8645.3526266263
1337, 1298.245553528, 964.81331497074, -8388.7390957418
1338, 1214.2329835013, 1068.6180382988, -8518.081301825
1339, 1355.4360197409, 882.66610130276, -8516.0104205431
1340, 322.44357707594, -1585.0351382864, -8794.8802177548
1341, 498.86198152308, -1538.6497240733, -8858.372264288
1342, 476.09048800556, -1545.8473719066, -8982.7233245852
1343, 299.00646376346, -1589.6230322399, -8919.2312780521
1344, 301.06225806126, -1589.2349627324, -7851.0507216084
1345, 286.79042778439, -1591.8723254493, -7974.448538303
1346, 93.699059579498, -1614.7838047968, -7947.1151337808
1347, 251.18382217015, -1597.8776353276, -8579.2538728818
1348, 398.77027370339, -1567.5740871839, -8677.2532331295
1349, 173.563564139, -1608.161042683, -8696.8808575071
1350, -346.0105787137, -1580.0578879959, -7939.5283301363
1351, -486.29076129898, -1542.6689682091, -7861.5182691052
1352, -434.33080757324, -1558.0959532689, -7768.3108538969
1353, -292.87667370933, -1590.763811506, -7846.3209149279
1354, 1614.4078077667, 99.968396116248, -8750.3647055362
1355, 1606.655704431, 186.98582143909, -8624.3791263761
1356, 1127.7333224049, -1159.5360294262, -8281.8816092164
1357, 1250.802488954, -1025.5727100632, -8241.0693049668
1358, 1290.9128726026, -974.60258841684, -8435.6048309402
1359, 1173.3133378268, -1113.3921417353, -8476.4171351898
1360, -1556.0069089735, -441.75643654253, -8098.4746747897
1361, -1569.7686564188, -390.04181227793, -8216.0325418172
1362, -1603.0054053103, -216.05536453852, -8153.4832978131
1363, 1578.1209675494, -354.73999179827, -8503.7045727436
1364, 1598.1711249804, -249.30965741171, -8395.9974103653
1365, 1505.4438623976, 591.56151596393, -8533.9334440157
1366, 1483.1373699944, 645.45316772491, -8306.7417166242
1367, 1460.5252815, 695.105856758, -8514.8715390249
1368, 1384.2037591878, 836.83104809183, -8264.1196184489
1369, 1407.9560000694, 796.2199142628, -8396.9154679298
1370, 923.01929671789, 1328.2852208341, -8653.9617638488
1371, 1036.2658106986, 1241.9578976669, -8523.2104039686
1372, 946.60325760848, 1311.5824498235, -8401.20514117
1373, 827.5806853125, 1389.7541002989, -8531.9565010502
1374, 539.52654042387, -1524.866342398, -8545.2691252324
1375, 535.6233542802, -1526.2417476762, -8709.8492197073
1376, 402.77965791205, -1566.5486896909, -8512.6731386546
1377, 742.70955883741, -1436.9024884144, -9134.6185248638
1378, 600.69425701366, -1501.8231119512, -9063.0554912489
1379, 649.87969679369, -1481.2031021083, -8919.8080526525
1380, 789.67750327354, -1411.6358208914, -8991.3710862674
1381, -545.37302624224, -1522.7851168984, -8238.0710480692
1382, -561.31922988841, -1516.9795556162, -8057.0884324975
1383, -426.77079371529, -1560.1836236904, -8049.7400889942
1384, -410.37872199062, -1564.5751993871, -8230.7227045659
1385, 1489.9993545298, 629.45069187418, -8906.6559750764
1386, 1508.668711009, 583.28806812979, -8689.6150148727
1387, 858.65817631719, 1370.7707270888, -8273.588937278
1388, 1547.1271822154, 471.91496273175, -8529.3026048943
1389, 563.97670377418, 1515.9935776909, -8302.1251703828
1390, 696.60063308694, 1459.8129359555, -8436.9228316422
1391, -255.9962929023, -1597.1136928911, -8183.3309013508
1392, -173.56356413899, -1608.161042683, -8073.1191424929
1393, -1099.6332711367, -1186.2179053653, -8498.4183115002
1394, -1223.229671483, -1058.3078100456, -8485.2570591547
1395, -1099.3748774529, -1186.4573860132, -8318.1006668367
1396, 1316.8207890986, 939.30253880083, -7627.9804837726
1397, 900.98877843114, 1343.3262712912, -8898.8196610662
1398, 990.26538419774, 1278.9373396925, -9022.080171289
1399, 874.29823585879, 1360.8485752552, -9141.4765166038
1400, 1075.8618546767, 1207.8193240926, -9143.6565973933
1401, -1612.2565221508, -130.13514814317, -8273.107621853
1402, -1617.1492778553, 33.68179229459, -8181.1115067913
1403, -1612.9469666398, 121.27791557967, -8297.2829242622
1404, -1591.5487032617, 288.58096809374, -8195.0289831348
1405, 135.51525431223, 1611.8132230034, -8811.2238948596
1406, 103.82625049352, 1614.164291424, -8660.9811703975
1407, -1573.922005947, 372.92863820797, -8308.7610506162
1408, -1525.5233933341, 537.66590592151, -8200.2354827416
1409, -1421.4546603091, 771.86326424141, -8201.6516133245
1410, -1379.7169715844, 844.20810723537, -8315.1663263669
1411, -1281.1924418089, 987.34602700962, -8204.8661988277
1412, 1503.9478252944, -595.35467478829, -8627.0253048703
1413, 1551.9229572985, -455.89624325058, -8570.8309455355
1414, -1495.5235721706, 616.21059312711, -8312.8776759422
1415, 1479.3753972161, -654.02957434017, -8453.5428998677
1416, 1444.3832960603, -728.05435515628, -8663.5105993435
1417, 1414.6391728364, -784.28455338398, -8490.0281943409
1418, -1229.1744868327, 1051.3973230514, -8320.5070235995
1419, -1107.3305107252, 1179.0357882681, -8213.3374133018
1420, 1531.6116150228, -520.0693326156, -8465.9568668975
1421, 1561.9955523459, -420.0906383766, -8398.8304941056
1422, -1049.6276099156, 1230.6860405899, -8330.9611360791
1423, -910.71994703508, 1336.7480795095, -8232.1790635221
1424, -1511.3356243371, -576.34267637377, -8062.2987219128
1425, 1506.8327224482, 588.01479280668, -9107.0381968325
1426, -1374.1434074103, -853.25034185216, -8539.9892799011
1427, -1340.4756616781, -905.2244199361, -8397.0336981687
1428, -1456.3045452021, -703.90576189132, -8437.5883106864
1429, -1490.040233714, -629.3539162614, -8566.8217952039
1430, -534.24987511295, 1526.7230662245, -9163.3218777549
1431, -415.36916933764, 1563.2577212871, -9083.5069262116
1432, 173.08873733166, -1608.212218275, -8108.3085836843
1433, 399.53896580929, -1567.3783413076, -8059.4298058304
1434, 287.29134666399, -1591.7819989345, -8193.2898512116
1435, -173.08873733165, -1608.212218275, -8661.6914163157
1436, -295.54055202675, -1590.2710561749, -8772.4684458199
1437, -389.69125377663, -1569.8557184436, -8696.9720266958
1438, -268.52473902412, -1595.0550819743, -8586.1949971916
1439, 276.42095209541, -1593.7056526356, -9163.8386432392
1440, 175.19348058529, -1607.9842954334, -8982.5796380638
1441, 398.82675618881, -1567.5597176975, -9100.4902832275
1442, 100.30384093841, -1614.3870011534, -8858.9337305433
1443, 75.142551309494, -1615.753646749, -9133.6459075205
1444, -275.20342894569, -1593.9163474588, -7604.9112438765
1445, -175.19348058527, -1607.9842954334, -7787.4203619362
1446, -391.5825230985, -1569.3850316617, -7663.8117968683
1447, -100.30384093839, -1614.3870011534, -7911.0662694567
1448, -75.142551309483, -1615.753646749, -7636.3540924795
1449, 690.74026038907, -1462.595002958, -9275.6297141725
1450, 894.02109103044, -1347.9734933569, -9243.9888106913
1451, 577.10268136639, -1511.0455801066, -8386.4859372034
1452, 761.53707292563, -1427.013502585, -8453.0168716542
1453, 725.98427950926, -1445.4248772957, -8611.8000596832
1454, 73.504811370167, -1615.8289800302, -8597.9471269638
1455, 79.637043202026, -1615.5383596034, -8171.1934499034
1456, -73.504811370154, -1615.8289800302, -8172.0528730362
1457, -201.49181862765, -1604.9010240592, -8884.167549133
1458, -93.699059579485, -1614.7838047968, -8697.8848662192
1459, 212.10444328352, -1603.5329604157, -7457.1995623389
1460, 321.91448321283, -1585.142679855, -7512.2964730634
1461, 303.49567071075, -1588.7720503143, -7701.0137901496
1462, 525.46085099148, -1529.7702912775, -9180.8224498912
1463, 530.98580565605, -1527.8613563383, -7783.1414575964
1464, 425.83146958117, -1560.4402614372, -7710.6313751971
1465, 480.24972986946, -1544.560276247, -7617.061918269
1466, 450.64750213455, -1553.4552065701, -9290.1927357187
1467, 534.40398118979, -1526.6691307839, -7489.7654452056
1468, 752.14245045383, -1431.9874246045, -7490.7121715387
1469, -563.40353890521, -1516.2066819366, -7714.5881159398
1470, -521.75195539115, -1531.0392375917, -7610.0890589112
1471, -449.46067573678, -1553.7990059741, -7478.5571513971
1472, -688.31203789891, -1463.7393171202, -7516.5319075141
1473, -532.3614535903, -1527.3825757587, -8995.9616931761
1474, -437.4754051061, -1557.2159516031, -9099.3132112358
1475, -564.26402376356, -1515.8866585224, -9196.9965060637
1476, -312.44522954105, -1587.0363034717, -9220.7086868591
1477, -320.38218332494, -1585.4530918977, -9002.6876449516
1478, -704.35067450522, -1456.0894125444, -9289.0882568657
1479, -475.68100454638, -1545.9734253582, -9292.908249198
1480, 201.68148194426, -1604.8772008602, -9258.6459075205
1481, -597.94947514988, -1502.9180533775, -7902.1447398413
1482, -672.91749043613, -1470.8801110441, -7755.2145866758
1483, 491.84400639647, -1540.9074350433, -7953.955398368
1484, 423.4413009823, -1561.0905529861, -7860.6683066559
1485, -508.21978800279, -1535.5842201203, -8782.8750675544
1486, -413.08118771457, -1563.8638631148, -8890.9885416385
1487, -201.68148194425, -1604.8772008602, -7511.3540924795
1488, -212.10444328351, -1603.5329604157, -9312.8004376611
1489, -85.613284778177, 1615.2326815259, -9111.1199365502
1490, -238.73835130558, 1599.7844384841, -9263.8754310811
1491, 26.921070577173, 1617.275952322, -9232.2445054691
1492, 685.21975242117, -1465.1894556309, -8771.2850080718
1493, -1518.9632310505, -555.92890976865, -8312.4293210261
1494, -1548.4838426967, -467.44415592376, -8464.4778034269
1495, -1589.6422581054, -298.90423423815, -8368.081024218
1496, -1602.4620721083, -220.04898876012, -8493.6845937387
1497, -1569.5232877312, -391.02800317802, -8592.3026560155
1498, -1610.9566750873, -145.3438715308, -8616.190696904
1499, -833.65101598545, -1386.121291066, -8287.2730893243
1500, -850.06347859778, -1376.1171215977, -8130.4170678164
1501, -712.34680633683, -1452.1942974346, -8108.1885011571
1502, -695.04003982198, -1460.5566038481, -8265.044522665
1503, -747.36120595469, -1434.4885771012, -7953.2448085008
1504, -754.14682830718, -1430.9328465565, -7653.9381325507
1505, -766.44203678812, -1424.3850793392, -7837.0578735822
1506, -844.92392316222, -1379.2787296512, -7735.781419457
1507, -1617.227200678, 29.705746701347, -8516.2991205994
1508, -1604.9682093671, 200.95595766479, -8414.8708534879
1509, -1616.7155589855, -50.369150619314, -8398.7111913737
1510, -1593.0466074561, 280.19414068185, -8527.6191176345
1511, -1614.1438143412, 104.14411468812, -8630.660581909
1512, -1578.240512112, 354.20775814278, -8636.7015167014
1513, 961.98793121264, -1300.3405208641, -7496.2684308839
1514, -1529.5090578471, 526.22076352384, -8531.8845614413
1515, -1463.4332699628, 688.96249126192, -8423.2529226208
1516, -1553.5216901645, 450.4182591642, -8421.5093147628
1517, -890.39923645641, -1350.3686347505, -9283.7737608029
1518, -1427.867930259, 759.93382852586, -8533.4497531719
1519, -1503.1322132523, 597.41091342834, -8639.0608075061
1520, -1390.7129265964, 825.96840484223, -8639.7513323983
1521, 1575.4535315519, -366.40472147714, -7975.5431968784
1522, -1290.7493184836, 974.81918673883, -8535.7640914253
1523, -1176.5810899411, 1109.9383716194, -8430.9079581068
1524, -1336.6355694972, 910.88506649028, -8425.363156918
1525, -1122.1249607408, 1164.9643009476, -8540.778038378
1526, -1243.7226909553, 1034.1470485395, -8642.2309601716
1527, -1066.8278545986, 1215.806143533, -8646.9677988783
1528, -928.09979907083, 1324.7403568114, -8548.9798485602
1529, -783.72242774462, 1414.9506727268, -8452.7778909115
1530, -849.57673254638, 1376.4176784377, -8344.6292587016
1531, -989.53933788668, 1279.4991788879, -8440.8312163503
1532, 281.96197832937, 1592.7346586223, -9260.5701121777
1533, -716.0906084411, 1450.3518505875, -8561.8633484619
1534, -866.15330158636, 1366.0471105167, -8654.8193059475
1535, -649.961358281, 1481.1672703451, -8669.4952670085
1536, -693.94046291111, 1461.0793557965, -9279.5942374893
1537, -456.1778386656, 1551.8402074667, -9268.7276402657
1538, -563.61302604143, 1516.1288226521, -8466.1620218071
1539, -634.51808660569, 1487.8484626366, -8357.0765642568
1540, -910.21115849205, 1337.0945729291, -9279.3369709359
1541, -1107.5222481404, 1178.8556823777, -9278.7650122526
1542, -494.22301773456, 1540.1460511073, -8588.3074577752
1543, -429.26483047287, 1559.4992642894, -8705.4380912753
1544, -1278.1155499141, 991.32582487683, -9278.054466184
1545, -1417.4523388641, 779.18875572523, -9277.6827810315
1546, -1521.9209645015, 547.77990818464, -9277.4877095207
1547, -1588.8834448071, 302.91194895217, -9277.2512176227
1548, -1616.7033639703, 50.759067436443, -9276.7390890122
1549, 1529.2042159352, -527.10598172095, -8328.7595861134
1550, -1604.7995050316, -202.29878558786, -9275.6726088694
1551, -1553.6629651397, -449.93070661318, -9273.7889756074
1552, 1545.2978730711, -477.87104273227, -8231.8812490577
1553, 1560.6996602964, -424.87977164237, -8104.5483436205
1554, -1184.2831932461, -1101.716646055, -9259.8122496862
1555, -1005.7436077802, -1266.8015019762, -9237.6808329158
1556, -970.69181775849, -1293.8561144643, -8305.8729901355
1557, -978.37469791792, -1288.0563654103, -8142.6512405124
1558, -1592.4750502021, -283.4245304904, -7490.3139532954
1559, -1533.0987240889, -515.66903358351, -7481.4769196396
1560, -1617.1505906716, -33.618701497204, -7498.3980514155
1561, -1602.1192974911, 222.53091157575, -7501.987426541
1562, -1546.6334723175, 473.53051887624, -7503.2797303503
1563, -1452.4186996167, 711.88915640266, -7503.2504224171
1564, -1322.2742465833, 931.60993276292, -7503.2139885364
1565, -1158.8808039663, 1128.4066342407, -7503.7772308278
1566, -964.34774203761, 1298.591422437, -7504.5798456387
1567, -744.48590014558, 1435.9829366968, -7500.8586597248
1568, -513.46319164705, 1533.8389096719, -7491.3770247667
1569, -29.104402877501, 1617.2381345161, -7532.3017655091
1570, -281.66682030067, 1592.7868822732, -7494.0988050485
1571, 244.33456512387, 1598.9392953723, -7496.6683520826
1572, 694.19357477648, 1460.9591133016, -7486.5648043794
1573, 477.03180351328, 1545.5571514625, -7482.392470615
1574, 905.07439391649, 1340.576962161, -7497.0746403931
1575, 1101.8083914729, 1184.1978375592, -7503.8300445581
1576, 1274.2510922803, 996.28831360329, -7506.0211890374
1577, 1414.9685661482, 783.69012167592, -7506.9592947353
1578, 1520.1716180425, 552.61605269669, -7508.6140226313
1579, 1607.0159173611, 183.864328645, -8390.3797302977
1580, 1616.567053395, 54.929153259044, -7511.9473420588
1581, 1587.9708698887, 307.66014754104, -7510.691847637
1582, 1604.9224883959, -201.32077945716, -7518.6173188098
1583, 1548.3388056942, -467.92434514715, -7540.6204778648
1584, 1448.0134490694, -720.80739543525, -7507.6143988896
1585, -574.22107335496, 1512.1429856052, -8151.4810898284
1586, -709.99255747074, 1453.346764656, -8252.1435275424
1587, -495.90972218621, 1539.603779367, -8256.4141265428
1588, 1154.5242860403, -1132.8635941467, -7500.8711837316
1589, 1318.1983412268, -937.36832845307, -7502.4815519053
1590, 1072.5589304446, -1210.7533153882, -7612.1396146155
1591, -774.74302707612, 1419.8871405844, -8139.6933323629
1592, -649.03590272533, 1481.5730312656, -8080.5345322503
1593, 1083.3532659376, -1201.1044713856, -8585.042015638
1594, 1272.8469356326, -998.08162414239, -8622.4464206316
1595, 1479.8360429574, -652.98662770703, -9166.0127455668
1596, 1427.2328341291, -761.12593385314, -9040.2789689869
1597, 1530.7333157149, -522.64879810492, -9275.6946125577
1598, 1435.2875974983, -745.82555766594, -9275.3181330092
1599, 1591.9131680773, -286.56363220402, -9267.8946647726
1600, 1617.0945031916, -36.216263579026, -9260.130996095
1601, 1602.828566688, 217.36337273997, -9254.1132525427
1602, 519.48931470091, 1531.8084416505, -9262.9788921785
1603, 1545.1299185295, 478.41382177479, -9231.2329961158
1604, 749.61391333089, 1433.3126773111, -9262.333283732
1605, 1590.9545523682, 291.83876078889, -8508.1857791099
1606, 964.62145497798, 1298.388115548, -9264.1432328718
1607, 1155.322125458, 1132.0499266496, -9264.5133645215
1608, 1446.1250213457, 724.58862303922, -9260.8052007167
1609, 1317.0706660318, 938.95213439161, -9264.3067700274
1610, -906.96813807176, -1339.2964744681, -7522.4062250365
1611, -526.17682769907, -1529.5241730658, -8419.4292373268
1612, 1340.6754076877, -904.9285613911, -8561.9460989706
1613, 1371.1568913897, -858.0413913061, -8363.6869263105
1614, -107.63863618755, 1613.9145497825, -8567.8463749293
1615, -59.30287072479, 1616.4125152707, -8713.8171090976
1616, 55.484719641695, 1616.5480802891, -8515.0104362292
1617, -1.4534072874973, 1617.4993470191, -8827.9182240038
1618, 4.2204589640986, 1617.4944938782, -8988.8475933017
1619, -1488.0246191421, -634.10486737372, -7579.2129197126
1620, -1449.0631815522, -718.69475152507, -7672.9871248226
1621, -1441.3313784608, -734.07772576497, -7482.7360000731
1622, 1382.5102497922, -839.62590432849, -8674.3299258558
1623, 345.70396805241, 1580.1250002683, -7594.0608226976
1624, -984.84296405606, -1283.117526242, -7991.0292295483
1625, -856.97643242319, -1371.8227452084, -7978.7950568523
1626, -1375.9442551304, -850.34325820438, -8227.4607288347
1627, -1407.0125052413, -797.88599442179, -8322.2059091113
1628, -419.64253505219, 1562.1159985017, -7600.4758298152
1629, -334.39779561391, 1582.5562752359, -8499.8588862323
1630, -405.87727220363, 1565.7489868777, -8377.7134502642
1631, -79.637043202012, -1615.5383596034, -8473.8065500966
1632, -209.20300012027, 1603.9140733657, -8786.5310950542
1633, -271.56202706249, 1594.5407851346, -8638.4085929393
1634, -315.07005991916, -1586.5172886995, -8503.3840499348
1635, -126.86239942262, -1612.5173430425, -8390.9956028398
1636, 352.52901829592, -1578.6163375752, -8400.3707898969
1637, 206.10026953352, -1604.3157198314, -8290.1978470637
1638, 432.2263793793, -1558.6810472219, -8303.4627940449
1639, -171.36863322735, 1608.3964192778, -8429.2966682222
1640, 126.86239942263, -1612.5173430425, -8379.0043971602
1641, -200.00972154231, -1605.0864030601, -8303.0484758759
1642, -355.43523962584, -1577.964524453, -8350.440279091
1643, 200.00972154232, -1605.0864030601, -8466.9515241241
1644, 1409.1668108705, -794.07502740041, -7853.1459599745
1645, 1395.3979562586, -818.02860198737, -7625.0959507949
1646, -1404.3833600588, -802.50459686525, -8121.5725527007
1647, -956.70383855377, -1304.2331138629, -8458.8881385305
1648, -921.29918280429, -1329.4788699954, -8612.7084204555
1649, -1067.3493205705, -1215.348377165, -8652.2385934252
1650, -1098.8537577427, -1186.9400444398, -7810.1425740805
1651, -966.4961690431, -1296.9932171083, -7829.8650083665
1652, 1019.4073006082, -1255.832395452, -8764.8415798632
1653, 874.21427894377, -1360.9025110164, -8677.932890458
1654, 943.82237051052, -1313.5850116852, -8498.1333262328
1655, 963.05551894385, -1299.5500442198, -8332.6947192674
1656, 1079.0468119054, -1204.9747830211, -8088.4234369142
1657, 835.75869860072, -1384.8514894072, -8837.4178388466
1658, 961.44701424263, -1300.7405155541, -8908.1185057253
1659, 918.06883004803, -1331.7116329349, -9062.0717531461
1660, -318.8497987785, 1585.7619795603, -9147.6030713467
1661, 9.2084747492649, 1617.4737877297, -8364.187315006
1662, -51.916583526414, 1616.6666070514, -8188.7303850974
1663, -232.02172958608, 1600.7723657659, -8253.8397383137
1664, 516.39109176485, -1532.8556652033, -8165.6168935321
1665, 658.46104300371, -1477.4083067475, -8248.6400366907
1666, -240.90210633893, 1599.460041752, -9022.9045532088
1667, -151.70464384593, 1610.370128584, -8900.6322099604
1668, 683.23845045606, -1466.1144122538, -8137.9533150021
1669, 606.44162013888, -1499.5115242516, -8060.1424860697
1670, -967.2419291646, -1296.437156389, -9037.7588975565
1671, -875.21104063931, -1360.2616970065, -7862.6081219337
1672, -937.58550394284, -1318.0438812104, -7703.0383058899
1673, 1073.3625933301, -1210.0409056059, -8993.0258264046
1674, 782.4595880323, -1415.6494068435, -8287.5782646888
1675, -486.99167514188, -1542.447846231, -8572.3730081707
1676, -980.67908794033, -1286.3027545942, -8773.0869224506
1677, -1065.7755676496, -1216.7286835614, -8856.1617776307
1678, 1574.6457962227, -369.8606040636, -8301.9521570498
1679, 1591.1433059875, -290.80789159051, -8186.8666631639
1680, -1179.1074431081, -1107.2542109232, -7739.3284211118
1681, -1117.5968744888, -1169.3089737674, -7601.8298901502
1682, -1033.1573493032, -1244.5449536199, -7672.644043119
1683, -1004.2080683625, -1268.0190871732, -7492.0119622656
1684, 1152.2828004142, -1135.1434261227, -9070.5288292051
1685, 1102.1065335876, -1183.9203683624, -9177.8070633674
1686, 1020.0206706219, -1255.3342509085, -9100.3040605669
1687, 997.32723649434, -1273.4381152402, -9282.2211181121
1688, -935.76933148643, -1319.3339259829, -8914.3266535081
1689, -881.36331178673, -1356.283511157, -8731.0818320838
1690, 967.61235915764, -1296.1607046988, -7939.2521669359
1691, 1083.9782836716, -1200.540432692, -7841.8924802527
1692, -1385.9582697646, -833.92201342274, -7589.6427846
1693, -1336.5950119372, -910.94457793243, -7707.6422312018
1694, 1369.7503806306, -860.28492068749, -9166.0130368818
1695, 1295.3867055309, -968.64830208586, -9055.0641306051
1696, -1479.2397173416, -654.33638798341, -8197.046919451
1697, 468.85268326253, 1548.0579483332, -8174.1054079731
1698, 1005.1484502175, -1267.2737837679, -1261.2924914951
1699, 1182.477175751, -1103.6548277554, -1207.1550391738
1700, 1094.8888176065, -1190.5984743314, -1370.761800919
1701, 1044.7064048557, -1234.8662995051, -1113.2661882124
1702, 1568.2461923663, -396.11883334257, -3613.4068221079
1703, 1552.5225575888, -453.85014947428, -3404.1171231929
1704, 273.27682003014, 1594.2477943012, -6455.1836159626
1705, 469.50107181215, 1547.8614258283, -6405.6211646625
1706, 1613.8350573838, 108.82397511144, -6986.8348790861
1707, 1587.2641118781, 311.28586402809, -7187.1142769965
1708, 1609.6605553191, 159.05705469997, -7188.0594940327
1709, 1586.1746416017, 316.79055595092, -7020.4637587681
1710, -65.640690963351, 1616.1675500052, 457.21968993203
1711, 148.58048318536, 1610.6613827917, 458.97184504221
1712, 80.181180891443, 1615.5114447849, 661.3182309122
1713, -910.85604865935, 1336.6553439914, 677.4413986658
1714, -715.80988443629, 1450.4904202866, 687.05121718305
1715, -682.05896770088, 1466.6634973909, 505.83141811858
1716, 481.12466627398, -1544.2879606805, -6996.8948118288
1717, 600.95212999817, -1501.7199430822, -7190.5167857834
1718, 389.81811115359, -1569.8242227131, -7228.8184572588
1719, -454.46851297393, 1552.3416572119, -5461.8195988204
1720, -660.62104777737, 1476.4437277572, -5344.8686564739
1721, -580.82941889607, 1509.6169832593, -5516.8836865865
1722, -736.26257485275, 1440.2165361053, -5582.5728753004
1723, -345.68317287509, 1580.1295497493, 614.4060817647
1724, -508.4039136671, 1535.523269302, 543.61602690427
1725, -284.44142857229, 1592.2937303499, 464.3073341095
1726, -577.89298968485, 1510.7435065136, 686.46201735817
1727, -209.64619374665, -1603.8562041054, -4631.952343377
1728, -445.88636521772, -1554.8284790654, -4410.2265339442
1729, -159.67600102326, -1609.5992745703, -4394.9763860852
1730, -462.14861391795, -1550.0725494807, -4635.2026147574
1731, 1597.9460662373, 250.74811942814, -3548.7915265451
1732, 1559.4315471001, 429.51076809425, -3505.572265266
1733, 1587.4689346226, 310.23963577902, -3738.4106698705
1734, 1539.2598807786, 496.97612560908, -3676.9949197605
1735, -126.84382532226, -1612.5188042245, -3404.505016725
1736, -186.82552170107, -1606.6743523319, -3649.3053240497
1737, -417.41399661161, -1562.7129632254, -3422.2638194403
1738, 489.83523609862, -1541.5471745867, -1744.2351555483
1739, 848.11391173592, -1377.3195136641, -1692.2439088418
1740, 726.71568100375, -1445.05728917, -1923.9544263942
1741, 676.06112529277, -1469.4378533534, -1548.7207132043
1742, -1581.1526262117, 340.97305263565, -6550.0023524896
1743, -1540.6243801221, 492.72991524091, -6703.6558129372
1744, -1525.5843408217, 537.49294789752, -6394.4010961106
1745, -225.82063763551, -1601.6589180028, -6548.8182385319
1746, -201.86404580653, -1604.8542479025, -6239.6581753056
1747, -1474.4830963277, 664.9856003281, -6561.2733763399
1748, -1514.2954366084, 568.5205191257, -4756.85370042
1749, -1538.37738344, 499.70118683084, -4516.8124240446
1750, -1589.9915021505, 297.04086097559, -4748.3476758063
1751, -723.727681339, -1446.5560802346, 357.16149898293
1752, -426.96651528619, -1560.1300730466, 175.75614373176
1753, -623.3524912434, -1492.560860287, 86.315801985715
1754, -1591.8981143026, 286.64724607041, -4539.125858243
1755, 1617.1299430253, -34.597649789648, -525.58440798637
1756, 1597.9833617084, 250.51033053156, -478.03088202109
1757, 1611.816925234, 135.47121291698, -627.26852254753
1758, 1299.5212944328, -963.09431278345, -2275.6730915149
1759, 1370.0370394879, -859.82833195422, -2446.6621834138
1760, 1243.9920597052, -1033.8230048662, -2383.6293326764
1761, 1617.4539989227, -12.198826535268, 655.94748973186
1762, 1605.9303772038, 193.11621779158, 440.29473841107
1763, 1372.0661013239, -856.5867519393, -3460.5121374434
1764, 1357.8003342518, -879.02474499058, -3319.0140492388
1765, 1474.971142579, -663.90238631831, -3437.5969380262
1766, 1448.2119137524, -720.40856662423, -3219.610198387
1767, -669.17910731992, -1472.5846571001, -1739.3306475609
1768, -493.90977047132, -1540.2465350174, -1637.8561265485
1769, -434.82163467481, -1557.9590482483, -1890.6533103636
1770, -282.58373321142, -1592.6244641234, -1723.065602177
1771, 1603.2842737405, 213.97613786654, 647.72004285919
1772, 649.14973348037, 1481.5231599683, -314.90767393187
1773, 865.20298539135, 1366.6492030034, -208.94306061243
1774, 651.45101483338, 1480.5126900073, -87.907668435315
1775, 351.17563612389, 1578.9179594244, -6174.8689423487
1776, 169.34212585369, 1608.611045098, -6268.4984843797
1777, 572.21946223817, -1512.9015622425, -2855.5439975377
1778, 691.71882768103, -1462.1324541339, -3053.183906393
1779, 397.55322711465, -1567.8831849378, -2970.5309612123
1780, 736.42381356479, -1440.1340968169, -2720.9261420706
1781, -475.07452030084, -1546.1599044604, 651.60795078996
1782, -710.77644556708, -1452.9635557807, 637.09917601036
1783, -1615.8257802348, 73.575117590838, -4536.5687637734
1784, -1613.7761825753, -109.69358482975, -4673.6635791015
1785, -1616.6711951465, 51.773514305349, -4757.2015199036
1786, -1613.9518595117, -107.0777529594, -4902.5480298516
1787, -1309.5521854708, -949.40998705973, -27.275458979615
1788, -1440.016706951, -736.6533334628, 113.82445133971
1789, -1342.7366089682, -901.86731226741, 157.34688918002
1790, -1615.5594357527, 79.208330057213, -4345.3496096157
1791, -1594.3249452892, 272.82635288501, -4335.6669918369
1792, -416.99942745215, -1562.8236392839, -6090.470061786
1793, -376.8888130346, -1572.9784081828, -6321.4938777534
1794, -609.39500988028, -1498.3137094524, -6154.1809716629
1795, -581.1214272601, -1509.5045997874, -6432.6213984993
1796, -1235.0498014121, -1044.489462863, 31.347712521784
1797, -1245.8046080968, -1031.6380801641, -179.23908238236
1798, -1160.8199083528, -1126.4117321707, -42.083997903817
1799, -1403.5362800642, -803.98517433075, -102.75666930132
1800, 467.34760541371, 1548.512985323, -275.67912754251
1801, 1430.5598590498, -754.85411814164, -2914.0290134364
1802, 1273.1464870947, -997.69949002612, -2916.781100591
1803, 1356.9597041472, -880.32187938321, -2761.8123159887
1804, 465.89642029938, 1548.9502172608, -128.863239329
1805, -206.57804715927, -1604.2542692578, -5983.2507985695
1806, 1440.3227845731, -736.05470329297, 575.08376298143
1807, 1246.321718539, -1031.0132995738, 443.00349489369
1808, 1283.7126233813, -984.06714738964, 640.31279724463
1809, 341.46137774703, -1581.0472407576, -6624.5922654294
1810, 410.09483633438, -1564.6496333722, -6846.951673624
1811, 191.13418381367, -1606.1674799901, -6816.5594105399
1812, 709.18296886136, -1453.741987657, 644.33385914052
1813, 712.83432042162, -1451.9550549618, 367.67670544518
1814, 446.44571238075, -1554.667963231, 432.37762909185
1815, 939.7028415402, -1316.535156994, 453.83535775861
1816, -1227.8080226086, 1052.9927395847, -6534.4987272408
1817, -1212.5112273967, 1070.5712369745, -6190.3721585621
1818, -1303.186691928, 958.12874708039, -6316.3500284416
1819, -1614.9352695343, -91.051223023306, -2712.6497848346
1820, -1617.018205926, 39.476216939193, -2515.2036695367
1821, -1607.8346165771, -176.56187509328, -2350.9816318079
1822, -1602.7420172043, 218.00063368716, -2646.4953414724
1823, 483.96580470733, 1543.3999319276, -3699.7094028049
1824, 736.08575253333, 1440.3069169165, -3793.0125863838
1825, 669.42790993553, 1472.4715696404, -3516.8002845901
1826, -422.69937561052, -1561.2916088478, -6592.5340212948
1827, 1250.9517529389, 1025.3906386441, -1523.4152596291
1828, 1347.9456416812, 894.06308338549, -1636.4939266314
1829, 1366.865065949, 864.86192047534, -1905.2838478499
1830, -1499.4305522102, -606.64179636625, -3988.332447281
1831, -1574.4310853419, -370.77352590094, -4164.1439517221
1832, -1565.3257921645, -407.50633661893, -3960.8904658842
1833, 675.4446351313, 1469.7213323866, -3920.4004580016
1834, -1438.404377837, 739.79665842666, -7095.7549668677
1835, -1557.5451429339, 436.30193412689, -6981.8236419264
1836, -1541.3502493843, 490.45454297305, -7164.8283739382
1837, -1496.2637669195, 614.41109186274, -6876.4964934987
1838, -660.54280127981, 1476.4787359381, 280.87528215362
1839, -840.22994362458, 1382.1432240678, 351.96255021124
1840, -796.45780027774, 1407.8214454883, 128.02587316724
1841, -416.25379532529, 1563.0224015916, -4598.5529729431
1842, -477.92401452118, 1545.2814909731, -4801.3247395077
1843, -228.4683433123, 1601.2833809492, -4713.3080099685
1844, 1617.4900836482, -5.6638590839197, 437.91178228869
1845, -1160.9139539512, -1126.3148056922, -343.14620613426
1846, -1280.8925330527, -987.7350701326, -461.50258603174
1847, -1347.1770247344, -895.22081858491, -289.97912549237
1848, 1563.9889939553, 412.60717006235, -2040.7588104854
1849, 1500.0552770179, 605.09537751563, -2081.0620833878
1850, 1542.6360394916, 486.39520933272, -2268.2378392067
1851, 1478.1802693348, 656.72623013642, -2216.7402433348
1852, 1602.0292933623, -223.17794068624, 430.97245951704
1853, 1469.9320216134, 674.98600121455, -4768.4589137926
1854, 1372.8917177681, 855.2628726209, -4947.9195509663
1855, 1449.3113901631, 718.19408542792, -5064.9674841706
1856, 1363.2817456885, 870.49935776688, -4643.7160747301
1857, -344.79217657867, -1580.3242088161, -2294.5022451063
1858, -230.78763334145, -1600.9507544883, -2085.7268613963
1859, -164.6485443042, -1609.0982278464, -2340.0897974244
1860, 881.87645759878, -1355.9499118821, -5714.5446644409
1861, 772.64874916749, -1421.0278534955, -5894.061773464
1862, 650.15334937935, -1481.0830065499, -5641.6569364704
1863, 1027.4168956365, -1249.2881063072, -5965.1324872411
1864, -742.6572352533, 1436.9295323452, -5135.004481084
1865, -811.35503031396, 1399.288842514, -5424.5175549003
1866, -1586.9482353554, -312.89223113158, -190.781663514
1867, -1530.7890957472, -522.48540107967, 69.311135419566
1868, -1099.554380675, 1186.2910325626, -6360.8148702304
1869, -982.82225788227, 1284.6659719208, -6208.0884261636
1870, -310.4009433651, 1587.4374017132, -4893.0811659069
1871, 600.82913199421, 1501.7691580756, -927.96739169196
1872, 638.532643069, 1486.1299787486, -805.5653240034
1873, 429.68412216445, 1559.3837902068, -882.46782697611
1874, -608.20986692478, -1498.795185399, -7121.7151880329
1875, -688.08934733115, -1463.8440149447, -6924.5181106809
1876, -404.38636830518, -1566.1347052948, -7053.4296015839
1877, -790.00277732951, -1411.453811434, -1801.2008275041
1878, -730.75396091374, -1443.0193687574, -1540.1789884014
1879, 704.15777899331, -1456.1827056668, -6908.8431413136
1880, -916.62459450994, -1332.7061201703, -1677.1493841711
1881, -1349.9009267055, -891.10815172996, -6110.4566652974
1882, -1468.3633789613, -678.3916548169, -6080.1549776454
1883, -1342.1843382805, -902.68901182773, -5891.0434141832
1884, -1356.0403902072, -881.73732490277, -6336.3906853398
1885, -1073.7208835017, 1209.7229907431, -4127.3276233784
1886, -1164.0194373976, 1123.1050704901, -4176.2637665276
1887, -1034.531874899, 1243.4026097037, -4287.8689822349
1888, -1158.3340018438, 1128.9679314191, -4304.3435788671
1889, 833.610077597, -1386.1459117022, -1315.2364695951
1890, 876.14229130799, -1359.6620666113, -1047.9206003144
1891, 591.59906394918, -1505.4291074423, -1213.7941641108
1892, 997.59365331273, -1273.2294187892, -4283.6552353259
1893, 1068.5114232133, -1214.3268046382, -3986.8719175941
1894, 1192.1534869989, -1093.1954598498, -4179.4301664188
1895, -467.24747680253, -1548.5432010188, -3869.9632970637
1896, -514.29376225859, -1533.5606202892, -4149.6174465229
1897, -682.16544016144, -1466.6139786083, -4047.104376405
1898, 414.29850308586, -1563.5418127894, -4922.7609728901
1899, 264.12282465124, -1595.7898932811, -5155.2376695181
1900, 206.54682703803, -1604.2582891294, -4900.6731862282
1901, 535.67822482136, 1526.2224901541, -6900.0588485449
1902, 349.35225931463, 1579.3224018267, -6698.0782963228
1903, 403.0645384699, 1566.4754156475, -6992.0158646449
1904, 322.8745763717, 1584.947399106, -4951.6901774331
1905, 416.08492263327, 1563.0673648814, -4807.0850785606
1906, 212.86997155809, 1603.4315155967, -4746.9869267045
1907, 245.93488564137, 1598.6939300643, -4622.1040264543
1908, 1083.3547978952, 1201.1030896129, 315.50904849561
1909, 1031.0011780385, 1246.3317459181, 500.53254989173
1910, 879.48796031215, 1357.5003416817, 291.15848219103
1911, -477.51899982117, -1545.4066956014, -6798.2568166873
1912, 831.00656071798, 1387.7083072619, 481.89181985579
1913, -1115.1288519701, 1171.6628753629, -841.75157530121
1914, -1032.6052400355, 1245.0030796152, -637.09130812452
1915, -1273.1861029242, 997.64893490677, -710.32383543993
1916, -954.17674486195, -1306.0830714639, -1230.0775862951
1917, -1058.2041609569, -1223.3193384123, -1159.585007776
1918, -843.87734601602, -1379.9193001335, -1138.5811532461
1919, -1160.2401394563, 1127.0089036003, -486.59264973253
1920, 1119.2996579757, -1167.6791193027, 662.18184273393
1921, -447.17737803137, 1554.457668313, -7180.9364037479
1922, 201.7321822279, 1604.8708286506, -6923.3012868729
1923, 138.23227962437, 1611.5824790776, -6645.1674210208
1924, 900.81474960259, -1343.4429786554, -4082.7512011434
1925, -1421.3028542706, -772.14276299285, -3936.8829164548
1926, -1380.7651111579, -842.4927048996, -4088.1691128474
1927, -1316.8685135202, -939.23562970062, -4004.2433398896
1928, 64.523854334944, 1616.2125238414, -3144.3933882621
1929, 235.06042897034, 1600.3289801576, -3195.3297295524
1930, 169.80572018397, 1608.5621739283, -2932.76908746
1931, -467.40561756798, -1548.49547583, -2435.6945166206
1932, -243.48073659012, -1599.0695359832, -2561.2852490732
1933, 351.06987390221, 1578.9414788517, -3036.294826758
1934, -566.09929946744, -1515.2022416636, -2167.576664228
1935, 1598.9561991043, -244.22392050287, 649.03108407843
1936, 767.92404636778, 1423.5866355829, -2250.9114076666
1937, 924.43369669158, 1327.3012432832, -2041.4966005298
1938, 750.3209054821, 1432.9427025518, -2065.6113711961
1939, -1171.9445474947, 1114.8328249552, -5710.7695124681
1940, -959.15417442399, 1302.4321555018, -5883.7952743844
1941, -1022.1701632349, 1253.5846231477, -5673.1307692193
1942, -876.38653180675, 1359.5046512858, -5633.6642523342
1943, 1608.4298910299, -171.05418919625, -3592.1390302057
1944, 1616.8276222261, 46.63357167114, -3573.9728088247
1945, -769.67412109936, 1422.6412046999, -6969.3580623274
1946, -928.87105355762, 1324.1996888169, -6974.9911839374
1947, -847.00610707823, 1378.0010539082, -7162.3674806548
1948, -849.13777810475, 1376.688520979, -6734.6654941721
1949, -1199.8829286484, -1084.7060466035, -6127.6593473777
1950, -1201.2854308269, -1083.1526040604, -5911.1307509756
1951, -1366.5599732019, -865.34391408407, 374.07279305237
1952, -1232.0651059864, -1048.0085040736, 172.92199053068
1953, -1480.4351846896, -651.62712799048, -4214.2454898187
1954, -1228.2437005042, -1052.4845187326, -596.01874682806
1955, -1378.2882004842, -846.53876840113, -569.62059832807
1956, -385.76599010241, -1570.8248950409, -2123.5806703089
1957, -1004.6411853931, -1267.6759596253, 63.293393362183
1958, -1108.6931492416, -1177.7545375946, 129.06777380703
1959, -1238.3691680373, -1040.5518024849, 384.76832855481
1960, -1399.6301380833, -810.76613555883, 613.15098425196
1961, -1267.0124904484, -1005.4777963972, 623.40456519461
1962, 1498.1307885386, -609.84456251803, -3632.2430258423
1963, 1401.2253853111, -808.0059836164, -3647.1606710019
1964, 1272.2679581587, 998.81954958983, -3339.4990309483
1965, 1306.4385025512, 953.69003824706, -3135.7190819335
1966, 1151.5434173434, 1135.8934844311, -3270.1651928921
1967, 550.24704264567, -1521.0307170007, -6679.9088390945
1968, 1411.4111717641, 790.07895442128, -3180.9326371938
1969, 737.97730066542, 1439.3386515003, -2432.7074282837
1970, 652.72294017616, 1479.9523686145, -2253.7113356904
1971, 601.64987246938, 1501.4405352719, -2372.6527928896
1972, -1331.6512707343, 918.15638273204, -2113.79645533
1973, -1353.2662928648, 885.98904654397, -1927.3733876461
1974, -1436.2438669306, 743.98239542632, -2115.0994963863
1975, 620.44500290316, -1493.7718193796, -5867.3247350598
1976, 421.20750007755, -1561.6947499042, -5808.1010431487
1977, 440.72458890969, -1556.2994849098, -5584.0873630179
1978, -1447.542692413, 721.75231460773, -1913.4196670218
1979, 1610.923439608, 145.71177619328, -197.48678947824
1980, 1596.632485767, 258.98060814174, -42.652708840789
1981, 1575.2342032894, 367.34650506999, -307.82526130452
1982, 1082.1467215529, -1202.19163324, -4474.0481221196
1983, -1055.7766298291, 1225.415014559, 452.17885097474
1984, -966.91594163566, 1296.6803043969, 234.22793519717
1985, -872.76625800611, 1361.8316007811, 488.21093436879
1986, 168.7470200297, 1608.6735819398, -972.5634186893
1987, -70.448090707062, 1615.9651346844, -1038.4290270969
1988, 95.268128758612, 1614.6919934287, -1148.8615627179
1989, 923.75774640881, -1327.7717710321, -4575.5102064648
1990, 818.70560110835, -1395.0008561696, -4389.0926766784
1991, -1432.0770159627, -751.97185476014, -407.29347152082
1992, -1484.447230829, -642.43495303727, -216.76109743071
1993, 1572.3518717387, 379.49419157568, -3381.3471128662
1994, 1545.8577329797, 476.05684470118, -3297.6001558131
1995, 1538.6090317582, 498.98747217959, -130.56819312631
1996, 1273.9966228027, 996.61369400953, -4815.4632308371
1997, 1292.2360711665, 972.8474630569, -5127.6890922994
1998, 1146.4233737405, 1141.0607775844, -5003.3495250151
1999, -1572.6054994126, -378.44179634035, -1950.0558417272
2000, -1566.8762482206, -401.50351525485, -2136.6628324426
2001, -1599.5280699266, -240.45000211428, -2153.0587778828
2002, -1528.3324973641, -529.62819741859, -1946.8014263235
2003, -1606.5654585392, 187.75962672682, -6120.304368005
2004, -1610.7107861129, 148.04395799694, -6403.7513445647
2005, -1617.1412978923, -34.062775153137, -6268.0782869124
2006, 1616.4624456706, 57.925915932273, 55.71888035652
2007, 1614.2830375321, -101.96334996489, -36.37942758108
2008, 1607.0652379298, -183.43274254533, 213.60934281506
2009, -687.4362540072, -1464.1508278441, -6666.9557111007
2010, 1574.6414194262, -369.87923735635, 5.3871436145218
2011, -1007.172920042, 1265.6654214815, -7116.1563847534
2012, 869.60473825924, 1363.8525760496, -6963.8671873603
2013, 887.87673117336, 1352.0285352909, -7170.1362821829
2014, 1023.6131511235, 1252.4066299916, -7180.6039892927
2015, 1616.8529499854, 45.747001251955, -361.65375833097
2016, 978.20370440728, -1288.1862298146, -1521.0345840782
2017, 982.67317037545, -1284.7800162768, -1826.3346837758
2018, 1292.988653865, 971.84699977747, -252.80727696253
2019, 1391.6502274872, 824.3881939565, -365.81806753965
2020, 1463.5763273004, 688.65853960142, -239.0042608991
2021, -1611.0292230913, 144.53751189877, -235.61563690118
2022, -1614.2503760836, -102.47913599362, -200.97283237347
2023, 1283.664967253, -984.12931154767, -5297.6520900943
2024, 1102.8631924274, -1183.2155462082, -5448.8074836493
2025, 1172.1632205235, -1114.6029043799, -5170.2580437238
2026, -161.68344199825, 1609.3988674606, -1191.3346920069
2027, -1202.482814663, 1081.8231511852, -7167.1557369803
2028, -899.77464320935, 1344.139814691, -5271.0369777344
2029, -656.74123521108, 1478.173602786, -6572.4181184065
2030, -971.37874715214, 1293.3404731861, -6542.0889597582
2031, 920.4346430608, 1330.0775608413, -6156.6051143604
2032, 1107.4845180306, 1178.8911282737, -6148.1697869382
2033, 1008.0212947956, 1264.9898494607, -6071.2113742818
2034, 766.94908326917, 1424.1121281952, -6510.6773096463
2035, 586.08511378027, 1507.5843224859, -6599.2909840565
2036, 716.55609145672, 1450.1219320444, -6782.9160542328
2037, 1143.289321563, 1144.2009339272, -5961.0520020603
2038, 652.03161491739, 1480.2570800872, 276.42711491713
2039, 376.85914651309, 1572.9855160457, 460.47695940564
2040, 424.54874250349, 1560.7897408808, 261.1717435695
2041, -873.46729689139, 1361.3820666004, -5033.9678530515
2042, -93.982280887206, 1614.7673457434, -6375.2762391537
2043, -71.768045738514, 1615.9070510431, -6258.6222920828
2044, -219.31976861914, 1602.5620390777, -6423.7653358347
2045, -558.83413745033, 1517.8967872751, -6902.2704348949
2046, -286.08568258232, 1591.9991307226, -6181.694432081
2047, 489.44687393605, -1541.6705249807, -1427.5867422212
2048, -1412.3520371646, 788.39582261521, -4880.402145446
2049, -1331.3318612736, 918.61946700354, -4938.185592996
2050, -1357.9548463719, 878.78602925568, -4687.0196806232
2051, -1061.9410761105, -1220.0768012175, -4432.7188314545
2052, -943.72677466703, -1313.6536928645, -4282.6178407483
2053, -954.44821342441, -1305.8847031384, -4575.6555262373
2054, -823.63959462743, -1392.0934121538, -4443.5381060972
2055, 410.94100261034, -1564.4276085437, 171.63029206986
2056, 257.29264777983, -1596.9053645719, -11.749267500899
2057, 210.32221245489, -1603.7676941964, 267.30652884257
2058, 895.23824118355, -1347.1654469747, -1945.2560718024
2059, 1499.5072407551, -606.45221157415, 399.28089831189
2060, 1371.3340114478, -857.75828707535, 338.43658720708
2061, -1546.3761192592, -474.3702644401, -3792.7987130651
2062, -1504.0244589846, -595.16105112496, -3854.5145705355
2063, 499.62990140275, 1538.4005367993, -5297.5087973542
2064, 460.59864887691, 1550.5338224795, -5545.6685721295
2065, 655.43013086894, 1478.7554204631, -5405.3582830131
2066, 1011.2693660867, -1262.3947556983, -2331.3748681951
2067, 1140.3401793215, -1147.1401507336, -2466.8621673953
2068, 988.74037361727, -1280.1166835797, -2531.9192102637
2069, 1429.5672856201, -756.73220222527, -3840.0455326538
2070, 1320.5323724186, -934.07735407428, -3856.047904767
2071, 911.73368245625, -1336.0568634137, -229.50964455711
2072, 730.25901275533, -1443.2699069438, 7.8845821490404
2073, 1005.8274248285, -1266.7349531227, 9.0256371542082
2074, -1436.8935899786, 742.72677417633, -5123.3586341658
2075, -1538.9344569979, 497.98291844671, -5007.2036157312
2076, -1566.2358491872, 403.99444887368, -5952.6585341364
2077, -1562.6441282678, 417.67161549511, -6228.2025401366
2078, -1499.8326755931, 605.6469229041, -6029.7664436331
2079, -1581.9454685223, 337.27553220141, -6106.7958364425
2080, -1306.6435413656, 953.40909677202, -5080.9402110266
2081, 54.548824899261, 1616.5799317393, -6325.9119781049
2082, -1505.8483542666, 590.53110328959, 260.50056032407
2083, -1548.5490912154, 467.22795517386, 175.63698653708
2084, 52.453667513905, 1616.6492701772, -6478.0861286654
2085, -896.67706263624, 1346.2081916784, -766.78284558093
2086, -936.7730804268, 1318.6214186747, -447.71277142073
2087, -983.35237150106, 1284.2602397736, -5107.5577782433
2088, -1054.5134108907, 1226.5022283924, -4926.3835314606
2089, -108.67948502874, 1613.844794128, -6593.868576596
2090, 1393.6226995997, -821.04934148957, -1508.8671286512
2091, 1457.4271007228, -701.57857441548, -1318.0153446927
2092, 1554.8859313164, -445.68597756094, -1506.9846942353
2093, 1294.7143822673, -969.54675923868, -1345.2418762573
2094, -1262.048063261, 1011.7019996121, -4851.4519180102
2095, -1189.7137998916, 1095.8500464696, -5012.7959798607
2096, 608.63934115436, 1498.6208334329, 470.15857866238
2097, -1144.986662115, 1142.5024260713, -4705.7981127041
2098, 651.16964239759, 1480.6364668006, -2657.7461048241
2099, 664.60248239834, 1474.6558209935, -2850.6797321435
2100, 851.39508030057, 1375.2936658183, -2670.5392760201
2101, 472.50823465202, 1546.9460941436, -2777.7726676993
2102, 1356.8642168152, -880.46904949954, -4850.760964601
2103, 1453.4161330779, -709.85054350107, -4892.5562798514
2104, 1440.6475498764, -735.41885142756, -5089.633054099
2105, 1523.6834948203, -542.85804554435, -5100.5225958565
2106, 1509.7449030489, 580.49683695778, -6381.2066874407
2107, 1356.9636761981, 880.31575669132, -6402.0749620034
2108, 1450.7988980076, 715.18445700394, -6558.8834894653
2109, 1279.5247882097, 989.50622350589, -6583.6905296433
2110, -942.29542489211, -1314.6807910011, -700.89342244711
2111, -1143.2706933251, -1144.2195470205, -844.21465292569
2112, -1081.4137691279, -1202.8509924095, -580.39126069626
2113, 1202.0173402103, -1082.3403179379, -6839.0727561031
2114, 1281.107538326, -987.45618902526, -6747.5796976904
2115, 1317.742119907, -938.00957107214, -6943.981364395
2116, 661.7890503895, -1475.9205611362, -937.15358733552
2117, 799.29429165274, -1406.2129587411, -788.94285457512
2118, 780.63472999606, -1416.6565103525, -2170.0089018076
2119, 939.74581720506, -1316.5044812098, -2092.6797209879
2120, -950.64212237011, -1308.658016892, -1402.7915938101
2121, -1110.7301299488, -1175.8336737923, -1389.8264285468
2122, 864.77302123402, 1366.9213114681, -4180.3747265162
2123, 757.59730626215, 1429.1090131772, -4027.6758565971
2124, 996.99791146132, 1273.6959662894, -4030.1805000958
2125, 1617.3336299233, 23.198696494846, 222.39333375835
2126, 794.43124877354, 1408.966018388, -6261.3850695725
2127, 811.59505461409, 1399.1496407911, -6014.38825121
2128, 671.75236744832, 1471.4125889184, -6122.7914599766
2129, -1308.7852209519, -950.46698807368, -764.00169105164
2130, -1441.6567031476, -733.43861383872, -647.80096570673
2131, 703.82780519273, 1456.3422230498, -1300.7222247941
2132, 529.30568225613, 1528.4442236246, -1282.2616654785
2133, 522.14294385196, 1530.9059396924, -1460.1672533933
2134, 385.93523011617, 1570.7833231083, -1441.0109843933
2135, 1270.0944179504, 1001.5819584494, -4521.8885955743
2136, 1076.0740011374, 1207.6303217774, -4514.2034641303
2137, 1173.5899287344, 1113.1005925671, -4668.8145775392
2138, 1193.6500505661, 1091.5611786718, -4381.1603666773
2139, 1056.8708859363, 1224.4713881754, -4804.7927714978
2140, 184.7116295882, -1606.9187483799, -248.25221535528
2141, 385.68667037869, -1570.8443723973, -263.36134557261
2142, -1170.1099281672, 1116.7582576388, -154.34736572232
2143, -1351.9490663616, 887.99773195878, -154.83482943673
2144, -1262.8399680266, 1010.7133447, -315.62608765723
2145, -1269.041614125, 1002.9155655482, 14.135698088572
2146, -815.68418547776, 1396.7696873721, -4586.5576310358
2147, -641.29322995027, 1484.9408214538, -4516.2704676864
2148, -753.3657230187, 1431.3442413971, -4389.3271075161
2149, -1135.6933532215, 1151.7407943841, -3962.0194134386
2150, -1342.317319254, 902.49125448987, -3883.4578425519
2151, -1265.8474911743, 1006.9440794243, -4090.0212832983
2152, -1492.3740264658, -623.79965945027, 567.97157832364
2153, -863.14592229002, 1367.9493290448, -4423.7451916281
2154, 391.96724355696, 1569.2889886756, -5089.174882051
2155, 555.61961631311, 1519.0763943818, -4991.0191235085
2156, 678.65198656556, 1468.2430763094, -5154.3057677231
2157, -774.8057819739, 1419.8528973875, -4716.0095823275
2158, -1490.2491219152, -628.85912940103, -549.92468111876
2159, -1541.7216389054, -489.28584501383, -388.29584112245
2160, -198.92886933671, -1605.220718451, -1868.1061631018
2161, 260.34747395645, -1596.410173735, -1354.60443589
2162, 402.12951055373, -1566.7157070579, -1564.6780111327
2163, 200.8150567378, -1604.985845105, -1546.3161837581
2164, 1518.9948022845, -555.84264017148, -3838.4631824785
2165, 1448.133291927, -720.56659568202, -4035.1327704782
2166, 1532.6230568655, -517.08105318624, -4053.3950980395
2167, -1100.9348484688, -1185.0100039354, 631.32587044818
2168, -540.66355178547, -1524.4635691845, -139.0263435879
2169, -377.83913391291, -1572.7504057809, -5.4519445287742
2170, -459.39842413584, -1550.8898535684, -356.74229912341
2171, -1092.1726089927, 1193.0906261329, -6689.5552645192
2172, -1141.2234591114, 1146.2614302042, -6982.3270976548
2173, -997.49001607534, 1273.3106132559, -6849.047225947
2174, -1169.623422921, 1117.2677828321, -6799.9855477094
2175, -257.32912790083, -1596.8994864843, -430.05898621049
2176, -207.55857299994, -1604.1277033872, -238.36937130201
2177, -539.11331492934, 1525.0124863967, -202.94366720176
2178, -528.71105196427, 1528.6500166915, 70.123837725432
2179, 801.19120443455, 1405.1330555989, -484.47806741989
2180, 961.68061392726, 1300.5678170693, -372.6737474628
2181, -902.13680545524, -1342.555560952, 168.06161907709
2182, -810.93606554929, -1399.53168867, -38.394872459862
2183, 1336.3495549698, 911.30462356566, -6862.4991377564
2184, 1156.7266447363, 1130.6147528478, -6772.917171491
2185, 1026.7822203686, 1249.8097943027, -115.49413408771
2186, -1616.7817097008, 48.199099336986, -5030.2568910149
2187, -1612.1748236495, 131.14338714057, -4913.5361824194
2188, 293.21202124897, -1590.7020338816, -1739.0385890002
2189, 374.34895037837, -1573.5847970003, -1990.1531161471
2190, 158.08091578245, -1609.7567126946, -1897.2683502024
2191, 573.41458413556, -1512.4489957353, -2044.8338526196
2192, 1545.1946595973, 478.20467788579, -6249.9700489579
2193, 1572.4373051628, 379.14004184779, -6546.3167645825
2194, 1429.2779639256, 757.27851668778, -6166.7331367339
2195, -1592.2720648622, 284.56268458703, -4940.8741541168
2196, -1607.6967028477, 177.81327749271, -3958.1723341672
2197, -1599.6411848298, 239.696328291, -4149.3831866129
2198, -1564.1941436969, 411.82876395921, -3877.0630832233
2199, -209.8850780862, -1603.824960523, -7023.1747254371
2200, -164.69648969145, -1609.0933211854, -7234.3496916574
2201, -168.39760510469, -1608.7101965845, -6781.0688334155
2202, 571.55461025879, 1513.1528599226, -6212.8145382246
2203, -1553.138320583, 451.73842778382, -4087.1723242789
2204, -1264.4956743879, 1008.641135119, -6766.2170073955
2205, -1347.0695535415, 895.38252603097, -6558.0582469789
2206, -1395.8466827393, 817.26268010084, -6738.8152072433
2207, -1287.5022029113, 979.10383897657, -6955.319729782
2208, -1210.3775806593, -1072.9829272814, -6349.5967783284
2209, -1037.3174009854, -1241.0797152532, -6368.3824176111
2210, -1218.7745018569, -1063.4354534355, -6565.474224969
2211, -1053.255754307, -1227.5824070176, -6582.7232175364
2212, 715.60911199423, -1450.5894832208, -4184.2357614824
2213, 1106.9340139361, 1179.4080459244, -267.04892261476
2214, 579.50588773162, -1510.1255497754, -4272.3058080699
2215, -753.75495943305, -1431.1393052845, -6796.4525969386
2216, -870.6162353612, -1363.2071085222, -6607.0778324871
2217, -837.76420066086, -1383.6391849363, -6391.6651744748
2218, 562.13916399545, -1516.6759081302, -124.67598833144
2219, 1185.6795201981, -1100.2137634945, -2351.1780282209
2220, -845.50539374346, 1378.9223615384, -6389.8598572269
2221, -727.81266670922, 1444.5050959334, -6245.6300017174
2222, 1178.6408045337, 1107.7509214115, -3722.9678123882
2223, 1280.1420463643, 988.70753569002, -3905.9682254772
2224, 1340.5626753654, 905.0955548544, -3664.5020974027
2225, -853.09885259624, 1374.2374604481, -6076.8473856893
2226, 782.14892561194, -1415.8210720865, -3196.5334616487
2227, 848.10462169021, -1377.325234165, -2930.3183536963
2228, 500.00183969841, -1538.2796918305, -3197.5767542423
2229, -480.95604204706, -1544.3404856502, -920.72868743196
2230, -561.70145196809, -1516.838069425, -700.60353945097
2231, -389.27379987307, -1569.9592856926, -575.29521604162
2232, -252.66156941886, -1597.644635499, -812.4976973493
2233, 223.71647973198, -1601.9541774646, 506.88217996111
2234, 467.15656779191, -1548.5706284083, 657.38330614643
2235, -1395.0619658423, 818.60146680808, -6429.239434144
2236, -1449.7610238806, 717.28601243615, -6252.5342852075
2237, 931.30438755836, -1322.4894660127, -3601.1966753928
2238, 844.09550471549, -1379.7858634292, -3439.0268398465
2239, 1087.1962958334, -1197.6270138595, -3513.3949067047
2240, 154.6596868726, -1610.0890134575, -4137.2440087086
2241, 193.68473977685, -1605.8619092492, -3934.9388061021
2242, 935.98278294443, 1319.1825044442, -4916.6346523139
2243, 833.85487006018, 1385.998667271, -4783.3743566817
2244, 816.2442071257, 1396.4424958922, -5029.724236532
2245, 705.24591700013, 1455.6560193104, -4886.9416696942
2246, 1004.6627763994, 1267.6588483174, -5022.8002482612
2247, 749.56149429591, -1433.3400909306, -3545.2512979924
2248, 597.96679918482, -1502.9111607386, -3701.6798842395
2249, 625.39163851949, -1491.7075948288, -3506.7081694593
2250, 772.15510894776, -1421.2961470875, -3679.9158177458
2251, 411.05127443531, -1564.3986383864, -3697.8412606057
2252, 1438.21879138, 740.15738739916, -3778.4239750246
2253, -691.99040707496, 1462.0039420317, -393.01786719329
2254, -460.66572325171, 1550.5138959135, -382.5345223054
2255, -745.24025821265, 1435.591588001, -101.59946927411
2256, -1104.531756088, 1181.6580934403, 658.7917750328
2257, 181.25868063565, -1607.3118990085, -3063.5321484261
2258, 178.15025926156, -1607.6593964908, -2901.7869283805
2259, 701.73405386479, -1457.3522455627, -3328.9020802254
2260, 260.08778904088, -1596.4525022661, -3361.2573739311
2261, 297.80585445102, -1589.8483962487, -3177.7428495028
2262, 414.82740615618, -1563.4015712867, -3448.4444670946
2263, 1088.5449914945, 1196.4012919971, -5239.4686664136
2264, 943.46115950767, 1313.8444696769, -5148.4119086242
2265, -966.77953380326, 1296.7820106013, -151.9703099786
2266, -1061.7012122565, 1220.285534575, -309.6424096884
2267, -835.40687577331, 1385.0637537351, -272.58156624555
2268, 914.85761128253, 1333.9197131306, -6409.7993257567
2269, 1030.3023349247, 1246.9095190305, -6291.3523985556
2270, -1552.7185766349, -453.17907252291, -6812.1712437199
2271, -1559.3470208254, -429.81754110677, -6527.5653225953
2272, -1488.9527416576, -631.92245023443, -6719.7870393609
2273, -1543.1692365279, -484.70089481434, -6976.955746942
2274, -1590.1291570985, -296.30307751566, -7012.1087048524
2275, 156.00474179767, -1609.9592449924, -2076.0945986537
2276, 1545.3114867803, -477.82701767998, 633.51846795447
2277, 1556.12638713, -441.33537958973, 416.40428585562
2278, 1206.2895687667, -1077.5767844032, -6066.196590194
2279, 1130.597875353, -1156.7431409985, -6270.1016774871
2280, 1019.4315140924, -1255.8127400513, -6178.3212481476
2281, 994.22146661765, -1275.8643835912, -6492.9072510734
2282, -277.01041856553, 1593.6033000738, -6756.6522959697
2283, -1549.5843930432, 463.78277117317, -7.3009236602802
2284, -1458.2071859455, 699.95575064215, 0.9353599913411
2285, -1362.8219358629, 871.2190431407, 193.7039019456
2286, -888.24223477337, -1351.7884384639, -6791.5797151254
2287, 1057.3523691628, -1224.0556431085, -7180.6665713727
2288, 921.58493375627, -1329.280805501, -7090.6466420071
2289, 1073.6445150946, -1209.7907691859, -6970.6710124382
2290, 923.95514527437, -1327.6344148601, -6941.443653443
2291, 569.81136958345, -1513.8101773649, -6469.7172244329
2292, 593.95682821795, -1504.5004274553, -6141.7480315328
2293, 709.98177321727, -1453.3520329567, -6377.1216305383
2294, 538.27221052268, 1525.3095677203, -3942.6413949732
2295, 601.48048676658, 1501.5083995899, -4113.3301771938
2296, 442.9218633351, -1555.6755680346, -6372.9187657323
2297, 232.30419452493, -1600.7313988318, -6218.1330970273
2298, 822.24058923378, -1392.9201927664, -6055.8737113248
2299, -1446.8128724956, -723.21418817738, -6540.701548711
2300, -1487.7657747253, -634.71194218785, -6345.9544996231
2301, 1182.40089461, -1103.7365511867, -7177.0236105467
2302, 166.61427981453, -1608.8958734989, 694.31418931647
2303, -783.0795091987, -1415.306585964, -1961.1750245401
2304, -614.72345715663, -1496.1354621896, -1941.1256571124
2305, 1198.924505814, -1085.7652966266, -6979.3233104558
2306, -1286.8573702773, 979.9512021335, -6087.0422490306
2307, -1361.1136081138, 873.88557363501, -6149.2107549804
2308, -253.89447677602, -1597.4491680998, -3868.4865259264
2309, -423.61103699761, -1561.0445026756, -3635.5102590383
2310, 803.57560141955, 1403.770815626, -749.83870892475
2311, 777.16561478334, 1418.5626024954, -959.93284565116
2312, 952.96871795404, 1306.9647556843, -1018.0946808217
2313, 1086.361557934, 1198.3842520007, -6988.7858644423
2314, 882.33519594027, 1355.6514493059, -1193.7039156296
2315, 1581.486165733, -339.42268279433, -3831.1555469876
2316, 1103.1548426618, 1182.9436347992, -1120.7603299616
2317, 384.89984456926, -1571.0373514499, -4432.1589424025
2318, 399.63229016689, -1567.3545491228, -4137.121256724
2319, 612.99866588239, -1496.8429729355, -4510.3119350303
2320, 1263.556010087, -1009.8180328024, -2565.1880065174
2321, 1072.5417426755, -1210.7685411418, -2630.8347401759
2322, -1015.1220030971, -1259.2988401599, -151.79722762388
2323, 1178.6353971376, -1107.7566748228, -6605.3404453845
2324, 1270.4640986508, -1001.1129926434, -6395.9499851667
2325, 1337.659997124, -909.37999873228, -6161.8974207503
2326, 1281.9997774585, -986.2975314764, -3674.0944078624
2327, 1244.7374320645, -1032.9254451399, -3474.0039914711
2328, 1146.2409690269, -1141.2440102469, -3724.0064415275
2329, -187.38445689541, -1606.6092603101, -1071.9023586043
2330, -419.66872105704, -1562.1089637302, -1137.4964267411
2331, 886.63077250644, 1352.8459347777, -6674.1607920631
2332, 971.95455535753, 1292.9078050347, -6797.2723317772
2333, -1570.3129984826, 387.84447501097, -3666.3308659761
2334, -1490.0680698703, 629.28800811144, -3798.1672559962
2335, -1614.1737814925, 103.67860503637, -3695.4254876147
2336, 618.57887960399, -1494.5455562504, -2474.1126948957
2337, 604.17111535881, -1500.427776791, -2211.3974709732
2338, 825.72421925391, -1390.8579236347, -2393.0570186399
2339, 465.76579807903, -1548.9895000741, -2388.4267496214
2340, 1234.0644229024, 1045.6535038561, -6261.4607299297
2341, 1281.8161962812, 986.53610625828, -6057.115905839
2342, 1151.6030166615, 1135.8330608043, -6430.7980277066
2343, 887.04451566411, -1352.5746845296, -2603.4132455931
2344, 1299.1493289644, -963.59601029231, 155.84017244179
2345, 1486.1760192935, -638.42547699547, 194.22664400209
2346, 874.32786702379, -1360.8295377988, 158.30160306593
2347, 623.21375841488, -1492.6187930354, 173.0013317038
2348, -434.41481987329, -1558.0725317759, -5353.4214953926
2349, -241.49205671245, -1599.371075312, -5017.1110514012
2350, -183.87932258729, -1607.0142017807, -5228.5525335815
2351, -178.95541123838, -1607.5699707286, -583.25635569512
2352, -624.16757566882, 1492.2201873329, -5881.491903415
2353, -719.41346805594, 1448.7064961474, -5965.9838890713
2354, -601.3681285537, 1501.5534036323, -6115.8011234417
2355, 1410.2321494707, -792.1815035706, -40.707688378825
2356, 1495.5926573378, -616.04289892601, -297.35845469108
2357, 1513.0174244921, -571.91303813024, -117.54119383269
2358, 1560.6150299202, -425.19052010486, -369.97494973571
2359, 1428.3800146712, -758.97087143574, -242.33198370686
2360, 425.62922345728, -1560.4954386794, -1159.3758940304
2361, 188.15697962969, -1606.5189700146, -1085.1823038115
2362, -555.29483735319, 1519.1951466513, -514.96470401562
2363, -427.53608046319, 1559.9740862919, -634.57326966661
2364, 1276.7948338603, 993.02628476176, -4156.2460001608
2365, 1407.3831879499, 797.23196892501, -3991.1369771947
2366, 1130.34689276, 1156.9883975338, -4171.7022801554
2367, 1270.0182454712, 1001.6785443296, -4301.4921120357
2368, -602.22318778254, -1501.2106721233, -4433.048155633
2369, -688.90437594852, -1463.4606283734, -4308.6154367215
2370, -1238.1920975172, -1040.7624991544, -2744.3176459742
2371, -1079.8421541992, -1204.2620860985, -2690.3552860862
2372, -1050.9878998982, -1229.5245765203, -2919.5160152508
2373, -917.39631751816, -1332.1750059974, 638.01797117098
2374, -1049.2003884132, -1231.0502812451, 361.13229798666
2375, -901.85264571198, -1342.7464598435, 461.49239117248
2376, 382.31532878896, -1571.6682981383, -6051.3279984452
2377, -872.44266364223, -1362.0389306686, -2888.2554802647
2378, -358.30793171697, -1577.3147041947, -7208.7784025954
2379, 182.95722149054, -1607.1194433223, -7225.9337390767
2380, -653.34813187596, 1479.6764742923, -7168.6048928187
2381, -1602.2021788205, 221.93338681415, -3426.9030298094
2382, -1617.1354641571, 34.338616240423, -3342.6180799055
2383, -1613.4659206215, -114.16642673328, -3527.4170021403
2384, -1004.8448679704, -1267.5145132556, -7180.7687048015
2385, 799.95661509777, -1405.8362863297, -7139.7940313857
2386, -1592.2388441089, -284.74850888227, -3390.9282070703
2387, 170.11647991964, -1608.5293386382, -6450.7564895591
2388, -625.29055728089, 1491.7499686527, -6360.0419896988
2389, 1528.325760708, -529.64763678928, 17.257201157653
2390, 820.48260304493, -1393.9564369451, -3875.4910611498
2391, 995.6997109622, -1274.7110792606, -3796.6752930734
2392, -874.0063213197, 1361.036076044, -4851.6500795819
2393, -692.72669003149, 1461.6552202616, -4924.1304753534
2394, -584.1035064184, -1508.3531893392, -3440.6907267721
2395, -747.16071789118, -1434.5930125441, -5873.5202222773
2396, -553.50008105911, -1519.8499630778, -5697.1685746645
2397, -473.78415282636, -1546.5557948327, -5881.4357150871
2398, 1356.1917746246, -881.5044642205, -3064.2415642884
2399, 355.08349025614, 1578.0437145236, -657.83243039136
2400, 526.26337979429, 1529.4943952455, -740.60143141628
2401, -236.61181363416, 1600.1003404939, -7185.2869198029
2402, -408.54358826979, 1565.0553940623, -7027.7288869907
2403, -251.30383799572, 1597.8587644121, -6996.1691077333
2404, -1581.5424595596, 339.1602845412, 627.07690834724
2405, -1603.3236505688, 213.68088713477, 719.80642025876
2406, -1603.3817142671, -213.24476160956, 721.5301110362
2407, -1581.7955096764, -337.97812883025, 625.43403755505
2408, 248.08333983402, 1598.3619447725, -805.96739148902
2409, -434.19002984391, 1558.1351892516, 339.73561881127
2410, -42.887179322076, 1616.9313343027, -6973.608393109
2411, -11.235651038443, 1617.4609763904, -7175.7223209397
2412, 31.900224289302, 1617.185402386, -6739.8846266119
2413, 1178.3316283773, -1108.0797911548, -2765.4352783955
2414, 1196.0802262068, -1088.8977649334, -3030.8855166697
2415, 781.56006244774, 1416.1462208355, 673.97966616995
2416, -1545.1269620021, 478.42337034699, 457.69750924434
2417, 318.77564185166, 1585.7768885193, 664.21435538323
2418, 555.85288063173, 1518.9910549748, 668.35315633699
2419, 1498.1791666214, 609.72570447826, -2639.333648287
2420, 1382.3316704673, 839.9198788118, -2759.5808083254
2421, 1471.9624298668, 670.5466837296, -2820.1479362159
2422, -190.00655075111, -1606.3012670952, 709.57909856023
2423, -250.54535891329, -1597.9778700367, 463.92376460069
2424, 1416.3107984772, 781.26178206596, -2576.3355063813
2425, 1250.8010127032, -1025.5745105162, -4614.1742386102
2426, 1133.0191767418, -1154.3716018403, -4610.2713217783
2427, 1235.0894817535, -1044.4425412927, -4418.3847049478
2428, 1224.6140741941, -1056.7055499456, -4813.464479314
2429, -1451.0563639379, 714.66193313719, -4636.4116945729
2430, -81.982425227159, 1615.4210386007, -6827.3311353541
2431, 346.34985082618, 1579.9835539754, -3982.6457049071
2432, -1488.0017845495, 634.15844958298, 580.11771157
2433, -1400.1887334981, 809.80106235103, 638.98044771381
2434, 409.12200753318, 1564.9042887512, -4171.5356712155
2435, -624.79147059517, -1491.9590705752, -3598.1809640283
2436, 667.25128251893, 1473.4591870754, 87.091590722854
2437, 455.79843129997, 1551.9516874003, 63.72518816622
2438, -151.15429942835, 1610.4218788145, 654.81865139532
2439, -1547.3869564936, -471.06247661374, 455.81042489368
2440, -1374.4004372682, 852.83626097692, 472.40351546147
2441, 644.9658283312, 1483.3493621818, -7095.3961913439
2442, -1272.3000279665, 998.77869862976, 647.60793633254
2443, -1124.6454117441, 1162.531267469, -5200.3026949427
2444, 894.408927376, 1347.7161869734, -1846.3650471058
2445, 1043.8063263181, 1235.6272104233, -1791.3049545505
2446, 991.39713082208, 1278.0602407546, -1671.5486608532
2447, 1356.1704802086, 881.53722474487, -7108.5958174371
2448, 1207.6787437905, 1076.0196567891, -7012.7560170186
2449, 237.47528244321, -1599.9724185837, -7056.2382883308
2450, -1353.7375184414, -885.26887506794, -6971.7192702233
2451, -1360.3992016435, -874.99729266314, -6759.0530922484
2452, -1208.6442337239, -1074.9350521246, -6978.2196108411
2453, 1139.3590976369, 1148.1145834071, -1405.5110292038
2454, 1052.5934005898, 1228.1503910494, -1560.0146808738
2455, 1158.7178448349, 1128.5739701327, -1674.007867609
2456, -1259.6258981702, 1014.7161409276, -5275.7417771538
2457, -1435.705309699, 745.02114983539, 376.5322776028
2458, -1219.0668982519, -1063.1002528391, -6773.0405223622
2459, 932.30347447085, -1321.7853386574, 654.47054011759
2460, -1149.4128559175, 1138.0493559823, 152.3221792308
2461, 1145.3772112684, -1142.1108938746, -2141.1320736237
2462, 984.29249545624, -1283.5398448777, -3212.6400900364
2463, 1086.968844442, -1197.8334530361, -2945.0414637211
2464, 1610.8902666599, 146.07805714852, -1065.6036681552
2465, 1615.687928081, -76.542596332011, -1065.4066920985
2466, 1614.7227501869, 94.745395819121, -852.73189104813
2467, 1465.1240110976, 685.35967353312, -4271.1985131303
2468, 1492.9970392568, 622.30707112353, -4069.6513179642
2469, 1517.0209986113, 561.2072164294, -3867.1330118647
2470, -1581.6445663062, -338.68379924949, -4378.3520620965
2471, -1518.7578003629, -556.48988655388, -4458.3537490567
2472, -1299.4968784636, -963.12725683756, -4204.7134928004
2473, -1374.7062702519, -852.34319410087, -4373.2123770204
2474, -808.61358984658, -1400.8748382048, -7167.3824928307
2475, -925.63618160382, -1326.4629317497, -5677.3376629456
2476, -1008.6892795121, -1264.4572698978, -5857.4059142442
2477, -1128.7002133359, -1158.5948724276, -5667.3020822442
2478, 303.16834210808, -1588.8345434133, -2800.1244457369
2479, 231.32623534411, -1600.8730189623, -2637.4532760731
2480, -864.33414371556, -1367.1988655669, -6969.2757518746
2481, -1214.3808950307, -1068.4499481887, -5752.0664624608
2482, 383.41353242302, -1571.4007487445, -4693.6399801806
2483, 199.81901911846, -1605.1101549733, -4616.2184530238
2484, 556.68653996562, 1518.6857299063, -2119.7396736096
2485, 882.7772798223, -1355.3636132896, -4826.5703753199
2486, 779.35809021396, -1417.3592407072, -4715.1486776682
2487, 1044.320253007, -1235.1928833827, -4763.1155545577
2488, 1344.0107771432, -899.9673776993, -4030.0072374493
2489, -1357.353265525, -879.71493255969, -6549.9621358189
2490, -1252.6744255766, 1023.2854115575, 385.09254839217
2491, 1445.6579789437, 725.51999139681, -7199.9091280389
2492, 470.42781356479, 1547.580021267, -2305.0288438989
2493, 1615.8593584978, -72.83394507333, -1282.5243839579
2494, 1204.2394788193, -1079.8673657691, -3904.669325366
2495, 1252.2157386238, -1023.8466652496, -4029.2576546863
2496, 1351.9050288785, -888.06477404134, -4206.1631012631
2497, 1606.0292702042, 192.29205196134, -1349.8321573617
2498, 285.3913846657, 1592.1237412835, -3409.9832951936
2499, 212.47896548888, 1603.4833766599, -3611.7274768677
2500, 443.99446794508, 1555.3697831815, -3489.173619673
2501, 1599.6261331765, 239.7967557307, -4203.5550165945
2502, 1613.4997728753, 113.68699543694, -4472.7397987671
2503, 1617.3428852587, 22.544212185897, -4260.5059349753
2504, 1616.0347593225, -68.832453548002, -4543.491961271
2505, 1586.0560671025, 317.38368264197, -4412.7668449604
2506, 1565.4221161756, 407.13615436151, -4608.2377211143
2507, 190.93960668431, -1606.1906227466, -4360.652636735
2508, -253.42121832917, -1597.5243147134, -5709.9679506557
2509, 1455.4987166941, -705.57050370739, -2018.0827080861
2510, 1374.9164469835, -852.00411607819, -2150.5352184097
2511, 1387.6927592321, -831.03252401739, -1847.2384790491
2512, 1289.3377252753, -976.68545611259, -1990.4377455715
2513, 1436.8455929442, 742.81962281352, -1737.8327298566
2514, 1490.2445200887, 628.87003454264, -1581.4410864728
2515, 662.63773853902, -1475.5397241226, -5411.1525505074
2516, -5.2329792582383, 1617.4915350406, -1313.1650079728
2517, -243.35261133085, 1599.0890395967, -1306.4811187571
2518, -155.54515867726, 1610.0037122976, -1479.9369886475
2519, 1519.4128118491, 554.69897889645, -7061.9279198941
2520, 1545.1904438034, 478.2182999202, -6848.8116583683
2521, 1452.8630069866, 710.98194979181, -6895.7405038546
2522, 525.78911121879, -1529.657497783, -4736.8830752586
2523, 399.71295511077, -1567.3339795706, -3857.2208379629
2524, 585.24914227152, -1507.9090461531, -3945.9001829683
2525, -1450.9740395261, -714.82906111981, -837.51039536202
2526, 59.367487734038, 1616.4101433115, -3372.8271979818
2527, 461.89343493294, 1550.1486073167, -3236.3077521674
2528, -1588.7539146739, 303.59059374155, -7051.319053839
2529, -1592.2573070232, 284.64524979582, -7188.7437429556
2530, -745.05090868976, -1435.6898667402, -814.64460459055
2531, -951.90716940358, -1307.7381201288, -922.30403642548
2532, 1076.5343863266, -1207.2199323472, -1976.1125948439
2533, -818.89104032891, -1394.8920080311, -608.08565380964
2534, 1562.0940008772, -419.72441247037, -5940.3587618864
2535, 1529.2964921188, -526.838200203, -5744.0361606666
2536, 1595.0801398262, -268.3758512461, -5711.5469960802
2537, 977.47425627205, -1288.7398218125, -2787.9708969161
2538, -1407.0155942968, 797.88054707816, -803.50820970077
2539, -1357.7715716733, 879.0691719972, -458.7694259328
2540, -1374.3926113265, 852.8488728556, -950.93571252742
2541, -645.47312839437, -1483.1286830619, -483.68505743219
2542, 453.49736631016, 1552.6256434665, -5694.7536184685
2543, -390.37195679082, 1569.6865882562, -1498.4937917708
2544, 1369.4463770956, -860.76876700997, -4393.6534469183
2545, 1452.511226301, -711.70034949378, -4226.2619362123
2546, -1617.4359171411, 14.398053403561, -5875.5560801334
2547, -1602.3288651605, -221.01687237253, -5839.0205747921
2548, -1600.2687831106, -235.46989574381, -6069.0780255552
2549, -1551.3877818555, -457.71410324515, -6061.6167666789
2550, -1602.4731556317, 219.96826016419, -5912.6709753558
2551, 1105.0484026559, -1181.1749564682, 478.25381302638
2552, 1607.5255947334, -179.3535956624, -2552.6594715752
2553, 1585.7668043001, -318.82580256265, -2587.5941482238
2554, 1608.9764079322, -165.83476329687, -2406.8301832287
2555, 1566.8188878645, -401.72729883735, -2365.8643429291
2556, 1162.7905941763, 1124.3772872551, -5749.1140311061
2557, 999.73342404071, 1271.549971828, -5657.928594675
2558, 991.11444773195, 1278.2794692465, -5873.5038835961
2559, 769.85568828724, 1422.5429586525, -5778.6784193159
2560, 1189.4282897993, 1096.1599305873, -5536.8380706797
2561, 1034.9707922022, 1243.0372919943, -5446.3490085287
2562, 1040.238133613, -1238.6326636163, -4995.9277908495
2563, 864.68908068667, -1366.9744122482, -4983.3842796724
2564, 616.84636295207, -1495.2614535635, -4938.736297962
2565, 1614.9737174998, -90.36670728066, -5817.7285934228
2566, 1314.7446952371, 942.20625998024, -2521.468847704
2567, 1272.455958357, 998.58003386892, -2709.1473767129
2568, -811.5764274873, -1399.160445534, -6149.5544454515
2569, 1192.1715197272, 1093.1757944409, -2485.4185024742
2570, -641.18150319834, -1484.9890672851, -5494.9688557416
2571, -763.44420252966, -1425.9941092529, -5636.7698239688
2572, 1423.910657207, 767.32306774419, -5882.3902621443
2573, 1527.620640621, 531.6779366766, -6087.4409363861
2574, 1512.0967732963, 574.34275322918, -5882.0140672806
2575, -676.59906681784, -1469.190237097, -1026.7604593899
2576, -612.2099030833, -1497.1657505322, -1233.2839586138
2577, 999.87352894525, 1271.4398043614, -2669.7280365594
2578, 1146.4867358296, 1140.9971141799, -2675.1491432306
2579, 1050.321677037, 1230.0937463243, -2467.7146916236
2580, -1056.5059656406, -1224.7862648502, -6782.678484641
2581, -1345.1646963746, -898.24172115716, -5126.8852194765
2582, -1279.6466065866, -989.34868082564, -4950.5235494439
2583, -1238.6903911028, -1040.1693924499, -5237.0030187405
2584, -1152.6027405939, -1134.8185636372, -5070.1287149599
2585, -425.4075214114, -1560.5558915741, -5594.5794988646
2586, 1512.1973303508, 574.07794251285, -3430.1945738589
2587, -1602.875563071, -217.01654155837, -6702.1417251264
2588, -1617.4795847821, 8.1266729380379, -6876.0450204473
2589, -1609.8741681818, 156.88024930185, -6700.2477287281
2590, 1475.4706817693, 662.79145833299, -3586.1581068246
2591, 491.06033047817, 1541.1573579069, -4361.9336668545
2592, 561.59580925038, 1516.8771858764, -4551.5691638202
2593, 689.17661995738, 1463.3324422373, -4289.122544858
2594, 376.47252363613, 1573.0780937217, -4596.693070329
2595, 1442.617753663, 731.54648985313, -2996.6358189301
2596, 1497.0931635028, 612.38738539692, -3181.6846218249
2597, 1519.9048729057, 553.34928148271, -3058.4709329613
2598, -908.41012315443, -1338.3188327714, -399.6502402951
2599, 1098.1127863819, -1187.6255968884, -1675.853327665
2600, 1472.2313111993, 669.95613014918, -3350.509395885
2601, -1462.9896285505, 689.9040489471, -4486.2997194457
2602, -1372.0846787565, 856.55699420508, -4474.7573228591
2603, 137.79139212939, -1611.6202351221, -2477.3900437689
2604, 365.57811745588, -1575.6455470814, -2486.844434231
2605, 1575.3789680671, 366.72517908086, 411.11052080009
2606, 1564.2641978124, 411.56259480465, 597.30764547131
2607, -1389.1412603017, -828.60896020223, -4855.4947017392
2608, -1332.1531975831, -917.42798527682, -4668.3325268756
2609, -1213.2888182558, -1069.6899052976, -4766.2866248362
2610, -506.56901134096, 1536.1295800645, -5692.7691789035
2611, 1594.7543556812, -270.3050037198, -625.17115850497
2612, 1601.6047110501, -226.20477347328, -445.58527510077
2613, 1615.3548549206, -83.276303258499, -684.50539163642
2614, 1512.1479890536, 574.20789719494, -4956.5136951758
2615, 1544.1365945919, 481.61024412088, -4744.0456258402
2616, 1095.3048503652, 1190.215751352, -3877.6048573086
2617, 877.42666995895, 1358.8335765813, -3898.8877441058
2618, 1168.9487557854, 1117.9736384852, -3979.3395700947
2619, -1201.3458236681, -1083.0856207868, -1077.1305113329
2620, 1355.2792112241, -882.90685217854, -379.6210718325
2621, 1278.2872999818, -991.10434804078, -153.85116189971
2622, 1135.6494998161, -1151.7840351244, -225.33575910376
2623, 971.2065542468, 1293.4697827889, -4345.5250340659
2624, 788.31200699627, 1412.3988210224, -4510.4970096557
2625, 535.31655604579, 1526.3493816369, -5946.8347089845
2626, -238.06669005538, -1599.8845274225, 211.546959447
2627, 1616.885400734, 44.585321500856, -6349.1398109124
2628, 1613.1315073855, -118.79810554187, -6562.4408388857
2629, 1597.8908857574, -251.09951655357, -6462.8446761206
2630, -1017.7889377819, -1257.1443545309, -6130.2886731995
2631, -1460.589596934, -694.97070393516, -5856.2016090781
2632, 1424.8959220913, 765.49190799607, -4460.8215014326
2633, -302.58546921802, 1588.945651625, -1067.993692734
2634, 813.25365415051, -1398.1862336652, -6733.6740018446
2635, 954.4328193843, -1305.895954233, -6748.254653332
2636, 774.69803673601, -1419.9116880558, -6580.5965189911
2637, 258.64880843319, -1596.6862697149, -3541.0392257472
2638, -1305.9261973375, 954.39143809428, -7157.1082065266
2639, -204.03863125, 1604.5792242696, -915.86680201618
2640, 1501.7413994607, -600.89850985497, -2493.1548989892
2641, 1512.1636785098, -574.16657809014, -2188.3091924865
2642, 1121.7161273338, 1165.3579620354, -3452.1400747763
2643, 995.79948577527, 1274.633137075, -3407.684610433
2644, 985.9387651651, 1282.2757119063, -3535.6508274165
2645, -1475.3727289674, 663.00947249597, -287.18681983173
2646, -1564.6514049554, 410.0880770898, -269.2908468064
2647, 1584.6269498567, 324.44364655195, -6801.1271810985
2648, 1512.5402707577, 573.17377760685, -6723.844400293
2649, 589.54735997842, 1506.2337668312, -5731.5826791615
2650, -694.09796403672, 1461.0045401436, 31.079716793754
2651, -882.4043029742, 1355.6064680034, -9.5262484311379
2652, -1149.7671540447, -1137.691408722, -1697.9763361822
2653, -947.88359694459, -1310.6574444314, -1941.1152957831
2654, -1074.1269620881, -1209.362443321, -1923.0590548237
2655, -942.08979424689, -1314.828152108, -2177.2276646385
2656, 722.71603422584, 1447.061776108, -5911.4253263319
2657, 1614.1693891494, 103.74696686148, -3780.2241644062
2658, 1608.7550983987, 167.96810225831, -3990.4935011579
2659, -1614.9516757215, 90.759765778843, -4201.9131392685
2660, -1545.4371639621, 477.42038314755, -4301.7235063379
2661, 1562.08006493, -419.77627463711, -2070.6138409972
2662, 1616.750118588, 49.247376027619, -721.57260857178
2663, 1595.0435637177, 268.59314928478, -773.00766762717
2664, -1302.8123848131, 958.63764790324, -5738.8915145211
2665, -1287.6335421678, 978.9311064035, -5944.5083494774
2666, -1394.068875383, 820.29154615187, -5966.0148635838
2667, 1492.4055470952, 623.72424435772, -1049.3740898002
2668, 1391.7192642476, 824.2716418281, -1141.9747163953
2669, 1511.874470707, 574.92767790781, -1202.6962709361
2670, 1566.4125981504, 403.30859444818, -986.80850750133
2671, 100.32374954269, 1614.3857640842, -3796.4918690793
2672, 143.09296071512, 1611.1581718111, -4005.2387210826
2673, 307.30448819239, 1588.0397355031, -3836.6707685107
2674, -53.707184243461, 1616.6081121783, -4020.4459923105
2675, 1433.8571379068, -748.57194582342, -6896.4313107064
2676, 1530.3593413792, -523.74281498988, -6895.8064968936
2677, 1590.1069078616, -296.42245456572, -7164.5371661206
2678, 1531.0223151996, -521.80161015559, -7150.7685675254
2679, 1397.6223576351, 814.22232555889, -3423.8982836736
2680, -553.27006696273, -1519.9337100686, -1431.0818578661
2681, -388.60619000702, -1570.124669919, -1316.4365173188
2682, 270.38089184723, 1594.7414910649, -2463.9900555545
2683, 139.75790881397, 1611.4508918748, -2198.7147486421
2684, 72.708559470044, 1615.8650053082, -2357.0264634033
2685, 298.85430383899, 1589.6516458259, -4427.2788739176
2686, 310.44167934115, 1587.4294358263, -2252.5207563104
2687, 424.91221592448, 1560.6908274089, -2426.0402580807
2688, 432.65233582477, -1558.5628656892, -2228.8412916899
2689, -464.37024275569, 1549.408444421, -5931.470332622
2690, 226.14566951804, -1601.6130575636, -5719.2652647895
2691, 207.97073023072, -1604.0743204002, -5944.3905285282
2692, 554.8592358627, 1519.3542965279, -1101.2141003482
2693, -669.31095276447, 1472.5247361282, -5748.5100881388
2694, 1614.9403262545, 90.961489857519, -1578.2277919239
2695, 1613.4571216855, -114.29071039337, -1470.3599159752
2696, 1586.5459977686, 314.9254625534, -2329.8635333109
2697, 1521.0767439841, 550.1197950544, -2454.441846189
2698, 1573.9180708102, 372.94524581629, -2507.3028935766
2699, 1605.1807599535, 199.2510423442, -2524.3048854052
2700, -221.92466525086, -1602.2033868873, -5461.1192914425
2701, -1356.5542683744, 880.94651764746, -1760.3077118276
2702, -1283.5098440003, 984.3316160494, -1783.1147485178
2703, -1252.6059093149, 1023.36928132, -1899.129680916
2704, -1424.5211116713, 766.18917533648, -1532.5248768229
2705, -1444.8023724621, 727.22235562983, -1719.7230726657
2706, -1525.7292524158, 537.08146339518, -1674.5422464606
2707, -1554.0073432907, -448.73982105302, -6237.4932835784
2708, -1599.6917304185, -239.35876342976, -6327.2543480686
2709, 1232.2643964551, 1047.7741680483, -5327.2337930995
2710, 1352.4675194924, 887.20790050476, -5404.1767529514
2711, 1431.6329210868, 752.81699586314, -5658.1771876446
2712, 1450.4463302743, 715.89921985828, -5452.0034442333
2713, 1513.2762264016, 571.22789901033, -5680.9677455017
2714, 1617.2993925173, 25.474005639663, -2476.9364098818
2715, -823.62035351983, -1392.1047960796, -3086.8967093872
2716, -1006.6725729226, -1266.0634189982, -3129.7850448498
2717, -1580.7630342379, -342.77467757538, -1151.199496382
2718, -1609.9134339513, -156.47678800057, -1012.4589089552
2719, -1560.4552491464, -425.77654398936, -926.51056554676
2720, 1590.5710824546, -293.92155698312, -5445.9980895008
2721, 1550.2953971603, -461.40051099203, -5549.3991362184
2722, 1532.268093597, -518.13197097335, -5298.1253335843
2723, 1590.7590395985, -292.90259120667, -5248.919462517
2724, 1566.2698727909, -403.86252065221, -5096.4965498193
2725, 1447.5075032719, -721.82288545836, -2319.0053089457
2726, 1032.4806969264, 1245.1063651248, -6565.0361315904
2727, -268.98185088115, -1594.9780606317, -4139.0938264149
2728, -1507.3933029804, -586.57623556506, -3647.2571093007
2729, 14.566724705269, 1617.4344068714, -3552.5728788273
2730, -1455.4512810432, -705.66834880819, -3778.0577733144
2731, -1517.5637018371, -559.73802878361, -1322.5562548882
2732, -1543.4495560094, -483.80752170087, -1564.5815096955
2733, -1587.6610570634, -309.25493995148, -1313.6344259155
2734, 1589.7909469891, -298.11238630999, -6938.6059314343
2735, 1600.4145839034, -234.47688506387, -6737.1053279075
2736, 1555.2434324765, -444.43685236362, -6582.5991895922
2737, -1595.6050878579, -265.23697630957, -1520.8329625644
2738, -1571.7595712623, 381.93991693123, -940.83215740693
2739, -1518.1035159958, 558.27230337987, -756.95873873647
2740, -1565.6008953924, 406.44813487896, -747.56092774827
2741, -1562.0017704149, 420.06751745479, -530.10136597584
2742, -1462.035547115, -691.9236294362, 341.29169590735
2743, -1520.3246416601, -552.19492388213, 343.0877621335
2744, 805.99309873548, 1402.3841751784, -84.785200709837
2745, -800.69229497928, -1405.4174108644, -4145.2842666151
2746, 1197.8819761361, -1086.9153698647, -1831.6554419252
2747, -719.58514574838, -1448.621230004, -2431.1361272355
2748, -696.26060459747, -1459.9751437903, -2675.6271500502
2749, 1442.3814735986, -732.01225032074, -5307.098162505
2750, 1345.2036502004, -898.18338299459, -5545.8848753552
2751, 1455.7003956006, -705.1543152021, -5531.2889300887
2752, -811.46403215671, 1399.2256338832, -5806.7547658739
2753, -1128.5142986064, 1158.7759610213, -5986.9458452454
2754, -1452.1709135524, -712.39447487504, -7179.776046315
2755, -1465.2457885606, -685.09928412259, -6969.6690045387
2756, -1411.8535947846, -789.28808232082, -998.67102441932
2757, -1453.4876834588, -709.70402565688, -1135.1744649094
2758, -1510.989029816, -577.25072695991, -1032.1277689851
2759, 443.26661024018, 1555.5773726325, -7156.2945762617
2760, -1493.5244033007, 621.04034228479, -5775.4885358061
2761, -1371.2535197578, -857.88695907547, -1224.729678894
2762, -476.65352704714, -1545.6738547163, -2721.4550451729
2763, -1016.5323949307, -1258.1606177498, -5541.2955181285
2764, -895.23564611588, -1347.1671714837, -5414.9311398987
2765, 308.53774296015, 1587.8005892331, -1275.9909999312
2766, -1128.4970409195, -1158.7927677699, -5379.4263851256
2767, -1021.6751384092, -1253.9881026376, -5231.0694665595
2768, -1039.7417819646, -1239.049343988, -6978.9622887314
2769, -1596.0182937973, -262.73914033551, -5026.5407244269
2770, -1601.3617639591, 227.91829880417, -5112.2416192147
2771, 1368.5744735089, 862.15437159474, -894.29475505891
2772, 1467.3384028538, 680.60580478754, -853.6384876832
2773, -123.9639542568, 1612.7427532142, -3346.5770268875
2774, 1354.4919266054, 884.11417292156, -741.24006984764
2775, -652.16509448765, 1480.1982771007, -4743.6980303011
2776, -535.68087935119, 1526.2215584565, -4989.3314609682
2777, -979.47687673131, 1287.2184344348, -954.10992522476
2778, 1433.3419270603, -749.55798316816, -2619.0027705821
2779, -751.70882814249, 1432.215098263, -923.64437679446
2780, -571.02523021983, 1513.3527138286, -4306.6594951489
2781, -740.23581054493, 1438.1784293984, -4260.0922228176
2782, 464.23189319554, -1549.4499021718, -2662.9169272698
2783, -52.049122437039, 1616.6623453441, -1979.3599512278
2784, -222.55306496355, 1602.1162202772, -2090.9915117583
2785, 5.6918522100632, 1617.4899853843, -1778.4739160446
2786, -202.27659241996, 1604.8023025155, -1854.7556027821
2787, -1608.8329811157, 167.22047982885, -5280.2520997285
2788, -1615.4502800666, -81.404192968651, -5226.3037878948
2789, 1613.4213353178, 114.79479405222, -4935.0565717789
2790, 1607.338859454, -181.01944892489, -5037.3163535361
2791, 1613.4855028233, -113.8893418155, -4797.6549913957
2792, -1564.4654339866, -410.79697645068, -1765.1364947942
2793, -1504.229673035, -594.64219557728, -1821.9191260671
2794, -1467.6808907481, -679.86693766719, -1638.3854040739
2795, 1587.8617586963, 308.22278512432, -6011.1096743919
2796, 1616.566244835, 54.952944054066, -6058.7379321715
2797, 1606.0345804452, 192.2476954721, -5753.2740218863
2798, 1586.853457903, 313.37254688514, -6282.1164452894
2799, 5.5714422727095, 1617.4904046179, -2147.5849713188
2800, -84.653782612938, 1615.2832528969, -2240.02880311
2801, -1336.8650677695, 910.54820881573, -1165.4700347068
2802, -1180.0328717142, 1106.2679023066, -1046.9051941619
2803, -1296.873065033, 966.65738666388, -976.59842463233
2804, -1235.7670104271, 1043.6408127034, -1241.350251126
2805, -1355.0638870312, -883.2372909155, -2062.9946676169
2806, -1402.7938458518, -805.27987435441, -2310.4385668084
2807, -1415.3133166987, -783.06734421456, -2157.8036006782
2808, -1298.7560412331, -964.12602670014, -2257.3180964559
2809, -1477.3788932458, -658.52703497414, -4757.4500186154
2810, 1552.3135360804, -454.56455614307, -6259.6161538858
2811, 1458.4695376803, -699.40893450004, -6231.6767570089
2812, 1471.4876947544, -671.58783058231, -5968.1816760784
2813, -1517.1478464333, -560.86421000333, -4944.9924337841
2814, -1441.0039738908, -734.72021697442, -5036.157351462
2815, -1617.195583062, 31.379868145362, -875.85885700195
2816, -1598.6882800188, 245.97161082214, -919.5727263778
2817, -1603.1214232963, 215.19282555028, -776.26461166907
2818, -1422.4012639585, -770.11745486595, -1433.3688891298
2819, -669.11596037025, 1472.6133510117, -2024.3704427211
2820, -623.70347848638, 1492.4142256505, -2259.5356448343
2821, -480.4335654636, 1544.5031042947, -2047.1830734219
2822, -1540.9522232298, -491.70366657468, -1158.6777915892
2823, -1420.411355289, 773.78151423119, -1084.2157494871
2824, -1385.0363530023, 835.45230316397, -1347.8606096534
2825, 1608.8771658358, 166.79482981279, -6544.5043980688
2826, 1237.5511523261, -1041.5245534198, -588.33549080813
2827, 1177.9923478466, -1108.4404712996, -720.08167225731
2828, 1189.5001138506, -1096.0819901583, -436.67009026734
2829, 1004.1538794502, -1268.0620002134, -570.3895845537
2830, -730.93330199169, -1442.9285353196, -263.29429384862
2831, -1310.6040103907, -947.95747686689, -1544.6919429677
2832, 746.96238309115, 1434.6962912919, -4684.0349890606
2833, 620.33040795453, 1493.8194117653, -4728.9386540112
2834, 1597.0410159455, -256.44929983902, -1973.7393809866
2835, 1616.6486510045, 52.472747261957, -2018.0168866356
2836, 1612.3441229521, -129.04526020692, -2180.600009315
2837, 1106.8783083333, -1179.4603259717, -6790.1384809256
2838, 877.04078645483, 1359.0826718396, -1664.910909269
2839, 720.47797632184, 1448.1773840366, -1867.6804475208
2840, -1529.5678410774, -526.04987362589, -726.77246689585
2841, -1288.1339518272, 978.27254492292, -1425.1066134372
2842, 1616.5995271697, -53.964977111531, -4034.5787519595
2843, 1591.4448537478, -289.15312116531, -4059.0624599102
2844, 744.50950905086, 1435.9706964046, -3403.336746021
2845, 556.6860210717, 1518.685920111, -3391.44110451
2846, -975.76541163322, -1290.0341512767, -3516.0966451708
2847, -1137.3753551422, -1150.0798022378, -3487.4689963328
2848, -1099.4639088572, -1186.3748830451, -3343.620799855
2849, -969.97242806115, -1294.395510963, -3322.9892227598
2850, 1377.2648533072, 848.20267262295, -4194.3699369179
2851, -801.53887041469, -1404.9347633304, -3545.6542877975
2852, 1189.2247293005, 1096.3807701798, -7165.071245425
2853, 225.30572342911, -1601.7314322289, -609.45881787925
2854, -1486.674430776, -637.26398523434, -5214.7022367908
2855, -1521.9791862887, -547.61812105137, -5400.8564335416
2856, -1554.373824647, -447.46872879802, -5130.2700610775
2857, -1436.953104397, -742.61162512027, -5457.0958716382
2858, 161.72008847227, 1609.3951854608, -2025.0191181058
2859, -1583.1678885231, -331.49010053006, -5327.114994077
2860, -1504.3948907771, 594.22408450319, -1468.9476922315
2861, -1467.8965306226, 679.40122562894, -1270.750632833
2862, -850.74259042046, -1375.6973849087, -4752.8784185109
2863, -1051.0436708686, -1229.4769017461, -4665.1540529166
2864, 1542.0949655586, -488.10794625662, -2658.2490165229
2865, -503.15191719084, -1537.2522233606, -3179.543849129
2866, -708.31551132492, -1454.1648415556, -3839.6100776117
2867, 1595.0152432122, -268.76127682548, -1394.6551859004
2868, 1607.2679267068, -181.64818132736, -1633.9478129282
2869, 1584.0130547819, -327.42769015564, -4567.6373647584
2870, 1511.1979672396, -576.70352332117, -4505.258261405
2871, 1533.6360350334, -514.06883006767, -4272.6230054682
2872, -1500.1897933807, 604.76179925355, -2522.1822511357
2873, -1449.052879208, 718.71552317934, -2691.0086780439
2874, -1362.7799074451, 871.28478344559, -2577.4889435043
2875, -1550.9372252998, 459.23847092708, -2646.9850794889
2876, -1373.6156720943, 854.099663609, -6930.4734255983
2877, -1332.1419790093, -917.44427501683, -7179.9897384239
2878, 1614.9916332599, -90.045957713845, -6973.4752094581
2879, 1616.4806029567, -57.416985854871, -7177.3839384737
2880, 281.66368642184, -1592.787436462, -2241.56530556
2881, -799.71504231308, 1405.9737199173, -578.27601279897
2882, -197.43331932609, -1605.4053489446, -1286.7196718718
2883, -1606.8513157443, 185.29732618354, -6985.0665416201
2884, -1615.1641724211, 86.896180164441, -7166.9098047289
2885, 1318.301357561, -937.22344222327, -7164.0039371795
2886, 217.73947461967, -1602.7775176837, -3712.7939920682
2887, 1541.3993389386, -490.30024262651, -3208.6485722238
2888, 1602.3128503075, -221.13294584844, -1758.6801898898
2889, -1262.0078037875, 1011.7522192609, -4618.0315625992
2890, 1161.4923627682, 1125.7183223308, 704.54145221016
2891, 1277.1291314822, 992.59630843542, 735.90989523089
2892, -1065.2635126738, 1217.1770202259, -18.486782216564
2893, 1199.3044504085, 1085.3456063533, 537.66825866035
2894, 1608.9275494714, -166.30811932078, -6034.1730849496
2895, -898.90383276773, -1344.7223317233, -3966.911824787
2896, -1576.6927931711, -361.03474342808, -594.09175161274
2897, -1616.1921548464, -65.032058347779, -672.31602771329
2898, -1607.2491779124, -181.81399863526, -460.36403774178
2899, -1617.4843734524, -7.1099674557977, -339.68857029496
2900, -1179.7151245878, -1106.6067390084, -7181.1229493703
2901, -1609.2196262381, 163.45777598491, -524.50898837688
2902, 443.01630350544, -1555.6486765425, -5154.7834425089
2903, 634.91058996663, 1487.681011759, -5552.6996122445
2904, -898.30702815314, -1345.1210849476, -2668.6608028714
2905, 1359.6769176612, 876.11924392701, -57.281461897845
2906, 1182.594245339, 1103.5293837914, -58.628432785529
2907, 1453.1839756581, 710.32568789985, -463.06283425552
2908, -1545.1675767924, -478.29218018857, -4657.6701388419
2909, -1433.4026482106, -749.44185772009, -4561.5360789906
2910, 1513.7100552521, 570.07729180248, -405.88907926282
2911, -1570.9344229564, -385.31972278939, -4842.9290603363
2912, -280.20671898837, -1593.0443950605, -1489.0471973557
2913, -1602.2650296402, -221.47917462382, -4745.1011135633
2914, -195.31826123094, -1605.6640454434, -10.712190133426
2915, -1605.312165726, -198.18955717196, -5566.4192503997
2916, -1616.9059881483, -43.832356657772, -5420.9646687841
2917, -975.44580779098, 1290.2758333252, 62.31909270936
2918, -270.69873232995, -1594.6875701262, -3014.5140149692
2919, -198.35181131415, -1605.2921257355, -3211.1364974861
2920, 647.84023509116, 1482.0962451194, -6342.425563085
2921, -477.02175202069, -1545.5602537912, -2948.085010943
2922, -462.16417153776, -1550.0679109467, 412.62365507821
2923, -1541.9541076374, -488.55274018276, -5609.4281481958
2924, -680.80892646768, -1467.2441704236, -3050.7281207523
2925, 383.48263889902, 1571.3838855172, -2635.296554159
2926, 362.48472351731, 1576.3600715625, -2851.5830710542
2927, -1590.5598641603, -293.98225885623, -4576.2033702952
2928, -1613.5281987759, -113.28283963098, -4537.7882804624
2929, 509.18742937323, 1535.2636294032, -2514.0974726039
2930, 1356.2010689242, 881.49016480551, 620.41985921661
2931, 1438.7489516729, -739.12631130291, -7150.4660831749
2932, 1566.0012354783, 404.90292723112, -4859.7161603119
2933, 1246.2984150448, 1031.0414689317, 364.58766362937
2934, -1326.004244113, -926.2931472241, -3876.3568050068
2935, -1178.9279176997, -1107.4453552515, -3685.8731933591
2936, -1207.3438222314, -1076.3954407743, -3875.9720744182
2937, -1345.81727978, -897.26367331216, -3650.7692188033
2938, 1345.7006905436, 897.43852239059, 425.8287113628
2939, -469.62786108163, 1547.8229621297, -5274.1897003597
2940, -1585.5425938145, 319.93895230177, -6840.360169993
2941, -785.31046473276, -1414.0699148137, -1334.1866546237
2942, 731.48189173724, 1442.6505093267, -1136.5508462718
2943, -1562.9182947349, -416.64451752429, -3294.4945933316
2944, -1609.9908956743, -155.67776284978, -3221.6580405056
2945, -1567.4422003707, -399.28836509084, -3105.313758865
2946, -1577.4604961066, -357.66553261841, -7178.8254298293
2947, -1613.8434814314, -108.69897626612, -7094.1677860366
2948, -756.51627057221, -1429.6815667692, -5284.2854221184
2949, 1021.059536441, 1254.489407306, -820.55016307861
2950, 1258.1585139044, 1016.5349988515, -683.98617993463
2951, 1074.2718038135, 1209.2337828275, -576.68103531795
2952, 1214.6688346272, 1068.1225923017, -929.67481980371
2953, 1486.099889464, 638.60266875046, 65.730740721197
2954, -1491.8485529279, -625.05531365382, -2095.3481018425
2955, -1488.4874635044, -633.01763086831, -2318.2121819048
2956, 265.66760994989, 1595.5334440317, -2767.394578589
2957, -699.52346073937, 1458.4146111018, -1162.9292696247
2958, -635.54169214577, 1487.4115125091, -1367.5301167011
2959, -547.90958894334, 1521.8742827001, -1064.0471260197
2960, -1556.0032583746, -441.76929491262, -2333.3347852238
2961, -420.6962234841, 1561.8325574613, -1262.4120786275
2962, 1433.6997931883, 748.87325563927, -635.57663125921
2963, 1546.6799611404, 473.37865161691, -629.58308791246
2964, -1433.8248009841, -748.63388253733, -1924.4566070425
2965, -1340.4201296744, -905.30664747568, -3040.7138850657
2966, -1455.2161020088, -706.15320324577, -2932.3448025587
2967, -1368.4248134773, -862.3918945929, -2825.6863581282
2968, -1462.75620569, -690.39882149047, -3151.2427954557
2969, -1375.7810988539, -850.60720549278, -3314.1639104015
2970, -1314.0136313433, -943.22554388859, -3186.2529030098
2971, 1527.730651974, 531.36174591237, -820.57625556181
2972, 893.10781036434, 1348.578766356, -2457.0569297548
2973, -1209.4340291762, -1074.0463579709, -2971.7323424741
2974, 1609.3213068491, -162.45362821885, -5528.8642932275
2975, 1617.4905506403, 5.5288868141788, -5634.8562762548
2976, 925.11338841158, 1326.8275956512, -2248.1317511279
2977, 161.35079352186, 1609.4322512706, -1437.9560648599
2978, 67.050345103378, 1616.1096810618, -1600.8607762893
2979, -1507.0960764216, 587.33948141994, -5348.3604280999
2980, -1498.090816612, 609.94274746316, -5580.7166650368
2981, -1434.0538494359, 748.19503267398, -5414.6319552875
2982, 344.27896051752, 1580.4360940402, -2069.4547054112
2983, 357.41559544432, 1577.5171447985, -1886.9516540169
2984, 186.68943866911, 1606.6901703469, -1849.034170909
2985, -1577.6513749263, 356.82262987793, -5487.5478156699
2986, -1142.8685114108, -1144.6212542259, -2135.6561822704
2987, -1107.0727713976, -1179.2777996851, -2444.4317988653
2988, -924.20430773991, -1327.4609777899, -2426.8666124474
2989, -1617.0122726535, -39.718510645083, -1489.1005837846
2990, -1617.1184571177, -35.130409182053, -1236.0844829269
2991, -1611.9132822663, 134.3198438554, -1466.094628517
2992, -1517.8366017925, 558.99758519958, -2111.1846234725
2993, -1506.2957694559, 589.38892500563, -2270.4436637353
2994, -1593.2265494527, 279.16914607255, -1618.8669501729
2995, -1617.2703630265, 27.254777125008, -1693.4502251201
2996, -1586.4455436377, 315.43111303761, -1886.4719954041
2997, -1604.3007712844, 206.21659791661, -1318.89946387
2998, 194.64774207204, -1605.7454675341, -869.94877195391
2999, 416.41954673433, -1562.9782503597, -921.84290964309
3000, -1145.4942998273, 1141.9934584152, -4480.8443651192
3001, -964.87649769001, 1298.1985958263, -4647.6910620889
3002, -1400.6137665365, 809.06571240444, -297.69054825865
3003, 1234.4945888188, 1045.1456167334, -3545.7755483018
3004, 1068.0314462108, 1214.7489781452, -3611.2827408905
3005, 1489.8044534358, -629.91185139101, -2768.2063445014
3006, 815.7351380436, 1396.7399308966, -5591.5790171149
3007, 826.01387223572, 1390.6859217214, -5349.7198359275
3008, -906.43540199658, 1339.6570874695, -5498.9083789393
3009, -373.44386281969, 1573.7998383919, -1683.554663658
3010, -579.21476324171, 1510.2372356828, -1802.6372455713
3011, -371.55657234851, 1574.2464748395, -1902.5031124256
3012, -409.41187309469, 1564.8284788337, -2947.9640157488
3013, -382.33482761661, 1571.6635548333, -2815.6492012759
3014, -555.12620930155, 1519.2567728157, -2831.6122368756
3015, -573.15337272824, 1512.5480029838, -2643.0246665483
3016, -1237.8235106426, -1041.2008482999, -4045.0829256251
3017, -1101.5134902763, -1184.4721527918, -3904.9475611432
3018, -1080.2313575235, -1203.9129803366, -4095.5607836149
3019, 1209.4044671096, 1074.079645527, -400.11086622901
3020, -1423.4866144979, 768.10943773999, -5564.1170997267
3021, 1591.5911724578, -288.34664859211, -816.20474547969
3022, -1330.0773965219, 920.43488051115, -5534.6144666776
3023, 1538.7273932897, -498.62236125129, -2872.1978455688
3024, 1564.5405772068, -410.51069690519, -2768.4054773069
3025, 1540.6855789033, -492.53852332513, -757.74595979634
3026, 1549.109803771, -465.36551855551, -558.57917807792
3027, -565.55149866393, 1515.406794349, -1552.9864439316
3028, -506.76178944964, 1536.0659942704, -1681.0000881925
3029, 1540.6619237476, -492.61251173142, -975.35485421532
3030, 1591.9132629042, -286.56310542285, -1024.0320744139
3031, 1443.9057712186, -729.00094227769, -959.70403057639
3032, -1543.8222159058, 482.61704867922, -5607.6267394129
3033, -1594.5934879214, 271.25238852138, -5710.6798725451
3034, 1102.4549366074, -1183.5959457306, 152.01702600232
3035, 1112.9498134859, -1173.7329179424, -70.368116509531
3036, 567.61318698319, -1514.6357713862, -693.21919734138
3037, -1553.9016324359, 449.10574112694, -5757.6250813667
3038, 419.25808670721, -1562.2192249267, -750.55975477802
3039, 18.412114851492, 1617.395203414, -2816.2790227454
3040, 127.66644680803, 1612.4538841032, -2644.6956746731
3041, -140.3335858246, 1611.400860956, -2696.3634665073
3042, -33.752123105279, 1617.1478114835, -2519.552638092
3043, -743.3401616741, 1436.5763655449, -2890.8201077858
3044, -776.41528284813, 1418.9734171435, -2698.5832943467
3045, -528.78098383327, 1528.6258277081, -2998.8080115985
3046, -1535.7641823073, -507.67570982064, -2524.21972952
3047, -1484.6811853071, -641.89409406457, -2464.6850191496
3048, 1571.9471201975, -381.16728781823, -187.15608689205
3049, 1187.0318389439, -1098.7545965017, 281.05925222252
3050, 1005.6982028426, -1266.8375487011, 283.67664203584
3051, -334.48165141472, 1582.5385539907, -3878.1890729202
3052, -240.09571254941, 1599.5812885925, -4063.6274358283
3053, -133.50685207155, 1611.9808219858, -3849.6162435936
3054, -811.10572196356, 1399.4333702603, -1479.6078763865
3055, -870.66076928504, 1363.1786657764, -1255.3967810365
3056, -1008.1996392248, 1264.8477131525, -1389.9423238226
3057, -1048.7796325945, 1231.4087592083, -1140.1528449173
3058, -717.27121901395, 1449.7683430032, -1669.9612141459
3059, -1078.9809199219, 1205.033785603, -3264.7943474607
3060, -977.1801490266, 1288.9628413373, -3396.9265746243
3061, -883.61762775909, 1354.8159055434, -3158.2268278414
3062, -1155.1866882613, 1132.1881315682, -3490.269572736
3063, 1608.6238991493, -169.21997838809, -262.37598694911
3064, -832.6655179524, 1386.7135195177, -3831.9728603913
3065, -928.84718567757, 1324.216430822, -4079.7884492174
3066, -718.79408176255, 1449.0139122945, -4049.9696248599
3067, -986.75296797549, 1281.6492617684, -3899.4588029651
3068, 987.01536212356, 1281.447199432, 686.05312979623
3069, -1270.4168609399, 1001.1729368293, -2913.1329022468
3070, -1140.1282220089, 1147.3508126893, -2837.9987483248
3071, -1308.8304209942, 950.40474487459, -2749.0981102822
3072, -1192.0681708381, 1093.2884916959, -2660.2465580487
3073, -1350.4401927225, 890.2907030176, -2964.1120349591
3074, -1243.2589796849, 1034.7044792755, -3096.1503991546
3075, -1379.4231279176, 844.68815794116, -3158.7907390711
3076, -459.22823893794, 1550.9402549944, -3145.2601210778
3077, -326.79340560132, 1584.144033873, -3025.6270311649
3078, -1270.5457632365, -1001.0093473698, -1911.5431926867
3079, -1374.858267524, -852.09799566768, -1753.3995891707
3080, -1605.4910013903, -196.7355952919, -1733.8818125935
3081, -1590.0893348396, -296.51670649295, -3679.8550633127
3082, -1558.5173506635, -432.81626318876, -3524.9494649706
3083, -1218.0586888171, 1064.2552704108, -3247.0697781797
3084, -1102.1163404595, 1183.9112391105, -3031.8969633094
3085, 1194.2041725952, -1090.9549230634, -5015.5391565776
3086, -808.82858051087, 1400.7507192034, -2287.7651867368
3087, -809.97362740198, 1400.088916074, -2133.7747003854
3088, -803.62877426896, 1403.7403759837, -2490.3990755369
3089, -1587.803419702, 308.52317641106, -1126.4503629924
3090, -1538.3233918651, 499.86737445111, -1193.3679377308
3091, -1610.9714101505, 145.18045900823, -1032.1194487802
3092, -1205.3838999147, 1078.5897755062, -3734.0635196621
3093, -1311.8755935041, 946.19695474474, -3624.2456079608
3094, -1025.5229420412, 1250.8432936812, -3718.7322587835
3095, 1232.1853083745, -1047.8671747058, -3250.934345831
3096, -698.79727814567, 1458.7626997069, -3075.0901201893
3097, -1036.6302549452, 1241.6537216681, -5426.9304368471
3098, -1209.147263923, 1074.3691842879, -5487.1323550054
3099, 1366.008317802, -866.21448019283, -1160.9511724054
3100, 1490.8111492928, -627.5255908282, -1174.2461876354
3101, -931.00705386075, 1322.6988000529, -2962.7967158192
3102, -972.82337820227, 1292.2542028653, -2761.5923720993
3103, -333.19013274255, 1582.8109759043, -2564.3655043969
3104, -231.77273480752, 1600.8084361971, -2875.2596338409
3105, -1613.7564004921, 109.98422555421, -2831.3513751505
3106, -1617.3663045928, -20.796316211267, -3029.6281578645
3107, -1608.8338879866, 167.21175456827, -3152.9774097808
3108, 652.39527308632, -1480.096840634, -5178.6466100153
3109, 449.25767466635, -1553.8577128403, -5372.1480624064
3110, 864.71223731575, -1366.9597640883, -5200.3321783202
3111, 47.771717059457, 1616.7943941792, -4665.22444998
3112, -40.314144489488, 1616.9975323896, -4880.897510694
3113, 1324.8037108449, 928.00936295477, -5609.6722630546
3114, -1113.373521626, 1173.3310067249, -1325.1814411751
3115, -1175.2289471036, 1111.3699527564, -1509.5091808323
3116, -1543.7420768567, 482.8733272217, -3203.3220296102
3117, -1592.21425135, 284.8859908769, -3257.1423224758
3118, -1474.6885133873, 664.52993798883, -3350.9154202216
3119, -1469.6139711091, 675.67819701465, -3000.81282581
3120, 1306.1780952794, 954.04666207288, -5829.3819592956
3121, 1475.0215095174, -663.79047632603, -485.47319660678
3122, -134.23749630195, 1611.9201421245, -809.8776481138
3123, -314.0291215553, 1586.7236560962, -772.75921093601
3124, -1566.5981284155, 402.58732474462, -1395.2381436431
3125, -1607.1534914395, 182.65789047818, -2338.7729624491
3126, -1610.5756294599, 149.50716300558, -2070.2954911128
3127, -1617.2584827539, 27.95084901058, -2180.7978579383
3128, -1582.828991185, 333.10454014377, -2149.8444709792
3129, 1553.6741024176, 449.89224651791, 173.47549792347
3130, 1603.9909998804, 208.61237332115, 237.01963969813
3131, 1567.6837572332, -398.33891010956, 206.65198891766
3132, 763.58756130041, -1425.9173490169, -613.72657818979
3133, 941.35065008968, -1315.3574432738, -833.75057170683
3134, -1006.9037629029, 1265.8795607213, -4461.4727491188
3135, -581.56534570363, 1509.333627359, -5125.8372311283
3136, -379.0096962708, 1572.4687278712, -5074.077682094
3137, -1253.5481833866, 1022.214851158, -2491.9584934478
3138, -1396.3048427245, 816.47966060648, -2855.8839169807
3139, -1401.0707039216, -808.27416921032, -5293.6154975827
3140, 950.57181422943, 1308.7090876098, -4654.8879448874
3141, 683.14899713697, -1466.1560959566, -371.12021074891
3142, -410.48366951503, 1564.5476685168, -3661.0720534301
3143, -303.49326334213, 1588.7725101807, -3498.0291207257
3144, -533.36535490574, 1527.0323009636, -3428.271862784
3145, -237.03802565997, 1600.0372571885, -3694.438637114
3146, -624.67648496732, 1492.0072181893, -3250.4079488655
3147, -665.23819721214, 1474.369150169, -3499.8680612467
3148, -810.00426136304, 1400.0711933947, -3384.1427450361
3149, 316.91827019222, 1586.1491291863, -1547.8400126513
3150, 238.68012042181, 1599.7931272872, -1690.3516586344
3151, -1597.5637271976, -253.17264374859, -803.4766905241
3152, -1501.0154050646, 602.70971765746, -949.37337085872
3153, 1310.5498427216, -948.03236218094, -828.0190752379
3154, 1343.0422945938, -901.41202839336, -628.67856452073
3155, 1457.1865793833, -702.07800340496, -697.40709679416
3156, 1251.0493727299, -1025.2715332984, -1025.4110005439
3157, 1108.1351284247, -1178.279587853, -917.18942574728
3158, 166.65024627614, 1608.8921484724, -4225.9254603666
3159, 151.27948841921, 1610.4101236591, -4523.040961476
3160, 9.6197485724367, 1617.471394009, -4384.0164838211
3161, -1412.171319482, -788.71947765501, -2560.9380441266
3162, 1303.9263907127, -957.12184052129, -1677.7021558942
3163, -1266.767088535, -1005.7869522939, -2498.2280885458
3164, 1470.9294629505, -672.80960532986, -1694.1646893949
3165, 1604.0372914353, 208.25613480769, -2170.8968699471
3166, 1605.9545312165, 192.91524995508, -1872.6639853636
3167, 1526.3370756046, 535.3516429739, -1819.4746926297
3168, 1200.865189133, 1083.6184972252, -190.13034685113
3169, 1337.4808956092, 909.64339379799, -4368.6797058572
3170, 1615.3643687695, 83.091552577823, -2305.5496220296
3171, 1605.1536226379, 199.46954086357, -2384.7576127787
3172, 1014.5050574655, 1259.7959113987, -1290.1282486452
3173, -1363.0027355659, -870.93615887718, -5494.5870887969
3174, -1323.9511062875, -929.22533228497, -5658.2923420163
3175, -1452.1911605512, -712.35320116992, -5645.8931459807
3176, -1223.4397525797, -1058.0649421504, -5517.4430929827
3177, 1614.9771805299, -90.304797035786, -857.3404724797
3178, 1395.9023584661, 817.16758111719, -5216.5039711684
3179, 1473.7569810677, 666.59328736067, -5269.6412346597
3180, -662.27986940056, 1475.7003844232, -696.99540601179
3181, -1000.7083908648, -1270.7828163981, -3758.4148705841
3182, -838.51457079974, -1383.184573568, -3705.9484122696
3183, -530.46317531979, 1528.0428886748, -3932.2357678476
3184, 826.53840043638, 1390.3742383272, -1311.249237972
3185, -558.94625950852, 1517.8555033275, -4164.1425918846
3186, -1447.3202977714, -722.1981761669, -3487.0306660686
3187, -1616.2627657934, 63.252841120464, -5658.1174215573
3188, 1529.044606994, 527.56880103212, 358.8525661836
3189, 1581.821194079, 337.85789906778, 266.3456942148
3190, 848.34208589772, 1377.1789844805, -3221.8515584863
3191, 834.18477786711, 1385.8001321889, -2946.1798206576
3192, 625.16777389523, 1491.8014293072, -3109.857554826
3193, 981.44113831839, 1285.7214091771, -3754.0930503378
3194, 848.99230996287, 1376.7782347292, -3601.4860459546
3195, 1322.8153606839, 930.84143200588, -515.40141123254
3196, 698.60500643428, 1458.8547888618, -3280.3830738958
3197, -1613.1969747843, -117.90576977729, -4348.1312223285
3198, 856.4547363981, 1372.1485103666, -3401.8597232853
3199, 1354.3217310816, 884.37486323406, -2336.9715301148
3200, 1432.6666818188, 750.8478066867, 318.05690920241
3201, -1586.36198227, 315.85109024391, -5313.9516917187
3202, -1565.9183318621, 405.22342965113, -5197.6850836328
3203, -891.98979804229, 1349.318513246, -2102.0551780877
3204, -894.22259608453, 1347.8398267791, -1846.6974778734
3205, -1075.1998465165, 1208.4086808903, -1990.699413824
3206, -1148.5284238809, 1138.9419254456, -1799.7222705369
3207, -1211.391624037, 1071.8379463394, -2073.976610141
3208, -1013.735264629, 1260.4154328029, -1599.3230588119
3209, 1328.1527437382, -923.20991074662, -5057.5334386412
3210, 222.32903506356, 1602.1473247388, -7167.9652582981
3211, -334.12360321001, 1582.6141879112, -4359.3243562241
3212, -121.9839271806, 1612.8937260432, -4538.0683135365
3213, -1254.269841024, -1021.3292397154, -1313.6662706187
3214, -1331.5900146476, -918.2452193672, -1019.9091829865
3215, 1144.1326044311, -1143.3577014556, -5759.152991032
3216, 479.53922871743, -1544.7810129986, -483.09694762562
3217, 230.61539718302, -1600.9755740117, -5507.4330886913
3218, 652.54378621989, 1480.0313702979, -610.98907676986
3219, -1270.5325503063, -1001.0261178471, -3419.1619579968
3220, -1303.1532631079, 958.17421320506, -3416.0217897036
3221, -1430.1662168844, 755.59965728055, -3520.1346062169
3222, -1519.9733265773, 553.16122106794, -3471.7936772417
3223, -1582.2731272382, 335.73501577854, -2491.4296036255
3224, -1545.5790634132, 476.96080419531, -2359.8732242803
3225, -1430.0728664099, 755.77632058582, -2357.6185700869
3226, -1160.7294601996, 1126.5049357303, -2427.2192969881
3227, -1302.2190116042, 959.44353445965, -2308.0914885806
3228, -1597.012173883, 256.62884964392, -155.60709920771
3229, -1600.0418335123, 237.00713282615, -339.60631223172
3230, -188.8413963385, 1606.4386627036, -4971.3611166462
3231, 1398.6459422085, 812.46278582076, -2159.5496068798
3232, 1294.2064183762, 970.22471450374, -2088.9498636348
3233, -1271.7437403014, 999.48692287808, -4297.5837847144
3234, -894.17837410449, 1347.86916475, -4259.3754343382
3235, -1460.5403253004, 695.07424651712, -4003.4941010645
3236, -1394.6729054098, 819.26414355558, -3702.7471932863
3237, -1518.5965032916, -556.92989701631, -3365.4264612428
3238, -1588.727562982, -303.72846527975, -2604.7197781788
3239, -1562.4835885246, -418.27178435939, -2801.1249147577
3240, -1501.3068816991, -601.98330289381, -2707.0170944016
3241, 1325.4820038957, 927.04029435003, -1353.599966964
3242, 1221.1697988642, 1060.6840115426, -1238.7001760246
3243, 1100.6136234244, -1185.30835732, 351.04844984662
3244, -602.20732907088, -1501.2170338806, -5136.4271249585
3245, -489.68871960691, -1541.5937233557, -5008.7907739054
3246, -1376.1495038242, 850.01105470709, -4284.7096920752
3247, 1454.8083522492, 706.99286292434, -2000.1709205993
3248, -656.28613238239, -1478.375717618, -4620.5400422493
3249, 896.28774410233, 1346.467426183, -1456.1012868646
3250, 700.97199077785, 1457.7189434678, -1473.8382898716
3251, 1473.9563922021, 666.15223777048, 574.03185773907
3252, 1524.6529472017, 540.12928136625, 517.93184055785
3253, -1039.8978701748, -1238.9183466258, -4862.5532176478
3254, -874.87257175939, 1360.479412995, -1037.6380035627
3255, 486.78792992503, 1542.5121591998, -1665.6976492613
3256, -449.72983366107, 1553.7211225684, -2418.117034512
3257, -202.92003005062, 1604.721069658, -2387.752039648
3258, 1593.099419109, -279.89371346032, -1235.4244908065
3259, 875.93287845602, -1359.7969857445, -5435.0689093995
3260, 1054.0774781596, -1226.8768968551, -5197.4530183768
3261, 1236.145193365, -1043.1928445501, -5619.2515878547
3262, 1049.8011797345, -1230.5379852033, -5650.3379387265
3263, 1535.9486981314, 507.1171922825, -1647.1604814081
3264, 1533.1870125123, 515.40647518586, -1428.2627024848
3265, 1581.4167156504, 339.74611323964, -1558.4148072142
3266, -1147.1334384028, -1140.3469316389, -4592.477038222
3267, -1264.6472497294, -1008.4510814868, -4487.8503161901
3268, -1183.6652339339, -1102.3805440846, -4311.2756085828
3269, -1474.364585722, 665.24831331529, -575.8044263348
3270, -184.27893399178, 1606.9684267237, -1713.1686229247
3271, 356.34693004949, 1577.758890149, -1752.7715779882
3272, -240.99252759833, -1599.4464203723, -2819.6498134555
3273, 989.30376488465, 1279.6813317327, -2811.659099787
3274, 535.44747746987, 1526.3034589724, -1886.032698088
3275, -96.74658268695, 1614.6040842071, -3212.474537578
3276, -89.636443049976, 1615.0144142011, -2983.8070582823
3277, 1412.5839473662, -787.98022922113, -6571.2294252396
3278, -1549.0305798448, -465.62915792051, -5837.9418215866
3279, 1539.7382201573, -495.49214260859, -3070.2605230483
3280, 1497.670459334, -610.97417722718, -3014.4766942679
3281, 1613.8739083613, -108.24628358872, -1872.5697742204
3282, 185.75518555433, 1606.7984506588, -4928.2373235376
3283, -1266.8118943318, 1005.7305177728, -4477.4242829236
3284, -13.234410922388, 1617.4458570127, -4155.1862646936
3285, -554.38448629468, -1519.5275882181, -4861.8698087966
3286, -734.90936153597, -1440.9075196996, -4952.3262222472
3287, -890.79378274283, -1350.1083981024, -5084.511137103
3288, 1295.8482820957, -968.03072254426, -5741.7967693951
3289, 1614.7529869786, -94.228663598614, -6819.5493515382
3290, 1373.7509594244, -853.88204775636, -5742.789484538
3291, 1368.9628509764, -861.53755730473, -5938.821059033
3292, 1489.6035741892, 630.38673983735, -5147.4852628184
3293, 1538.093647198, 500.5738531416, -5285.3685268452
3294, 1535.038470747, 509.86580913684, -5110.3928111759
3295, 1595.211518849, 267.59383425532, -5287.9191316602
3296, 1584.3741380361, 325.67597504622, -5039.7638346173
3297, 1617.2736073116, 27.061579654762, -5146.8754692882
3298, -1372.1447658729, 856.46073552015, -4134.6106792975
3299, 1278.8298763384, 990.40415860616, -1109.4314246333
3300, 1545.8104308878, -476.21041752405, -1205.0433760694
3301, 1559.3200193192, 429.91548861432, -1246.341101512
3302, 1472.6339338018, 669.0706592099, -1312.1967339035
3303, -1563.6958689403, 413.71666567698, -3455.7389705704
3304, 1469.0334418432, -676.93943358799, -4751.0295666469
3305, 1524.3178050002, -541.07437507191, -4741.8709073929
3306, 1524.0998905146, -541.68789328671, -4922.9883843504
3307, 1559.899398007, 427.80850634076, -2697.2917221637
3308, 490.94782034539, 1541.1932025863, -507.57657323998
3309, -495.21634903772, 1539.8269440576, -6292.4145182608
3310, 704.9355526876, 1455.8063458294, -1665.9085119861
3311, 1557.2192598754, 437.46362897189, -4139.947663708
3312, 1201.0288479012, -1083.4371031625, 16.452668260335
3313, -667.66594211736, 1473.2713394811, -3697.8441900999
3314, 366.14653891969, 1575.5135550154, -1052.8186822932
3315, 1584.6487775528, -324.33701885606, -2199.2489845356
3316, -1410.274640403, 792.10585696366, -5763.6080012553
3317, 910.10315993717, 1337.1680852729, 60.74396246369
3318, 1135.1119129551, 1152.3138439972, 123.58816211385
3319, 1534.9156541244, 510.23542088315, -4342.2286735733
3320, 1604.7215807497, 202.91598822186, -4707.2652666306
3321, 1184.5402690671, 1101.4402393949, -3081.695904925
3322, 1095.1814714023, 1190.3292799462, -2850.815943164
3323, 1042.3976060534, 1236.8158637785, -3032.1535308668
3324, 1228.197722138, 1052.5381728636, -2895.8388422514
3325, -536.74276164455, 1525.84843868, -806.05911856855
3326, 1299.9805897083, 962.47426790628, 185.33821502848
3327, 1599.6357993193, -239.73226636407, -4339.9372376355
3328, 1616.6953767709, 51.01282904999, -5882.3559546815
3329, 1261.4572249132, 1012.4386004664, -1798.3416561178
3330, -729.54714841949, -1443.6298723125, -3303.7761949263
3331, 1577.7833512496, 356.23860896838, -5520.6485535493
3332, 1601.9534523514, 223.72167194886, -5566.2090907409
3333, 1613.8439770754, 108.69161723576, -5467.3556604968
3334, -423.82845486836, 1560.9854870702, -931.38971904245
3335, 1615.6306910424, 77.741367122034, -6736.5821529745
3336, 1237.6367917665, 1041.4227871839, -2288.1151948371
3337, 1090.320857008, 1194.7831095113, -2255.7607675916
3338, 891.35385768157, -1349.7386970804, -6263.7112976878
3339, -1617.1042015216, -35.780601183604, -6541.2705631972
3340, -409.59870877075, 1564.7795844058, -6510.1093908921
3341, -1607.6829931364, -177.93718998546, -3861.1511519672
3342, -1580.7472304782, 342.84755115864, -2733.3111898676
3343, -1582.2793121384, 335.70586586871, -2937.5963168465
3344, -37.313291699059, 1617.0695619739, -3675.2488569105
3345, -169.27900344243, 1608.6176888849, -3517.1102991793
3346, 1010.324437768, 1263.1511312779, -3227.3830388455
3347, 241.29750076177, -1599.4004395792, -416.97198596449
3348, -608.26701453143, 1498.7719936778, -931.52063581813
3349, 1591.3590526633, 289.62495663615, -1704.693027744
3350, 1130.8076699449, 1156.538051079, -1994.7919315651
3351, -683.78861966058, -1465.857896804, -2897.9498358899
3352, 1607.6292205624, -178.42236181022, -4621.3640745583
3353, 1579.449751758, -348.77604801877, -4767.5668314962
3354, -1535.2675605923, -509.17557619434, -7182.4291962993
3355, -332.54798219093, -1582.9460159907, -4823.8920808784
3356, 1447.1693786088, -722.50054644757, -4370.7342978762
3357, 893.71069284243, 1348.1793083634, -601.5219179569
3358, -1312.6469725982, -945.12653932087, -5390.9496236976
3359, 1390.9985138466, 825.48736179089, -6740.7864401321
3360, -1615.7385607831, -75.466238800025, -4105.4600520917
3361, 1602.808096196, -217.51426796557, -6279.6221622403
3362, 546.38783330502, 1522.4212904503, -2937.1858664058
3363, 1466.8001292535, -681.76508477761, -5745.7239654908
3364, 1576.4457767167, -362.11181018036, -1794.6192338097
3365, -1508.7770897726, 583.00767008437, -3609.5930761727
3366, -997.67965519611, 1273.1620303825, -2228.3480126104
3367, -1175.242568433, 1111.3555485725, -2269.8636659198
3368, 1258.1141209606, -1016.5899412445, -5873.8986473149
3369, -1371.2360507843, 857.91488099318, -5347.0048174268
3370, 1524.7321421124, -539.90568140114, -1889.6591099142
3371, 1448.0873969172, 720.65882419468, -2395.7026285237
3372, 1409.2562500657, -793.91628755858, -4620.0305546658
3373, -1469.107323532, 676.77907912746, -4280.0768799495
3374, -753.73622795856, -1431.1491706537, -2185.9889231221
3375, -401.80594976434, 1566.7987199171, -2237.3249553641
3376, -1527.764343436, 531.26486889843, -1896.4488971934
3377, -343.20613540387, 1580.6694147168, -3301.8995674014
3378, 1203.9027608407, -1080.2427469972, -1517.3885318011
3379, -204.52313810545, 1604.5175399414, -3130.5181132719
3380, -10.785068583603, 1617.4640435866, -874.28438276526
3381, 1617.4724509987, 9.4403527624992, -4676.7662205571
3382, -1331.51563924, 918.35306525279, -1596.9027457081
3383, -1611.3228130499, -141.22691721097, -1987.3572744746
3384, 1574.5469732682, -370.28108103453, -4960.8351212071
3385, 1617.4986753055, 2.0701171375577, -1739.9521297313
3386, 230.69768033586, -1600.963719229, -5338.9113430217
3387, -1518.4665216209, 557.28419385138, -2822.0366871145
3388, 1505.1129518754, 592.40294740748, -4538.224177078
3389, -1034.8429412673, 1243.143731396, -2517.9949123862
3390, 1558.940571503, 431.28939764618, -5858.8188429241
3391, -1187.5610200405, -1098.1826231008, -3212.0649568433
3392, 1526.4521032785, 535.02357555209, -5483.0167465958
3393, -1614.5731802465, 97.260966624946, -1911.1163125807
3394, -1613.1405724547, 118.6749489172, -5459.6972635611
3395, -1535.1901515827, -509.40892069485, -2939.0098956357
3396, -424.7617542779, 1560.731784165, -4123.6198710658
3397, -132.78942713955, 1612.040079539, -4234.5654274076
3398, -1617.3948004545, -18.447478489323, -6097.0996725484
3399, 1616.0420344371, -68.661437010751, -5348.747443648
3400, -864.55955617575, 1367.0563352785, -3590.8986443436
3401, -1601.6147901043, -226.13339894667, -2908.5650142615
3402, 1345.0216217391, 898.4559460843, -2945.9769791424
3403, -603.06005304254, 1500.874685783, -2451.1782001875
3404, 1574.3075601981, 371.29766482311, -3934.815737946
3405, 1567.8391334851, 397.72691826505, -5713.4278899953
3406, -906.12242848161, 1339.868797533, -3712.2691254837
3407, -607.50251280839, -1499.0820347571, -5975.1692826657
3408, 1541.5042877804, 489.97018353649, -2885.1770590279
3409, -1237.4968147087, 1041.5891145677, -1673.5332818625
3410, -1010.3300464879, 1263.146645154, -3539.6208252403
3411, 1415.6367936098, 782.48240783946, -1468.5259543612
3412, 1613.3094232694, -116.35701435697, -3810.1718525167
3413, 1139.5125125883, -1147.9623180465, -1288.9584200464
3414, 1115.522652397, -1171.2879500743, -1160.2106136931
3415, 1025.0555072658, -1251.2263812053, -1187.2793398537
3416, 1050.7182816206, -1229.754992943, -1316.027146207
3417, 1600.2734874174, 235.43792275058, -7187.5868855146
3418, 1586.7217638673, 314.0386824418, -7103.7890178823
3419, 1603.3801929321, 213.25620017521, -7003.6493189271
3420, 1611.9434952411, 133.95677717114, -7087.4471865594
3421, -815.32209624311, 1396.9810769576, 682.24630792443
3422, -698.98120436073, 1458.674578496, 596.44131765082
3423, -779.17764486694, 1417.4584465654, 497.02117624369
3424, -891.89999113417, 1349.3778773253, 582.8261665173
3425, -304.01711277805, -1588.6723529847, -4402.6014600147
3426, -454.02371694663, -1552.4718079405, -4522.7145743508
3427, -336.97215949909, -1582.0101180847, -4633.5774790672
3428, -184.68342265078, -1606.9219904519, -4513.4643647311
3429, 1592.9852453978, 280.5427916465, -3643.6010982078
3430, 1566.1500248774, 404.32703295288, -3707.7027948155
3431, 1549.7128878984, 463.35322927715, -3591.2835925133
3432, 1581.2170532348, 340.67415598984, -3527.1818959055
3433, 788.14285703784, -1412.4932165856, -1808.099167618
3434, 763.47811560131, -1425.9759524613, -1620.4823110231
3435, 584.06208567977, -1508.3692286942, -1646.4779343763
3436, 610.18571596899, -1497.9918698135, -1834.0947909713
3437, -1556.4731487859, 440.11088047046, -6472.2017243001
3438, -1501.3876085032, 601.78193644617, -6477.8372362252
3439, -1510.0120128321, 579.80166531565, -6632.4645946385
3440, -1562.7317286264, 417.34373643835, -6626.8290827134
3441, -1558.0676014649, 434.43250254252, -4752.6006881132
3442, -1590.9532958672, 291.84561050187, -4643.7367670247
3443, -1568.7587986559, 394.08385102612, -4527.9691411438
3444, -1526.7242258149, 534.24656134596, -4636.8330622323
3445, 1426.7750639927, -761.98370505463, -3449.0545377348
3446, 1461.8645738607, -692.2847807738, -3328.6035682066
3447, 1405.2458706566, -800.99331645322, -3269.3121238129
3448, 1364.979323984, -867.83506214968, -3389.7630933411
3449, 1614.7718868622, 93.904224609634, 439.10326034988
3450, 1604.6412225246, 203.55047770689, 544.00739063513
3451, 1614.3350129016, 101.13711544213, 651.83376629552
3452, 1617.4753416328, -8.9313610334225, 546.92963601027
3453, -514.20984822196, -1533.5887590849, -6122.3255167244
3454, -595.28451666575, -1503.9755962841, -6293.4011850811
3455, -480.05534703348, -1544.6207022388, -6377.0576381263
3456, -396.97659178928, -1568.0292840286, -6205.9819697697
3457, -1278.339724186, -991.03672967659, -103.25727068099
3458, -1204.2449510265, -1079.8612632775, -110.66154014309
3459, -1198.6349448829, -1086.0849501331, -5.3681426910171
3460, -1273.1888487541, -997.64543070581, 2.036126771085
3461, -1393.8267177139, -820.7029492983, 135.58567025986
3462, -1422.1750214687, -770.53517655623, 5.5338910191958
3463, -1358.4915713739, -877.95609258437, -65.016064140466
3464, -1326.3574325039, -925.78734666321, 65.035715100201
3465, -1607.8592661067, 176.33726320568, -4340.5083007263
3466, -1593.1265174621, 279.73943118408, -4437.39642504
3467, -1607.3963664511, 180.50809156286, -4537.8473110082
3468, -1615.69506306, 76.391839902256, -4440.9591866946
3469, 559.25261386484, 1517.7426540377, -295.29340073719
3470, 466.62206406817, 1548.7317712647, -202.27118343575
3471, 559.72068613156, 1517.5700983864, -108.38545388216
3472, 650.30057042183, 1481.0183719688, -201.40767118359
3473, -487.47045968641, -1542.2965995337, 759.55397539498
3474, -722.5769662621, -1447.1312234305, 752.29958800518
3475, -594.75374581777, -1504.1855709439, 644.35356340016
3476, -101.12987693492, -1614.3354663734, -6296.5478376528
3477, -289.81500167116, -1591.3244530285, -6280.5760265295
3478, -301.6957298217, -1589.1148280119, -6435.1560581426
3479, -113.18778673177, -1613.5348694512, -6451.1278692659
3480, -1549.6842547416, 463.44898382232, -7073.3260079323
3481, -1529.4992423968, 526.24929216829, -6929.1600677126
3482, -1468.6727562795, 677.7216131733, -6986.1257301832
3483, -1495.0843729524, 617.27543913031, -7130.2916704029
3484, -1204.2900314359, -1079.8109881753, -261.19264425831
3485, -1298.283811177, -964.76183363345, -234.60910393736
3486, -1314.8487068202, -942.06110639032, -375.74085576206
3487, -1222.8678652129, -1058.7258541424, -402.324396083
3488, 1553.7506052435, 449.62796477263, -2154.498324846
3489, 1512.8073099638, 572.46859557544, -2242.4890412707
3490, 1489.3415251799, 631.00560328311, -2148.9011633613
3491, 1535.0422636276, 509.85438987718, -2060.9104469366
3492, 1367.6511869091, -863.61824954436, 607.69828011303
3493, 1440.7631769088, -735.19230005739, 721.29188149072
3494, 1296.2558997431, -967.48482798502, 753.90639862232
3495, -322.92821903282, 1584.9364704468, -4655.9304914558
3496, -269.52357005706, 1594.8866088797, -4803.1945879377
3497, -394.72565157231, 1568.5974340126, -4847.2029527073
3498, -447.17689327922, 1554.4578077636, -4699.9388562254
3499, -700.1226145842, -1458.1270776403, -1639.7548179812
3500, -825.53393595957, -1390.9708733755, -1608.6641862862
3501, -854.22160257029, -1373.5398442354, -1739.1751058376
3502, -730.23091429713, -1443.2841237278, -1770.2657375325
3503, -1054.2608797206, 1226.7193026486, -4207.5983028067
3504, -1097.9248663931, 1187.7993255411, -4296.106280551
3505, -1161.1804198632, 1126.0400892181, -4240.3036726973
3506, -1119.7080431844, 1167.287517293, -4151.795694953
3507, 984.53184228616, 1283.3562644584, 303.33376534332
3508, 855.38062107733, 1372.8183576444, 386.52515102341
3509, 933.68358549435, 1320.8108161953, 491.21218487376
3510, 1057.4198343512, 1223.9973627098, 408.02079919367
3511, -1197.3229697167, 1087.5311288366, -776.03770537057
3512, -1218.4310894144, 1063.8289008804, -598.45824258623
3513, -1098.0088209951, 1187.721717835, -561.84197892853
3514, -1074.4929636255, 1209.0372703599, -739.42144171287
3515, 469.80269093591, 1547.7699058934, -6946.0373565949
3516, 303.00712908548, 1588.8652962801, -6957.6585757589
3517, 275.8381698675, 1593.8066237923, -6810.6897915978
3518, 443.31099649953, 1555.5647239452, -6799.0685724338
3519, 1131.953912374, -1155.4161978531, -4083.1510420065
3520, 986.77714826227, -1281.630644791, -4034.8115593688
3521, 949.85320026947, -1309.2307466363, -4183.2032182347
3522, 1098.5677909072, -1187.2047248817, -4231.5427008724
3523, 117.22721244234, 1613.246425895, -3038.581237861
3524, 260.85856804572, 1596.326738947, -2984.531957109
3525, 293.2601904272, 1590.693154166, -3115.8122781552
3526, 150.00252478167, 1610.5295689801, -3169.8615589072
3527, -1278.5614820886, -990.75061772339, -6119.0580063376
3528, -1200.5844309886, -1083.9295521701, -6019.3950491766
3529, -1274.9319172494, -995.41692590529, -5901.0870825794
3530, -1346.0550871227, -896.90688057966, -6000.7500397403
3531, -1569.9858716906, -389.16656163133, -4062.5172088032
3532, -1533.8747238271, -513.35619369427, -4189.1947207704
3533, -1490.1026382443, -629.20614864866, -4101.2889685498
3534, -1535.6095191905, -508.14334057576, -3974.6114565826
3535, -197.76005152275, -1605.3651335512, -2212.9083294104
3536, -308.64459252885, -1587.7798227408, -2104.6537658526
3537, -365.30996149387, -1575.7077400436, -2209.0414577076
3538, -255.12633746089, -1597.2528922916, -2317.2960212654
3539, -1462.7093184983, -690.49815320398, -3962.6076818679
3540, -1433.7796903122, -748.72027463421, -4151.207301333
3541, -1401.4754722441, -807.57213343344, -4012.5260146511
3542, 301.33041095116, -1589.1841408207, -6831.755542082
3543, 480.66597923827, -1544.4307904218, -6763.4302563593
3544, 446.86292364748, -1554.5480942928, -6652.2505522619
3545, 266.59381960825, -1595.3789472557, -6720.5758379846
3546, 594.27624279872, -1504.3742876176, -6952.8689765712
3547, 628.03995118246, -1490.5945356531, -6794.375990204
3548, 445.72603680521, -1554.8744483443, -6921.9232427264
3549, 627.27842590244, 1490.915164051, -2313.18206429
3550, 710.88236654115, 1452.9117354268, -2252.3113716785
3551, 752.99186466419, 1431.5409535705, -2341.8094179751
3552, 670.53292368256, 1471.9686981243, -2402.6801105866
3553, -1386.6849021103, 832.71317526458, -2114.4479758581
3554, -1441.9361199741, 732.8891293463, -2014.259581704
3555, -1402.8100972807, 805.25156377832, -1920.396527334
3556, -1342.5551255759, 902.13745337937, -2020.584921488
3557, -966.68081019747, 1296.8556053763, 470.19489267177
3558, -856.55830928807, 1372.0838577833, 420.08674229002
3559, -904.58279903662, 1340.9087253378, 293.0952427042
3560, -1011.973811444, 1261.8301212728, 343.20339308595
3561, 1040.4766208116, -1238.4323362802, -4378.8516787228
3562, 910.18834102787, -1337.1101053604, -4336.3739560022
3563, 871.87990390437, -1362.3992378036, -4482.3014415716
3564, 1004.9158056271, -1267.4582729229, -4524.7791642922
3565, -1459.2902397196, -697.69495215261, -312.02728447577
3566, -1391.4716389822, -824.68959488285, -348.6362985066
3567, -1376.1129702879, -850.07019886916, -196.36789739684
3568, -1446.2492206732, -724.34069449551, -159.75888336601
3569, 1596.9284954592, 257.14904314513, -252.65602539138
3570, 1558.3123111778, 433.55390764205, -219.19672721542
3571, 1572.2072595557, 380.09286102252, -86.610450983549
3572, 1604.7776203184, 202.47231742911, -120.06974915952
3573, 1333.8602126216, 914.94436070462, -5037.8043216328
3574, 1222.2270254967, 1059.4655955459, -5065.5193086572
3575, 1212.3631798701, 1070.7388897837, -4909.4063779261
3576, 1325.3299534604, 927.25765807611, -4881.6913909017
3577, -808.64820893313, 1400.8548547902, -7065.8627714911
3578, -928.78942162974, 1324.256946468, -7139.2619327041
3579, -968.46431634881, 1295.5242637477, -7045.5737843454
3580, -850.69771987467, 1375.7251322121, -6972.1746231324
3581, 1614.6619907465, 95.775287201526, -279.57027390461
3582, 1610.6753654914, 148.42882806015, -419.84232017603
3583, 1587.6838796256, 309.13774984153, -392.92807166281
3584, 221.42596631198, 1602.272383661, -6361.8410501711
3585, 260.68199970029, 1596.3555822661, -6221.6837133642
3586, 410.6320637833, 1564.5087274263, -6290.2450535056
3587, 372.11244664408, 1574.1151727407, -6430.4023903126
3588, -736.99838039002, 1439.8401429681, -5384.6931056871
3589, -856.00907922781, 1372.4265759156, -5347.7772663174
3590, -822.52544141393, 1392.7520052855, -5203.0207294092
3591, -701.91725140229, 1457.2640193815, -5239.936568779
3592, -634.68408585133, -1487.7776585119, -6549.7885548
3593, -583.89281111076, -1508.4347633004, -6732.606263894
3594, -450.17925705593, -1553.5909649958, -6695.395418991
3595, -502.57787918472, -1537.439990814, -6512.577709897
3596, -156.76985020699, 1609.8849226159, -6399.5207874942
3597, -252.75791042867, 1597.6293965484, -6302.7298839578
3598, -179.32573680817, 1607.5287027354, -6220.1583620819
3599, -82.877122453519, 1615.375384415, -6316.9492656182
3600, -1336.8709304911, -910.53960112, 618.27777472328
3601, -1383.3642385215, -838.21813007105, 493.61188865217
3602, -1305.4073727227, -955.10095866417, 379.42056080359
3603, -1252.8135775705, -1023.1150423364, 504.08644687471
3604, -1009.1071255054, -1264.1238306646, -4504.1871788459
3605, -890.08822521319, -1350.5736563908, -4509.5968161673
3606, -884.55308954229, -1354.2053322082, -4363.0779734227
3607, -1003.9248181877, -1268.2433557589, -4357.6683361014
3608, 1265.2349300131, -1007.713660657, 541.65814606916
3609, 1311.6915433981, -946.45208276904, 390.72004105039
3610, 1407.1447776363, -797.65269683681, 456.76017509426
3611, 311.25376492998, -1587.2704066469, 219.46841045621
3612, 105.38501942236, -1614.0632725149, 180.56732692128
3613, 129.05778319223, -1612.3431206159, 41.039428749551
3614, 334.51121660955, -1582.5323048717, 79.940512284479
3615, -1534.1201786677, 512.62220728783, -6128.9844918848
3616, -1572.8085756418, 377.59692052198, -6167.4991882896
3617, -1574.4441100764, 370.71821407327, -6029.7271852894
3618, -1536.3463085297, 505.91132648634, -5991.2124888847
3619, -1424.805803064, 765.65963296693, -5001.8803898059
3620, -1373.3862832527, 854.46847043844, -4909.293869221
3621, -1319.1023977755, 936.09567576337, -5009.5629020113
3622, -1375.8073113738, 850.56480762512, -5102.1494225962
3623, -8.6161815025884, 1617.4770512797, -6292.2671350938
3624, 53.501257439542, 1616.6149403777, -6401.9990533852
3625, -20.785616230241, 1617.3664421392, -6426.6811839095
3626, 400.75034045833, 1567.0690522828, 360.82435148757
3627, 494.15012273977, 1540.1694407422, 465.31776903401
3628, 630.40234908346, 1489.5969684012, 373.29284678976
3629, 539.79412173507, 1524.7716406532, 268.79942924332
3630, 753.8089721174, -1431.1108564871, -2046.9816641009
3631, 861.64662944408, -1368.8942018899, -2131.3443113978
3632, 917.62009968204, -1332.0208717057, -2018.9678963952
3633, 812.45266607771, -1398.6518206413, -1934.6052490983
3634, -1205.2930059458, 1078.6913459457, -4778.6250153571
3635, -1100.5517409398, 1185.3658150607, -4816.0908220823
3636, -1124.0135415395, 1163.1422133324, -4969.5897556607
3637, -1226.6027400303, 1054.3964947543, -4932.1239489354
3638, -1492.9377180654, 622.44937141723, -5065.2811249485
3639, -1527.0222932492, 533.39400626543, -4882.0286580756
3640, -1467.4476638731, 680.37019613842, -4818.627922933
3641, 1125.8245497269, 1161.3893977613, -4591.5090208347
3642, 1136.344942883, 1151.0979197203, -4447.6819154038
3643, 1232.6935006539, 1047.2692984355, -4451.5244811258
3644, 1223.1138123645, 1058.4417093081, -4595.3515865568
3645, 1225.178469122, 1056.0511203535, -4742.1389041882
3646, 1102.436270798, 1183.6133316371, -4904.0711482564
3647, 1116.6197763671, 1170.2420796681, -4736.8036745185
3648, -1308.8335279904, 950.40046612374, -235.23045854698
3649, -1311.7543839906, 946.36498565897, -70.349565674078
3650, -1220.9033955241, 1060.9906450095, -70.105833816873
3651, -1217.6299438817, 1064.7457770579, -234.98672668978
3652, -729.82144014009, 1443.4912246051, -4551.4140493611
3653, -839.53873403817, 1382.5631862774, -4505.1514113319
3654, -808.87712514492, 1400.722687193, -4406.5361495721
3655, -697.84421407831, 1459.2188673662, -4452.7987876013
3656, 474.45815453634, 1546.3491551373, -5040.0970027798
3657, 617.65897060978, 1494.9259667372, -5072.6624456158
3658, 590.18435187163, 1505.9842896942, -5225.9072825386
3659, 446.06601679561, 1554.7769482019, -5193.3418397026
3660, 375.89492989308, -1573.2162126296, -1391.0955890556
3661, 230.62112969965, -1600.9747482506, -1450.4603098241
3662, 302.07894443859, -1589.0420262935, -1555.4970974454
3663, 445.96404298025, -1554.8062009037, -1496.1323766769
3664, 1438.9639124307, -738.70772889021, -3937.589151566
3665, 1493.8469447095, -620.26410163907, -4044.2639342588
3666, 1525.9320118299, -536.50512138546, -3945.929140259
3667, 1477.6988023926, -657.80886236611, -3839.2543575661
3668, 1415.6284952677, -782.49742068971, -3743.6031018278
3669, 1508.8044139663, -582.93695233354, -3735.3531041604
3670, 1453.0600617018, -710.57913499279, -3639.7018484221
3671, -500.20553380335, -1538.2134682652, -247.88432135565
3672, -334.53919975158, -1582.5263896155, -297.55583521271
3673, -293.11900742868, -1590.7191761854, -121.91065791539
3674, -459.88552983966, -1550.745481839, -72.239144058337
3675, -403.17977791167, 1566.4457592534, 55.061918862716
3676, -408.51348549682, 1565.0632518104, -193.97183360088
3677, -533.91528123813, 1526.8401103129, -66.409914738164
3678, 882.98512686837, 1355.2282153679, -428.57590744135
3679, 726.1756475257, 1445.3287442449, -399.69287067588
3680, 759.35172732123, 1428.1775814703, -261.92536727215
3681, 914.03917244097, 1334.4806634955, -290.80840403761
3682, 266.82858255115, -1595.3396997297, -1943.7107331748
3683, 432.3889214026, -1558.6359647616, -1867.1941358477
3684, 392.29427966512, -1569.2072674258, -1741.6368722743
3685, 225.84751260481, -1601.6551286248, -1818.1534696013
3686, -82.455451556245, -1615.3969631359, -7180.7295333287
3687, -105.16505207048, -1614.0776195162, -6946.1967377186
3688, -187.3093073921, -1606.618023478, -7128.7622085473
3689, -1590.2558591544, 295.62231381454, -3917.6177086953
3690, -1558.7939628219, 431.81897997879, -3982.1177037511
3691, -1579.9509851344, 346.49839043328, -4118.2777554459
3692, -1603.9674122085, 208.79365549042, -4053.7777603901
3693, -1372.0142300265, 856.66983290225, -6648.4367271111
3694, -1289.8483933758, 976.01094876329, -6546.2784871099
3695, -1246.3491467965, 1030.9801425244, -6650.3578673181
3696, -1333.6085604639, 915.31112604259, -6752.5161073194
3697, -1214.5854225053, -1068.2174410847, -6457.5355016487
3698, -1138.9760431298, -1148.4945899639, -6574.0987212527
3699, -1045.3083629914, -1234.3567864521, -6475.5528175738
3700, -1126.9859427514, -1160.2624422262, -6358.9895979698
3701, 947.79473862224, 1310.7217032765, -162.21859735007
3702, 1067.4386838023, 1215.2698903217, -191.27152835124
3703, 1036.0798917982, 1242.1130012247, -319.86133503878
3704, 809.98556681279, -1400.0820088677, -4133.4934813129
3705, 767.66068909064, -1423.7286667146, -4286.6642190804
3706, -780.65952791496, -1416.6428454186, -6637.0167717939
3707, -712.22863740802, -1452.2522570325, -6412.1432864871
3708, -854.25130727578, -1373.5213700622, -6499.371503481
3709, -909.44931703915, 1337.6128699056, -6465.9744084925
3710, -1036.8490250116, 1241.4710424865, -6451.4519149943
3711, -1042.3495207346, 1236.856388844, -6284.451648197
3712, -915.37782755032, 1333.5627779858, -6298.9741416953
3713, -919.0524162769, 1331.0330221807, -6142.4679059264
3714, -791.23618036421, 1410.7627571221, -6161.2386937033
3715, -787.3421769468, 1412.9396825062, -6317.7449294721
3716, 485.66502031977, -1542.8660791001, -2913.037479375
3717, 449.02156539691, -1553.9259582775, -3084.0538577273
3718, 597.07548745283, -1503.265482968, -3125.3803303176
3719, 632.47875518906, -1488.7165190977, -2954.3639519654
3720, -521.51007486054, -1531.1216450103, -810.66611344146
3721, -367.77579183657, -1575.1340314205, -866.61319239063
3722, -321.26604899284, -1585.2742273072, -693.89645669546
3723, -476.22888226989, -1545.8047424212, -637.94937774629
3724, -1490.3863245239, 628.53389222221, -6323.467690659
3725, -1423.3132705197, 768.43059801284, -6340.8868596758
3726, -1436.8269466309, 742.85568950862, -6495.256405242
3727, 876.96472719956, 1359.131751247, -4973.179444423
3728, 761.32096371505, 1427.1288099566, -4958.3329531131
3729, 770.33813670083, 1422.281760111, -4835.158013188
3730, 885.54922471986, 1353.5541439477, -4850.0045044978
3731, 997.55149505132, 1273.2624492699, -4860.7137119059
3732, 1077.4041369, 1206.4437723287, -5013.0748866381
3733, 970.66470448625, 1293.8764552555, -4969.7174502876
3734, 686.27528252118, -1464.6953562432, -3690.7978509927
3735, 760.88213232582, -1427.3628237793, -3612.5835578691
3736, 688.09572062144, -1463.8410191214, -3525.9797337259
3737, 611.70486899145, -1497.3721659134, -3604.1940268494
3738, -1010.6695987318, 1262.8749788476, 668.1165868493
3739, -1124.2983079298, 1162.8669591945, 763.1458875164
3740, -930.9051567249, 1322.7705164476, 772.4706993329
3741, 602.2288621109, -1501.2083958067, -3263.2394172338
3742, 457.58705671661, -1551.4252594068, -3323.0106106684
3743, 521.34338184308, -1531.1784116191, -3477.576318277
3744, 663.78514848738, -1475.0239071444, -3417.8051248424
3745, 278.96636520599, -1593.2620679235, -3269.5001117169
3746, 337.86198541213, -1581.8203212797, -3404.8509205128
3747, 399.73630311726, -1567.3280250063, -3187.6598018725
3748, 528.17715784271, 1528.8345691844, -6502.4560743595
3749, 469.09205679968, 1547.9854302439, -6648.6846401896
3750, 311.40397307446, 1587.2409443917, -6576.6309561427
3751, 858.33973689194, 1370.9701477685, -6208.9950919665
3752, 976.25453653985, 1289.6640376026, -6223.978756458
3753, 973.55251401839, 1291.7049788742, -6350.5758621561
3754, 855.46776021142, 1372.7640588385, -6335.5921976646
3755, 627.27228493873, 1490.9177477473, -6841.4874513888
3756, 651.95399298887, 1480.2912689825, -6691.1035191446
3757, 79.135223562128, -1615.5630183907, -1933.2826126012
3758, 78.093441545121, -1615.6137113765, -2022.6957368268
3759, 265.7998021404, -1595.5114274684, -2033.1238574004
3760, -1528.4426241523, 529.31030093355, 218.06877343057
3761, -1483.0373392897, 645.68297195482, 130.71796015771
3762, -1508.5247643697, 583.66024816109, -3.18278183447
3763, -1549.0676999067, 465.50565099231, 84.168031438398
3764, -879.44776763462, -1357.5263805917, -6699.3287738063
3765, -821.95671203642, -1393.087726433, -6794.016156032
3766, -720.7846201049, -1448.0247861899, -6731.7041540196
3767, 1065.5223140956, -1216.9504707113, -7075.6687919055
3768, 1000.5362971842, -1270.9183168155, -6956.0573329406
3769, 922.77040669803, -1328.4581387919, -7016.0451477251
3770, 990.86643697386, -1278.4717259598, -7135.6566066899
3771, 607.49457473539, 1499.0852516342, -3931.5209264874
3772, 716.80865059377, 1449.9971063536, -3974.0381572993
3773, 680.50240974165, 1467.3863568726, -4070.5030168954
3774, 570.00059354849, 1513.7389383095, -4027.9857860835
3775, 652.47069562024, -1480.0635936867, -6259.4348310355
3776, 519.07039888874, -1531.9504466521, -6257.3333986326
3777, 506.7991002344, -1536.0536846092, -6421.3179950826
3778, 640.61019262595, -1485.2356146766, -6423.4194274856
3779, -1468.5923466589, -677.89583959098, -6630.2442940359
3780, -1467.9564438591, -679.27176367963, -6443.328024167
3781, -1526.9968978688, -533.46670364624, -6436.7599111092
3782, -1527.4961404409, -532.03551661349, -6623.6761809781
3783, 456.81131329812, -1551.6538512319, 544.88046761914
3784, 318.31769604871, -1585.8688767935, 675.84874773145
3785, 195.19624035313, -1605.6788837598, 600.59818463879
3786, 335.91418167215, -1582.2351002779, 469.62990452648
3787, 209.8997040198, -1603.8230464276, 780.90709465823
3788, 483.5228691718, -1543.5387539637, 762.44165307321
3789, -786.54350230302, -1413.3844377893, -1881.1879260221
3790, -700.06900373885, -1458.1528177815, -1951.1503408262
3791, -642.05927208666, -1484.6097605524, -1840.2281523366
3792, 1121.4913470979, -1165.5742826541, -7178.8450909597
3793, 1190.6966058462, -1094.7820983311, -7078.1734605012
3794, 1137.9754251122, -1149.4860511728, -6974.997161447
3795, 878.76062203236, 1357.9712880489, -7067.0017347716
3796, 981.47642841121, 1285.6944701107, -6976.3265259013
3797, 1055.3330860664, 1225.7970172314, -7084.6949268675
3798, 957.04206988758, 1303.9849410424, -7175.3701357378
3799, 392.27038935746, -1569.2132396948, -4284.6400995633
3800, 500.32645416886, -1538.1741413958, -4471.2354387164
3801, 596.28926227915, -1503.5775223415, -4391.3088715501
3802, 490.40461095526, -1541.3661367611, -4204.713532397
3803, 648.24135276448, -1481.9208476049, -4228.2707847761
3804, 717.6609444694, -1449.5754615691, -4449.7023058543
3805, 474.86664010822, -1546.223762627, -2017.4934843834
3806, 650.93785195766, -1480.7383843504, -1984.3941395069
3807, -954.12384692428, -1306.1217151286, 115.67750621964
3808, -1009.8902803907, -1263.4982673404, -44.251917130847
3809, -915.71738569686, -1333.3296364862, -95.096050041869
3810, -857.01005544005, -1371.8017403673, 64.833373308615
3811, -1135.0468715278, -1152.3779108586, 43.491887951604
3812, -1089.9979570479, -1195.0776977383, -96.940612763847
3813, -1057.6232637482, -1223.8215891128, 96.180583584604
3814, 1168.8714127361, -1118.0545024677, -3493.6994490879
3815, 1117.0744222256, -1169.8080975995, -3618.7006741161
3816, 1216.5896529002, -1065.9342692944, -3699.050424695
3817, 1263.5837020475, -1009.7833816814, -3574.0491996668
3818, 1566.0913958356, 404.55406300003, -3443.4596890661
3819, 1590.7206380429, 293.11107400518, -3359.7045660785
3820, 1601.3040294663, 228.32357568803, -3443.4267729179
3821, 677.80328001658, 1468.6350682177, -6554.9841468514
3822, 827.55743150417, 1389.7679473791, -6592.4190508547
3823, 803.06767156141, 1404.061453389, -6728.5384231479
3824, 921.46266777887, 1329.3655636768, -6880.5697595687
3825, 1067.4294691479, 1215.2779839998, -6785.0947516341
3826, 1122.0558575639, 1165.0308590361, -6880.8515179666
3827, 929.77577946894, 1323.5645998261, -6735.7165619201
3828, 794.25256995319, 1409.0667497045, -6873.3916207965
3829, -963.51656298801, 1299.2082523013, -6912.0192049422
3830, -924.75959065636, 1327.0742064742, -6791.8563600596
3831, -809.73199488256, 1400.2286764895, -6852.0117782498
3832, 244.32529299921, 1598.940712222, -6671.6228586718
3833, 95.376625553733, 1614.6855883725, -6561.6267748431
3834, 163.24994382626, 1609.2407233974, -6466.634872314
3835, 1258.2875423251, 1016.3752805088, -6159.2883178843
3836, 1360.3851098019, 875.01920152036, -6111.9245212864
3837, 1394.4784544397, 819.59507691505, -6284.4040493686
3838, 1298.1489880755, 964.94323913822, -6331.7678459666
3839, 1193.685624933, 1091.5222759194, -6346.1293788182
3840, 1092.3654313979, 1192.91408504, -6361.0752131311
3841, 1069.4343282957, 1213.5140985842, -6219.7610927469
3842, 1172.6682936092, 1114.071507204, -6204.8152584339
3843, -215.86554279869, -1603.0309783133, -697.87702652221
3844, -126.720266888, -1612.5285188051, -875.11603617465
3845, -89.615351213989, -1615.0155847009, -631.55005284756
3846, 1336.2899100752, -911.39208150566, 247.13837982444
3847, 1357.3992530573, -879.64397218395, 57.566242031482
3848, 1450.2431861409, -716.31065261659, 76.759477811633
3849, 1432.9576456899, -750.29236678697, 266.33161560459
3850, -1233.5587085704, -1046.2500477946, 102.13485152623
3851, -1289.4728689736, -976.50702515701, 165.13443985535
3852, -508.22158670209, 1535.5836248183, -448.74961316051
3853, -368.47349909964, 1574.9709617835, -396.2672611527
3854, -351.67861966964, 1578.8060040636, -522.2866348333
3855, -491.83826989519, 1540.909266072, -574.76898684112
3856, 1391.836110953, 824.07432325444, -3721.4630362137
3857, 1423.0871488267, 768.84928096762, -3884.7804761096
3858, 1347.1687698414, 895.2332408731, -3948.5526013359
3859, 1311.0190885181, 947.38334349994, -3785.23516144
3860, 1273.4138882007, 997.35817003606, -4228.8690560982
3861, 1232.6536781326, 1047.3161699249, -4341.3262393565
3862, 1162.458871698, 1124.720241487, -4276.4313234164
3863, 1206.3596961998, 1077.4982753511, -4163.9741401581
3864, 1550.826273747, -459.61300966796, 524.96137690504
3865, 1498.3902645753, -609.20675064041, 604.30111546795
3866, 1471.3427017252, -671.90542792859, 487.18233064666
3867, 1530.0457865753, -524.65811819061, 407.84259208376
3868, -1075.3140522676, -1208.3070549309, 496.22908421742
3869, -977.12383788885, -1289.0055296349, 411.31234457957
3870, -909.63983887173, -1337.4833133678, 549.75518117173
3871, -1011.8446315302, -1261.9337112715, 634.67192080958
3872, -261.98449634978, -1596.1423412943, -7221.5640471264
3873, -429.5139035198, -1559.4306835134, -7296.8892012977
3874, -208.94385388636, -1603.9478532431, -7309.6748458287
3875, 218.04709435267, -1602.7356970644, -7305.4668695383
3876, 445.10512157833, -1555.0523080414, -7306.9092286294
3877, 286.99412675431, -1591.8356137518, -7227.3760981678
3878, 607.22461051524, -1499.194624585, -6004.5363832963
3879, 521.93233791772, -1530.9777544549, -5837.7128891042
3880, 401.79236185312, -1566.8022044778, -5929.7145207969
3881, 489.29000791939, -1541.7203177458, -6096.538014989
3882, 861.62144327943, -1368.9100549273, -7115.2203366964
3883, 876.6991668037, -1359.3030644142, -7262.3970156929
3884, 1004.9366644798, -1267.4417345126, -7282.8332856863
3885, 256.15774932585, -1597.0878051818, -6537.6743774942
3886, 85.17641913335, -1615.2557777713, -6402.0969947796
3887, 171.70081257036, -1608.3609921167, -6617.9601952147
3888, -473.57480866125, 1546.6199114849, -7282.9682018739
3889, -342.65540713755, 1580.7888922811, -7183.1116617754
3890, -244.8255084819, 1598.8641969838, -7285.1434599015
3891, -427.89329392924, 1559.8761422018, -7104.3326453693
3892, -330.33115469765, 1583.4101105639, -7011.948997362
3893, -243.96040035667, 1598.9964268434, -7090.7280137681
3894, 668.32620805146, -1472.9719378289, -7287.7583928917
3895, 702.0931184178, -1457.1792968164, -7165.1554085846
3896, 478.20733014883, 1545.1938387762, -811.53462919619
3897, 339.44367319085, 1581.4816605736, -844.21760923256
3898, 301.75447610659, 1589.1036738204, -731.89991094019
3899, 441.34151791726, 1556.1246462165, -699.21693090382
3900, -548.88699836758, 1521.5220382969, 310.30545048244
3901, -355.04693475889, 1578.0519396136, 189.86780940563
3902, -595.19882602189, 1504.0095104427, 175.49955993952
3903, 1316.3620399314, -939.94533342514, -2839.2967082898
3904, 1311.8566863704, -946.22316840442, -2663.500161253
3905, 1221.9319346878, -1059.8059242098, -2665.3116424564
3906, 1226.9809250265, -1053.9563841171, -2841.1081894932
3907, -671.31882309708, 1471.610440217, 393.3533501361
3908, -596.22637062248, 1503.602462413, 524.72372251143
3909, -471.43256179104, 1547.2742451431, 441.67582285777
3910, -1187.3717208007, -1098.3872935549, 627.36521782139
3911, -1147.7438897691, -1139.7325183997, 372.95031327074
3912, -273.26598696775, -1594.2496512048, -3413.3844180826
3913, -420.51334429421, -1561.8818064343, -3528.8870392393
3914, -306.069794073, -1588.2781655479, -3642.407791544
3915, -156.86189537294, -1609.8759566439, -3526.9051703873
3916, -317.75515999162, -1585.9816859909, -1879.3797367327
3917, -410.34423961816, -1564.5842435012, -2007.1169903363
3918, -214.86885841496, -1603.1648772611, -1976.916512249
3919, -551.53164572306, 1520.5653862186, -7174.7706482833
3920, -606.39233306365, 1499.5314562895, -7035.4376638568
3921, -484.26325444265, 1543.3066287671, -6964.9996609428
3922, -1564.8846506051, 409.19711668177, 542.38720879579
3923, -1566.0623998208, 404.66629445455, 371.34874327307
3924, -1591.9402492125, 286.41315077561, 572.70889395197
3925, 527.93252955799, 1528.9190607205, 767.92657816849
3926, 438.58733449101, 1556.9031440729, 666.28375586011
3927, 285.96515798709, 1592.0207845432, 765.85717769162
3928, 1429.6574843659, 756.56178029064, -2789.8643722706
3929, 1399.628561556, 810.76885712062, -2667.9581573533
3930, 1459.7667949518, 696.69731903912, -2607.8345773342
3931, 1485.3821305229, 640.27039313354, -2729.7407922515
3932, 79.651099717352, 1615.5376666342, -6948.454839991
3933, -62.439368857696, 1616.294396209, -6900.4697642316
3934, -25.056635001266, 1617.3059126345, -6783.607880983
3935, 116.97836349225, 1613.2644893119, -6831.5929567424
3936, 1205.0084419395, -1079.0092237115, 651.24731998928
3937, 1131.585717573, -1155.7768010238, 764.84092136696
3938, -324.50562158292, -1584.6142595474, -6789.6628250514
3939, -197.14064994237, -1605.4413144492, -6664.9435359737
3940, -324.88756794815, -1584.5359946031, -6570.6761299133
3941, -441.07446330408, -1556.2003623637, -6925.8432091356
3942, -307.71332648706, -1587.9605658524, -7038.3021635105
3943, -189.15711322434, -1606.4015178394, -6902.1217794263
3944, -507.41643315468, -1535.8498668049, -7087.5723948084
3945, -584.22925505042, -1508.3044876759, -6861.3874636841
3946, -648.38515505768, -1481.8579353976, -7023.1166493569
3947, 41.561180839856, 1616.9659607571, 458.09576748712
3948, 171.53575122528, 1608.3786046984, 346.71222306275
3949, -32.82707277489, 1617.1668538815, 386.1098451297
3950, -1288.0895067689, -978.33106490178, 745.4522825973
3951, -1420.9306596138, -772.8274778821, 740.32549212598
3952, -1446.7631799953, 723.31359105848, 609.5490796419
3953, -1514.6575982084, 567.5549402389, 723.808855785
3954, -1421.1969620944, 772.3376495637, 753.24022385691
3955, -239.54354162651, 1599.6640715053, 349.37997774812
3956, -359.7214126777, 1576.9929471184, 402.02147646038
3957, 506.29448946425, 1536.2200818692, -4142.4329242046
3958, 377.81116745427, 1572.7571242079, -4077.0906880613
3959, 443.15500566904, 1555.6091703736, -3962.6435499401
3960, -419.63305336373, 1562.1185456055, -6829.4613654323
3961, -264.16569736749, 1595.7827967284, -6876.4107018515
3962, -501.49583594792, -1537.7932814676, -3431.4772731062
3963, -604.5030671094, -1500.2940684597, -3519.4358454002
3964, -525.33813274294, -1529.8124382702, -3616.8456115333
3965, -108.43555758649, 1613.8612021642, 556.01917066368
3966, -35.577686956227, 1617.1086785343, 658.06844115376
3967, 114.4065361469, 1613.4489128841, 560.14503797721
3968, -1518.5621001512, 557.02369607084, 518.90761040717
3969, -1562.0055180493, 420.05358180054, 747.28845417362
3970, 812.32776383941, 1398.7243667341, -7277.5681410915
3971, 689.96961562519, 1462.9587073852, -7240.198095672
3972, 759.63864486314, 1428.0249925091, -7029.6316893521
3973, 590.71111495947, 1505.7777487609, -6997.7275199444
3974, -1290.666003475, 974.9294935911, 757.55396816627
3975, -1339.5809724656, 906.54788522613, 643.29419202317
3976, -1019.3420592375, 1255.8853515626, -5016.9706548519
3977, -1055.7547770274, 1225.4338418633, -5153.930236593
3978, -1157.6598103196, 1129.6592466628, -5106.5493374017
3979, 314.00872414809, -1586.7276928191, -7142.5283727948
3980, 119.06062098968, -1613.1121531157, -7091.6738316654
3981, 91.625734447914, -1614.9027756453, -7176.5215570383
3982, -539.04054239834, 1525.0382105544, 776.98100867908
3983, -647.55261579836, 1482.2219333732, 686.75661727061
3984, -725.0846288843, 1445.8763885463, 777.27560859152
3985, -543.28974748192, 1523.529619102, 615.03902213122
3986, -423.27527571417, 1561.1355773824, 740.95304088235
3987, -427.62555806847, 1559.9495607508, 579.01105433449
3988, 85.112369308955, 1615.259154003, -6692.5260238163
3989, -554.37503383584, -1519.5310368201, -7253.3575940164
3990, -381.38811847699, -1571.8935565376, -7131.1040020896
3991, 496.55409162949, -1539.3960777155, -7209.6676215211
3992, 95.734923397753, -1614.6643844595, -6842.8890802699
3993, 541.45688405284, -1524.1819749334, -7093.7057988061
3994, 360.37710982675, -1576.8432353005, -7026.5665500798
3995, 1196.7296195255, 1088.1840229255, -1464.4631444164
3996, 1205.9388842654, 1077.9692284183, -1598.711563619
3997, 1106.776048682, 1179.5562843985, -1617.0112742414
3998, 1096.7066021716, 1188.9242527399, -1482.7628550388
3999, 214.32711759763, -1603.2373924851, -6936.3988494353
4000, -1387.4614494513, 831.41865283766, 555.69198158764
4001, -1406.0866267169, 799.51650900271, 424.46789653214
4002, -1462.904107526, 690.0853731122, 478.3249945864
4003, -202.19540749584, 1604.812533347, 761.15932569766
4004, -248.88004092588, 1598.2380846509, 634.61236658001
4005, -84.313424270804, -1615.3010544439, -6696.1984792077
4006, -1284.6958300069, -982.78322857218, -6974.9694405322
4007, -1213.8699892074, -1069.0303547148, -6875.6300666017
4008, -1293.1577711301, -971.62195784466, -6766.0468073053
4009, -1357.0780781442, -880.13938658626, -6865.3861812358
4010, -729.30867547132, 1443.7503613445, 204.45057766043
4011, -883.43637389921, 1354.934102926, 181.12690418221
4012, -751.86734545525, 1432.1318880739, 316.41891618243
4013, 1163.2465053002, -1123.9056089845, -2409.0200978081
4014, 1165.7166095207, -1121.3434069399, -2246.1550509223
4015, 1079.9991512766, -1204.1212909179, -2236.2534709094
4016, 1077.3471190681, -1206.4946891867, -2399.1185177952
4017, -315.12100082306, 1586.50717138, 539.3567079371
4018, -694.10550066236, 1461.0009595994, -7276.8024464093
4019, 590.07778652487, -1506.0260475337, 650.85858264347
4020, 721.78353014721, -1447.5271277625, 755.91692957026
4021, -124.22736959238, 1612.722484076, -7180.5046203713
4022, -147.40430590107, 1610.7694498599, -6984.8887504212
4023, -27.062710908991, 1617.2735883821, -7074.6653570244
4024, 914.24569691697, -1334.3391831423, -1606.63924646
4025, 907.23002594934, -1339.1190873167, -1418.1355268366
4026, 755.98357924935, -1429.9633134823, -1431.9785913997
4027, -179.82760884302, 1607.4726377447, -6791.9917156619
4028, 1344.5710422062, -899.1301143108, -3660.6275394322
4029, 1386.8584788013, -832.42405646213, -3553.8364042227
4030, 1311.3691382553, -946.89874497309, -3467.2580644573
4031, -1554.0217442908, -448.68994670195, -4418.3529055766
4032, -1500.3507636796, -604.36233827557, -4336.2996194377
4033, -1578.1193926223, -354.74699805538, -4271.2480069093
4034, 752.47838381778, -1431.8109274227, -7024.3185863496
4035, 1301.5279998978, -960.38071382241, -3765.0711563147
4036, 1377.9059684925, -847.16078284626, -3848.0467187104
4037, 816.58991501806, -1396.2403663735, -6925.1433973783
4038, -777.71443673946, -1418.2617899693, -6946.8969312777
4039, -836.64332160781, -1384.3172332992, -7068.3291223526
4040, -710.10159520525, -1453.2934922055, -7144.5488404318
4041, -1341.4877029003, -903.72395838953, -4146.4413028239
4042, -1431.093958037, -753.84105305425, -4293.7289334195
4043, -1338.2484437835, -908.51381536603, -4288.9629349104
4044, -5.617859403271, 1617.4902440682, -7280.3611604699
4045, -1207.8555341981, -1075.821201923, -5831.5986067182
4046, -1108.699643974, -1177.7484236677, -5884.2683326099
4047, -1070.0047536501, -1213.0111611878, -5762.3539982442
4048, -1172.4072658157, -1114.3461998241, -5709.6842723525
4049, -1592.0471715401, -285.81821773856, 571.88745727295
4050, -1567.0211567653, -400.93758148856, 370.40518953475
4051, -1566.0056154282, -404.88598697328, 540.62223122437
4052, -175.44760591377, 1607.9565875916, 460.76351202076
4053, 203.18336951993, -1604.6877479281, -4758.445819626
4054, 100.10138443255, -1614.3995672803, -4582.2107890119
4055, 103.48542731498, -1614.1861777173, -4853.3834681141
4056, -665.95942426068, 1474.0435187736, -6935.8142486112
4057, -751.89772134548, 1432.1159403608, -7165.4861867367
4058, 831.64557447035, -1387.3254443222, -4770.8595264941
4059, 965.42036250579, -1297.7941954174, -4794.8429649388
4060, 985.12713167173, -1282.8993664525, -4669.3128805112
4061, 852.73522673777, -1374.4631253986, -4645.3294420665
4062, -1404.2649511945, -802.71177694522, -6545.3318422649
4063, -1429.8506806495, -756.19658888821, -6739.4200658046
4064, -1358.8782808742, -877.35743444067, -6654.5076140336
4065, -1466.8851894066, -681.58205015937, -598.86282341275
4066, -1411.1060293685, -790.62381944881, -608.7107820174
4067, -1405.9779115415, -799.70767300152, -488.45703492445
4068, -1462.4591275716, -691.02789392514, -478.60907631979
4069, -1061.132809448, 1220.7798371177, 193.27505721398
4070, -1202.4136217267, 1081.9000565145, 268.70736381148
4071, -1158.6417319013, 1128.6521107484, 418.63569968345
4072, -1316.2992866294, 940.0332111255, 428.74803192682
4073, -1309.9566211431, 948.85188555612, 289.39822516889
4074, -1400.6856046618, 808.94133711493, 285.1180897742
4075, 1403.0844674874, 804.77340108613, -7154.252472738
4076, 1443.4372368432, 729.9282110553, -7292.4545640194
4077, 1332.8269859363, 916.44883957583, -7246.7979087186
4078, -1075.855974921, 1207.8245614438, -7049.2417412041
4079, -1071.2418989028, 1211.9187448155, -6915.6871618009
4080, 40.102917976724, 1617.0027847749, 764.4091154561
4081, 200.0316788971, 1605.083666803, 662.76629314772
4082, -1593.8093017066, -275.82269629848, 673.48207429563
4083, -1562.1623851565, -419.46982299327, 746.46701877752
4084, -1600.60743885, -233.15676421262, 794.5150555181
4085, -1600.5757137385, 233.37445145208, 793.65321012938
4086, -1593.668505259, 276.63503998131, 673.441664303
4087, 1615.7747073377, -74.688319887733, -1173.9655380282
4088, 1616.3893505328, 59.93093929084, -1316.1782706598
4089, 1608.6257364576, 169.20251182057, -1207.7179127584
4090, 1617.1245160882, 34.850386891956, -1065.5051801268
4091, 1616.0639907316, 68.142702182934, -4366.6228668712
4092, 1603.0166806302, 215.97169171326, -4442.7533218638
4093, 1593.3134352978, 278.67283129075, -4308.1609307774
4094, 1612.1482820485, 131.46926138052, -4232.0304757849
4095, -1613.9665708336, -106.85578239643, 668.26505225144
4096, -1617.5, 2.515460556255e-05, 741.24999673334
4097, -1613.952019737, 107.07533790151, 667.40320686271
4098, 172.8106399771, -1608.2421250268, -4248.9483227218
4099, 288.45572715015, -1591.5714069668, -4396.4057895687
4100, 277.96844706383, -1593.4364726706, -4137.1826327163
4101, 84.787664297617, 1615.2762308605, -6176.7492423535
4102, 273.14601610366, 1594.270210437, -6089.660771716
4103, 1422.979136119, -769.0491714904, -1932.6605935676
4104, 1340.4949637737, -905.19583632354, -1918.8381123103
4105, 1333.5849926937, -915.34546334274, -2070.4864819906
4106, 1417.1002788801, -779.8288591723, -2084.3089632479
4107, 1306.0432691181, 954.23122417538, -1717.4177913746
4108, 1394.4476330085, 819.6475149703, -1687.163328244
4109, 1403.1827911226, 804.60195419694, -1821.5582888532
4110, 1316.231072145, 940.12872242047, -1851.8127519839
4111, 697.31180255609, -1459.4733639282, -4612.7303063492
4112, 77.418572489207, -1615.6461910436, -4084.8329418543
4113, 297.2826579222, -1589.9463108227, -4036.0300314131
4114, 97.017039197699, -1614.5878558026, -3983.680340551
4115, -1446.3453018654, -724.14882294439, -742.65568053438
4116, -1384.9003942895, -835.67765789014, -800.75604320683
4117, -1344.5412458374, -899.17467059625, -666.81114468985
4118, -608.11212329776, 1498.8348459715, -6737.3442766507
4119, -754.64740517914, 1430.6689148284, -6653.5418062893
4120, -356.34153002723, -1577.7601097689, -2498.4898828469
4121, -204.12623825944, -1604.5680817136, -2450.6875232488
4122, -406.41060673295, -1565.6106376539, -2365.0983808634
4123, 493.37654382616, -1540.4174226495, -3901.5605104656
4124, 297.32357191419, -1589.9386603213, -3896.0798220325
4125, 493.33690409933, -1540.4301181987, -4041.5107198461
4126, 921.29847313592, -1329.4793617794, -1288.2644805451
4127, 1037.6940752035, -1240.7647868503, -1445.8981924986
4128, -1590.5338190856, 294.12313806468, -7120.0313983973
4129, -1574.5483526849, 370.27521528893, -7016.5713478827
4130, -1570.179431047, 388.38486623058, -7176.7860584469
4131, -1112.7284713564, -1173.9427579882, -712.30295681097
4132, -1050.7745476813, -1229.7069162793, -883.25934467559
4133, -947.10765873201, -1311.218262827, -811.5987294363
4134, -1013.3983429301, -1260.6863402712, -640.64234157169
4135, -1259.1047747137, 1015.3627018426, -6253.3610935019
4136, -1157.4798537252, 1129.8436344115, -6275.5935143963
4137, -1165.5882839932, 1121.4767952204, -6447.6567987356
4138, -1266.3859425631, 1006.2668107806, -6425.4243778412
4139, 1111.4326716471, -1175.1696330298, -2058.6223342338
4140, 1009.6198507079, -1263.714369253, -2034.3961579159
4141, 975.88269118653, -1289.9454341338, -2212.0272945915
4142, -850.88753197281, -1375.6077413032, -868.47432050802
4143, -782.23699816225, -1415.7724141634, -711.36512920009
4144, -881.50604147322, -1356.1907494325, -654.48953812837
4145, -99.653745302092, -1614.4272609961, -1789.7562065509
4146, -115.69011326638, -1613.3573837474, -2027.5118681981
4147, -82.431384976859, -1615.3981913976, -2283.6386487122
4148, 365.15564333066, 1575.7435089962, -3449.5784574333
4149, 464.01873479423, 1549.5137507489, -3594.4415112389
4150, 349.51585738867, 1579.2862044081, -3655.7184398363
4151, 248.99996329263, 1598.2194055511, -3510.8553860307
4152, 771.0785497912, -1421.8804872604, -2991.7511300447
4153, 792.88639087818, -1409.8359554076, -2825.6222478835
4154, 655.3324208615, -1478.7987246978, -2788.2350698042
4155, 1036.5168985308, -1241.7483517445, -3078.8407768787
4156, 1033.2218159681, -1244.4914338828, -2866.5061803186
4157, 913.86344917384, -1334.6010063926, -2859.1446253062
4158, 917.39780005328, -1332.173985055, -3071.4792218664
4159, -424.4432197143, -1560.8184401905, -466.01875758251
4160, -323.58195276641, -1584.8031328351, -502.67710112606
4161, -232.47194538718, -1600.7070452172, -334.21417875625
4162, 392.39673503588, -1569.1816505214, -6498.7555155808
4163, 338.36380461791, -1581.7130541677, -6295.5259313798
4164, 201.24810998221, -1604.9316023521, -6334.4447932932
4165, 1608.2652060512, -172.59570390072, -2479.744827402
4166, 1592.2720440559, -284.56280100898, -2386.3472630789
4167, 1576.8377535851, -360.40109443314, -2476.7292455765
4168, 1598.168392428, -249.32717349749, -2570.1268098995
4169, 1083.763111622, 1200.7346783897, -5703.5213128906
4170, 1017.4519915588, 1257.4170727619, -5552.1388016019
4171, 1114.6214867953, 1172.1455503368, -5491.5935396042
4172, 1176.1940632129, 1110.3484928898, -5642.9760508929
4173, -1194.4244420342, 1090.7137581746, -5238.0222360483
4174, -1283.5008170973, 984.34338648181, -5178.3409940902
4175, -1250.2089224805, 1026.2962048796, -5046.8680954436
4176, 195.38005978725, -1605.6565268567, -4488.4355448794
4177, 95.637120688859, -1614.6701802989, -4325.4825683675
4178, -141.83825168202, -1611.269114816, -1717.2359260885
4179, -359.12120270522, -1577.1297384069, -1806.8594562703
4180, -1297.5249314421, 965.78222301205, -4894.8187555031
4181, 1000.0441272312, -1271.3056255639, -2431.6470392294
4182, 1031.2241666835, -1246.1472497454, -2581.3769752198
4183, 1106.898253315, -1179.4416080537, -2548.8484537856
4184, 1242.4685267971, -1035.6535182766, -6793.3262268967
4185, 1200.4721444571, -1084.053910275, -6909.1980332794
4186, 1260.5001645629, -1013.6299054078, -6961.6523374254
4187, 1299.6600049749, -962.90711985568, -6845.7805310427
4188, 569.63022969204, -1513.8783476294, -4623.5975051445
4189, 384.1567314661, -1571.2192258464, -4562.8994612915
4190, 455.08019793386, -1552.1624475062, -4715.2615277196
4191, 292.10294985068, -1590.9060678395, -4654.9292166022
4192, -964.32327207843, -1298.6095937301, -6594.9005250118
4193, -940.24653884348, -1316.1469128455, -6380.023796043
4194, 1025.3060371357, 1251.0210950312, -2568.7213640915
4195, 1123.3345742789, 1163.7979567905, -2476.5665970489
4196, 1169.5735670433, 1117.319972646, -2580.2838228524
4197, 1075.1601836036, 1208.4439703989, -2672.438589895
4198, -1054.8817864301, -1226.1854128386, -6682.7008510887
4199, -974.4453698279, -1291.0315531469, -6787.1290998832
4200, 112.01636150956, 1613.6166164099, -6297.2052312423
4201, 1520.0084081218, 553.06481468187, -5984.7275018333
4202, 1482.7461835451, 646.35130167915, -6127.08703656
4203, 1426.6031509118, 762.30551605539, -6024.5616994391
4204, 1471.1713898932, 672.28044115515, -5882.2021647124
4205, -1293.8750497016, -970.66657805842, -5181.9441191085
4206, -1196.5827705706, -1088.345498072, -5153.5658668502
4207, -1218.297826238, -1063.9815113919, -5010.3261322019
4208, -1313.1959920603, -944.36356157825, -5038.7043844602
4209, 1537.5145225908, 502.34982116299, -3467.8834195624
4210, 1529.8128076645, 525.3370570458, -3363.897364836
4211, 1559.8521953167, 427.98058222979, -3339.4736343397
4212, 1509.6435911604, 580.76025834097, -3631.5765132926
4213, 1494.4924086906, 618.7072735682, -3508.1763403418
4214, 1508.7878122359, 582.97992045042, -3120.0777773931
4215, 1456.9636030087, 702.54061057553, -3181.3086295093
4216, 1427.3145375655, 760.97270703638, -3088.7842280619
4217, 1483.9385565112, 643.60905097691, -3027.5533759457
4218, -1254.985769804, -1020.4493949185, -528.7606664299
4219, -1157.2734879268, -1130.0550093432, -588.20500376216
4220, -1121.8167637326, -1165.2610860268, -461.76873341526
4221, 307.75463787589, -1587.9525600174, -1122.2790989209
4222, 94.238569602513, -1614.7524088848, -1140.4036519058
4223, 130.60014162262, -1612.2189221716, -1275.114717945
4224, 343.45811156121, -1580.6146828379, -1256.9901649602
4225, 100.60230003005, -1614.368429829, -1499.915904379
4226, 742.23202826863, -1437.1492150129, -3262.7177709371
4227, 737.29758210373, -1439.6869539674, -3124.8586840209
4228, -814.59367745977, -1397.4059505536, 262.61155903001
4229, -718.65118293199, -1449.084789538, 23.960464762926
4230, -673.93275464847, -1470.4152108204, 221.73865048432
4231, 916.56217718747, -1332.7490481517, -1759.2892963088
4232, 1041.5264253783, -1237.5495768811, -1751.0940057204
4233, 1039.3751260755, -1239.3569289336, -1598.4439558716
4234, 854.97873614304, -1373.0686839132, -1181.5785349548
4235, 771.15965424233, -1421.836501736, -992.53709382497
4236, 626.867713212, -1491.0878981912, -1075.4738757232
4237, 715.09607360353, -1450.842464059, -1264.515316853
4238, -702.93203410165, -1456.7747957161, -5565.8693398552
4239, -755.31469711926, -1430.3167335649, -5755.1450231231
4240, -651.72602785609, -1480.3916490628, -5785.3443984709
4241, -597.59504888749, -1503.0590166541, -5596.068715203
4242, 962.44918009231, -1299.9991637458, -1080.5933942634
4243, 184.63702605846, -1606.9273221301, -2557.421659921
4244, 68.958392128834, -1616.029390251, -2481.2340843845
4245, 115.96150617437, -1613.3378998479, -2690.2110130366
4246, 581.91067527143, -1509.2005221325, 400.02716726852
4247, 428.72113014169, -1559.6488202701, 302.00396058086
4248, 518.32243240473, -1532.2036764301, 172.31581188683
4249, 668.3333764965, -1472.9686852954, 270.33901857449
4250, -1336.8120601113, -910.6260296856, -4903.0091255915
4251, -1247.1148448302, -1030.0537917042, -4858.40508714
4252, -1274.9959557079, -995.33489988467, -4717.3095758559
4253, -1361.3717664299, -873.48335048103, -4761.9136143074
4254, -391.8524878828, 1569.3176471766, -5638.8845894517
4255, -543.86079649836, 1523.3258627202, -5604.826432745
4256, -518.08956887266, 1532.2824310894, -5489.3516427034
4257, -365.32714343791, 1575.7037565061, -5523.4097994102
4258, -1172.7066948617, -1114.0310847667, -960.67258212929
4259, -1131.9487210755, -1155.4212837124, -1118.3577595544
4260, -1005.9416100289, -1266.6442780878, -1040.9445221007
4261, 918.72413278525, 1331.2596357728, -4262.949880291
4262, 932.05176503414, 1321.9628426309, -4105.277613306
4263, 1065.2718634992, 1217.1697116002, -4100.9413901256
4264, 1052.9902728833, 1227.8101380967, -4258.6136571107
4265, 1132.7028864444, 1154.6819566619, -3928.4722137016
4266, 1149.8133142867, 1137.6447566306, -4075.520925125
4267, 1046.9837383447, 1232.9360492912, -3953.8926787022
4268, 406.56578856041, 1565.5703464144, -5878.4173544922
4269, 444.0247352762, 1555.3611427777, -6060.8518256666
4270, 347.87619133574, 1579.6481904214, 562.34565739443
4271, 263.39432197406, 1595.9102985919, 459.72440222392
4272, -917.43476740178, -1332.1485268402, -6139.9215593255
4273, -779.5699062925, -1417.242749568, -6011.5373338644
4274, -882.03676004844, -1355.8456416286, -5865.4630682608
4275, -1013.2457061219, -1260.8090216307, -5993.8472937219
4276, -1112.1829297824, -1174.459612205, -6128.9740102886
4277, -1205.1445094111, -1078.8572479417, -6238.628062853
4278, -1027.5845629772, -1249.1501975066, -6249.3355454053
4279, -1405.230286052, -801.02065713819, -5873.6225116306
4280, -1464.4999487774, -686.69217996931, -5968.1782933617
4281, -1413.1402977637, -786.98205115255, -6095.3058214714
4282, -1472.8038848122, 668.69646842353, 318.51641896343
4283, -1413.1114978522, 787.03376334055, 97.319630968473
4284, 1575.1212954202, -367.83033414053, -3722.2811845477
4285, 1536.9081361889, -504.20197432808, -3622.8249239751
4286, 1554.0125346172, -448.72184285221, -3834.809364733
4287, 412.93964123052, -1563.9012445485, -3573.1428638501
4288, 505.44489877719, -1536.4998224211, -3699.7605724226
4289, -1439.8063101832, 737.06447421959, -7240.3774834338
4290, -1376.3539901946, 849.67990659744, -7126.4315866972
4291, -1307.2568659258, 952.56796948552, -7271.0541032633
4292, -253.43262801416, 1597.5225047109, -991.93024737509
4293, -137.36138420851, 1611.6569424441, -977.14791455656
4294, -116.1121918032, 1613.3270619793, -1114.8818595519
4295, -232.35961135703, 1600.7233555521, -1129.6641923704
4296, 1532.7787192557, 516.61944194619, -6955.3697891312
4297, 1566.7963780974, 401.81508132602, -6824.9694197334
4298, 1585.4054136238, 320.61803513263, -6910.7954699333
4299, 1557.3433989281, 437.02149582726, -7041.1958393311
4300, -1012.2731076752, -1261.5900306667, -1932.0871753034
4301, -932.31927740754, -1321.7741921275, -1809.1323399771
4302, -1037.7867791815, -1240.6872494533, -1687.5628601766
4303, -1112.5243566964, -1174.1361955741, -1810.5176955029
4304, -1615.2658819081, 84.984591212746, -4273.6313744421
4305, -1609.0206150607, 165.40529105748, -4175.6481629407
4306, -1597.068974628, 256.27512614508, -4242.5250892249
4307, -1356.697204707, -880.72637336479, -6443.1764105794
4308, -1291.3353073144, -974.04279889706, -6557.7181803939
4309, -1286.766886582, -980.07001259914, -6342.9937318341
4310, 562.52188124826, 1516.5340032841, -5839.208694073
4311, 680.98839913165, 1467.1608808335, -5755.1305492387
4312, 746.38654852145, 1434.9959477944, -5845.0518728239
4313, 630.26433394569, 1489.6553693241, -5929.1300176582
4314, 364.83428966305, 1575.8179435094, -5752.3768092342
4315, 522.03795533854, 1530.9417438903, -5713.168148815
4316, 1607.2354238927, 181.93554403848, -812.86977933765
4317, 1604.8111762402, 202.20617847761, -700.13809508735
4318, 1614.8591042643, 92.392225725914, -674.42056555965
4319, 1615.8965755451, 72.00352173113, -787.15224980995
4320, 721.9560082234, 1447.4411118212, 476.02519925908
4321, 582.33518709717, 1509.0367722055, 569.25586749968
4322, 670.68070648887, 1471.9013689591, 671.16641125347
4323, 806.4086788156, 1402.1452466599, 577.93574301287
4324, -28.147858005195, 1617.2550658723, -6535.9773526307
4325, -164.09662622606, 1609.1546063885, -6508.8169562154
4326, 311.08951902234, -1587.3026054141, -4911.7170795591
4327, 398.87537354106, -1567.5473474133, -4808.2004765353
4328, -553.47374007692, -1519.8595556976, -420.2136782778
4329, -603.82257124967, -1500.5680765795, -592.14429844158
4330, 357.50664795781, 1577.4965124101, -5020.4325297421
4331, 369.64167685319, 1574.6972028721, -4879.3876279968
4332, 486.3499040029, 1542.6503235913, -4899.0521010345
4333, 307.65314164677, -1587.972227224, -6134.7305477363
4334, 1398.95078032, -811.93778347973, -4032.5700039637
4335, 1347.971040595, -894.02478920731, -4118.0851693562
4336, 1404.9781975676, -801.46273423023, -4216.2125187377
4337, 1450.3290343442, -716.13681803001, -4130.6973533453
4338, 469.87518002314, 1547.7479010479, -4574.1311170746
4339, 337.76508350367, 1581.8410155151, -4511.9859721233
4340, 395.70090518888, 1568.3516964102, -4394.6062703861
4341, 526.46806058441, 1529.4239540378, -4456.7514153373
4342, 106.25615810682, 1614.0061582486, -2277.8706060227
4343, 225.41999663169, 1601.7153539623, -2225.6177524763
4344, 290.43429779973, 1591.2115411414, -2358.2554059324
4345, 171.86955406585, 1608.342969141, -2410.5082594789
4346, -545.01951315737, 1522.9116784232, -5906.4811180185
4347, -646.81423421182, 1482.5442982997, -5815.0009957769
4348, -588.79947056632, 1506.5262803751, -5720.6396335211
4349, -485.51502638548, 1542.9132863366, -5812.1197557627
4350, 540.82662660121, -1524.4057235392, -1320.690453166
4351, 583.87208682998, -1508.4427851996, -1488.1537277128
4352, -489.87678726117, -1541.5339708559, -5645.8740367645
4353, -429.91296376365, -1559.320715436, -5474.0004971286
4354, -539.03818115862, -1525.0390451569, -5424.1951755671
4355, -525.68218906023, -1529.694245954, -1915.889483738
4356, -590.48834125679, -1505.8651230571, -2054.3511606702
4357, -476.74453564163, -1545.6457866328, -2145.5786672685
4358, -338.58369552966, -1581.6659985981, -5185.2662733969
4359, -328.91072196947, -1583.7057766434, -5407.2703934176
4360, -202.91625149633, -1604.7215474588, -5344.835912512
4361, -212.7200200437, -1603.4514158753, -5122.8317924914
4362, -1321.0438104034, 933.35389911595, -1771.7112301727
4363, -1268.2080915137, 1003.9693653789, -1841.1222147169
4364, -1304.7454984594, 956.00493421845, -1913.2515342811
4365, -1354.9126264461, 883.46931168936, -1843.8405497368
4366, -1478.2259207046, -656.6234669558, -6213.0547386342
4367, -1427.2574262737, -761.07981785522, -6341.1725924815
4368, -1352.978771357, -886.4280536272, -6223.4236753186
4369, 1615.0044735977, -89.815367612473, -2628.8297357876
4370, 1617.4498473518, 12.737397759077, -2590.9682049409
4371, 1615.9714249978, -70.303652754514, -2441.8832965552
4372, -848.16474143408, -1377.2882128981, -2987.576094826
4373, -963.9949671571, -1298.8533224717, -2903.8857477578
4374, -1028.9924329677, -1247.9907142664, -3024.6505300503
4375, -917.31382652309, -1332.2318092845, -3108.3408771185
4376, 1161.2997457509, -1125.9170264806, -4446.2164135337
4377, 1213.8662690373, -1069.0345789045, -4298.9074356833
4378, 1360.7441481407, -874.46075572368, -4299.9082740907
4379, 1276.1575461585, -993.84514255635, -4192.7966338409
4380, 1305.5021156044, -954.97145305634, -4406.0190759331
4381, 1572.6642555552, -378.19755326951, -5497.6986128596
4382, 1590.6651426191, -293.41208914535, -5347.4587760089
4383, 1565.5691256046, -406.57048952632, -5273.5223980507
4384, 1541.5427445502, -489.84917752789, -5423.7622349014
4385, 1412.7122944695, -787.7501019071, -2234.7702636777
4386, 1481.6760686276, -648.80064554244, -2253.6572507161
4387, 1485.285080681, -640.49549499298, -2103.1959502863
4388, 1438.5404861024, 739.5319599884, -3505.0281952491
4389, 1457.3582120503, 701.7216626054, -3682.2910409246
4390, 1369.846270458, 860.13222548187, -3544.2001905382
4391, 1523.0016558371, 544.76802982327, -3239.642388819
4392, 1492.9841713301, 622.3379420843, -3390.351984872
4393, 1484.941244329, 641.29225076463, -3266.097008855
4394, 474.68622131575, -1546.2791602078, -194.01866695203
4395, 487.12555761681, -1542.4055695946, 23.477151869209
4396, 321.75362425803, -1585.1753389694, -137.55530653676
4397, -1526.3955992712, -535.18475737411, -3823.6566418003
4398, -1480.7691007255, -650.86797458197, -3816.2861719249
4399, -1482.6185416785, -646.64403644604, -3712.6574413075
4400, -1527.9150716059, -530.83121984257, -3720.0279111829
4401, 1595.4200705736, -266.3476082321, -6837.8556296709
4402, 1581.3175443448, -340.20739843109, -6659.8522587499
4403, 1543.3108819785, -484.24969960406, -6739.2028432429
4404, 1564.1488829673, -412.00063338818, -6917.206214164
4405, 1564.6280221526, -410.17728154394, -7157.652866823
4406, 1589.9491519506, -297.26746241659, -7051.5715487775
4407, 1530.6911360161, -522.77231766972, -7023.2875322095
4408, -1557.6554963373, -435.90779383969, -1318.0953404019
4409, -1591.7852344557, -287.27341918221, -1417.2336942399
4410, -1573.3274564198, -375.42904106572, -1542.7072361299
4411, -1530.9774334243, -521.93327959189, -1443.5688822918
4412, 1073.047451782, -1210.3203775134, -3760.3408673004
4413, 1011.1794648838, -1262.4667677992, -3557.2957910487
4414, 963.79815962105, -1298.999367787, -3698.9359842331
4415, -1477.5974421127, -658.03651043227, 454.63163711549
4416, -1416.9533525036, -780.09579336702, 357.68224447986
4417, -1449.0207513143, -718.78029484718, 590.5612812878
4418, -1484.4753798811, 642.36990630548, -4696.6326974965
4419, -1406.9009114516, 798.08274969251, -4661.715687598
4420, -1385.8905637194, 834.0345288976, -4783.7109130346
4421, 1315.1365813544, -941.65918589661, -5421.7684827248
4422, 1403.773815007, -803.57036176098, -5538.586902722
4423, 1449.1031596526, -718.61414033193, -5419.1935462968
4424, 1368.8400390697, -861.73267167937, -5302.3751262996
4425, 471.62961160954, 1547.2141931397, -7270.6472881308
4426, 545.31337913458, 1522.8064777039, -7125.8453838028
4427, -707.94563706027, -1454.3449470354, -2553.3816386428
4428, -588.02037151488, -1506.8305454441, -2698.5410976116
4429, -472.03168063096, -1547.0915753376, -2578.5747808967
4430, -595.59254889095, -1503.8536383922, -2433.415321928
4431, 454.47667039832, 1552.3392689949, -1450.5891188933
4432, 347.34071805643, 1579.766019251, -1358.5009921622
4433, 419.97166074522, 1562.0275459066, -1279.1263327049
4434, 525.72575393226, 1529.6792741135, -1371.2144594359
4435, -956.91943356985, -1304.0749394327, -5478.1133290136
4436, -959.58705893467, -1302.1132540317, -5323.0003032291
4437, -1076.1392280439, -1207.5721973717, -5305.2479258426
4438, -1073.6648977071, -1209.772680065, -5460.3609516271
4439, -1604.0587070087, 208.09112059296, -4927.2051682681
4440, -1597.0680651613, 256.28079374354, -5026.5578866658
4441, -1611.5789158242, 138.27381556437, -5071.2492551148
4442, -1615.0108396807, 89.700823372815, -4971.8965367171
4443, -886.63095633587, 1352.8458142992, -5845.2750201292
4444, -765.8384745473, 1424.7096830242, -5886.3693274726
4445, -787.1373190049, 1413.053817457, -6021.4156373803
4446, -906.83750415419, 1339.38493013, -5980.3213300368
4447, 1480.1452429725, 652.28545109172, -951.5062887417
4448, 1445.5444636914, 725.7461357053, -1095.6744030978
4449, 1380.2768399774, 843.29241371063, -1018.1347357271
4450, 1420.8590468823, 772.95913145048, -873.96662137106
4451, -500.05210905304, 1538.2633513907, -292.73909475358
4452, -672.5098060668, 1471.0665555113, -4833.9142528272
4453, -565.98083426657, 1515.2464965288, -4772.5113849044
4454, -506.89204025846, 1536.0230172503, -4895.328100238
4455, -615.05161745673, 1496.0005875212, -4956.7309681608
4456, -824.93041682926, 1391.3288818212, -4783.8298309547
4457, -714.12314188839, 1451.3216005488, -4729.8538063143
4458, -784.98034068387, 1414.253200364, -4887.8902774676
4459, -746.8085844427, 1434.7763547685, -4324.7096651669
4460, -656.70706750938, 1478.1887827619, -4283.3758589832
4461, -606.32567249324, 1499.5584112917, -4411.4649814176
4462, 1586.8525236772, 313.37727757342, 622.51384416525
4463, 1551.9267915856, 455.88319069558, 732.40382273565
4464, 1600.5542188333, 233.52182462264, 757.61002142959
4465, -659.45957837885, 1476.9628683499, -5549.7282809435
4466, -774.07934475812, 1420.2490690083, -5503.5452151004
4467, -620.94680248881, 1493.5632957725, -5430.8761715302
4468, 932.80559879865, -1321.4310291687, -2695.6920712546
4469, 812.91390483393, -1398.383793287, -2662.1696938319
4470, -1537.0986243939, -503.62095755282, -1793.5278104307
4471, -1486.5661485273, -637.51653786593, -1730.1522650705
4472, -1508.7532818505, -583.06927933588, -1601.4834568847
4473, -1554.3862233016, -447.42565729966, -1664.8590022449
4474, -39.556567319495, 1617.0162423371, -2193.8068872144
4475, 72.727395116025, 1615.8641576567, -2173.1498599805
4476, -5.9796904560678, 1617.4889468871, -2298.5276332566
4477, -1240.418690964, 1038.1077598723, -1011.7518093971
4478, -1208.3057583768, 1075.3155091756, -1144.1277226439
4479, -1288.0362427913, 978.40118931655, -1203.4101429164
4480, -1317.1678700926, 938.81577106252, -1071.0342296695
4481, -1409.0973507989, -794.19827875129, -2234.1210837433
4482, -1353.1078941204, -886.2309387903, -2283.8783316322
4483, -1327.5261955259, -924.11062659866, -2160.1563820364
4484, -1386.0937801217, -833.69675704527, -2110.3991341476
4485, 1600.5273393673, -233.70598181869, 540.00177179774
4486, 1576.4667525442, -362.02048025321, 641.27477601645
4487, 1582.8407982466, -333.04843102196, 423.68837268633
4488, -1498.059446587, -610.01979024564, -4851.2212261997
4489, -1481.6281671903, -648.91002780683, -4990.574892623
4490, -1415.8510817462, -782.09460061949, -4945.8260266006
4491, -1435.7807677343, -744.87571916676, -4806.4723601773
4492, 729.76835520011, 1443.5180628411, -86.346434572576
4493, 835.78904931765, 1384.8331722777, -146.86413066113
4494, -752.76087555984, 1431.6624302629, -6481.1389878167
4495, -676.96388618055, 1469.0221736949, -6302.8359957081
4496, -641.05183773824, 1485.0450469034, -6466.2300540526
4497, 1213.8321921247, -1069.0732712783, -512.50279053773
4498, 1100.1925929335, -1185.699164398, -503.52983741052
4499, 1093.9882528847, -1191.4260163982, -645.2356284055
4500, 1208.2350910825, -1075.3949110336, -654.20858153272
4501, -1032.8235411664, -1244.8219884033, -1396.3090111785
4502, -1130.4095279286, -1156.9272013261, -1543.9013823645
4503, -933.71078274261, -1320.7915899907, -1539.9704889906
4504, 591.07555436325, 1505.6347296188, -4640.2539089157
4505, 676.97245902001, 1469.0182230757, -4531.0330867379
4506, 767.71814978524, 1423.6976829687, -4597.2659993582
4507, 684.28523289269, 1465.6261358358, -4706.4868215359
4508, -771.23998094957, -1421.7929321054, -150.84458315424
4509, -637.10409673053, -1486.7429569126, -201.16031871826
4510, -582.22657343675, -1509.078681575, -26.355270801092
4511, 939.25687466808, -1316.8533606248, -6844.8491533875
4512, 1090.3668785408, -1194.7411101076, -6880.4047466819
4513, 1032.5925543681, -1245.0136009954, -6769.1965671288
4514, 1155.4686724252, -1131.900347665, -6814.6056185143
4515, 116.45430947266, -1613.3024030867, -6156.8399860137
4516, 295.58745818786, -1590.2623382832, -5997.8592634867
4517, 104.20181560969, -1614.140090458, -6019.9687017641
4518, -35.89282706478, 1617.1017144773, -6171.8111462051
4519, -1562.632873748, -417.71372000706, -1154.9386439856
4520, -1526.56998788, -534.68712543329, -1095.4027802871
4521, -1537.5885654879, -502.12314553374, -979.31916726591
4522, -1571.1573452153, -384.40973787873, -1038.8550309644
4523, -361.39919439147, -1576.6092960189, -3869.224911495
4524, -490.82779100795, -1541.2314328401, -4009.7903717933
4525, -392.83991272453, -1569.0707609826, -4144.3556364689
4526, -261.4410834186, -1596.231439955, -4003.7901761707
4527, 809.00435163388, 1400.6492098443, -1857.0227473133
4528, 909.47859527464, 1337.5929630262, -1943.9308238178
4529, 839.0415805278, 1382.8649522442, -2053.5539858629
4530, 735.43889043136, 1440.6373202306, -1966.6459093585
4531, 613.49228560745, 1496.6407269282, -3454.1206945501
4532, 577.78626964354, 1510.784324982, -3608.2548436975
4533, 500.67632930583, 1538.06029247, -3440.3073620915
4534, -1058.8851590261, -1222.729925206, -3501.7828207518
4535, -972.8713638345, -1292.2180773503, -3419.5429339653
4536, -1036.1268272531, -1242.0738495945, -3333.3050113074
4537, -1118.5668538201, -1168.3811208398, -3415.5448980939
4538, 1479.3964799218, 653.9818844547, -4170.4249155473
4539, 1423.5248767448, 768.03852461243, -4232.7842250241
4540, 1392.5572453505, 822.85513209916, -4092.7534570563
4541, 1452.8251944266, 711.05921303319, -4030.3941475794
4542, 1346.3422891179, 896.4757054894, -6985.5474775968
4543, 1277.2230151394, 992.47550075471, -7136.8335314311
4544, 1198.4949764449, 1086.2394033713, -7088.9136312218
4545, 1274.6775108888, 995.74268424845, -6937.6275773875
4546, 1166.7253499255, 1120.2938042502, -7275.0356227125
4547, 54.955737652838, 1616.566149868, -2002.1895346668
4548, 150.74250294507, 1610.4604769462, -2111.866933374
4549, -23.242528023101, 1617.3330006189, -2063.4724612733
4550, -1523.4825836859, -543.42162931339, -5172.4861489341
4551, -1569.8422726581, -389.74541559288, -5228.6925275772
4552, -1556.3297913253, -440.6175559749, -5363.9857138093
4553, -1504.9944325846, -592.7039799845, -5307.7793351662
4554, -1466.9799710514, 681.37802616027, -1500.7362845272
4555, -1486.7558171314, 637.07408535098, -1369.8491625323
4556, -1428.5987870347, 758.55899947394, -1309.3056212432
4557, -1405.2055479697, 801.06405359064, -1440.1927432382
4558, -1488.3053864462, 633.4455988284, -1697.1326595632
4559, -1515.331449082, 565.75334680675, -1571.7449693461
4560, -1434.7940330965, 746.77461967491, -1626.1239747443
4561, -214.45356950652, -1603.2204828176, -4267.03510625
4562, -480.20781933902, -1544.5733068539, -4279.9219902336
4563, -1235.2227637829, -1044.2849102772, 278.84515954274
4564, -1354.771376356, -883.6858988388, 265.70984111619
4565, -1172.1756739747, -1114.589807661, 150.99488216885
4566, -1079.2757937783, -1204.769692084, 245.10003589684
4567, 1522.9626988415, -544.87692916601, -2575.701957756
4568, 1566.2196282384, -404.05733023996, -2622.9215823734
4569, 1537.5086510527, -502.36779150162, -2429.5096209592
4570, -589.67270875252, -1506.1846986849, -3854.7866873377
4571, -695.26833982639, -1460.4479400633, -3943.3572270084
4572, -599.16535194551, -1502.4337359857, -4098.360911464
4573, 724.0101115537, -1446.4147428618, -2433.5848567678
4574, 678.04736291286, -1468.5223946699, -2597.5194184832
4575, 856.59826431488, -1372.0589140313, -2498.2351321165
4576, 542.10092623324, -1523.9530293868, -2568.5148110828
4577, 518.5477782548, -1532.1274267067, -2759.2304624038
4578, -1217.2355977452, 1065.1965779056, -6968.8234137184
4579, -1276.0844033216, 993.93905527414, -6860.7683685887
4580, -1218.270857453, 1064.0123908492, -6783.1012775524
4581, -1155.5143815404, 1131.8536849139, -6891.1563226821
4582, -1458.7721927366, -698.77746078309, -7074.7225254269
4583, -1395.9265475145, -817.12625948758, -7179.8828923695
4584, -1343.0361062894, -901.42124847542, -7075.8545043236
4585, -1413.0405824228, -787.16107781452, -6970.694137381
4586, 1484.9936542562, 641.17087957807, -7130.9185239665
4587, 1407.1032508311, 797.72595012349, -7002.1681606459
4588, 1488.1908404358, 633.71466169176, -6978.8342118744
4589, 611.38207176446, -1497.5039940932, -2342.7550829345
4590, 519.22600028442, -1531.897715459, -2220.1193813316
4591, 449.23456919976, -1553.8643930009, -2308.6340206557
4592, 542.85530370408, -1523.6844716805, -2431.2697222585
4593, -220.06866529165, -1602.4593700175, -942.20002797682
4594, -93.850336836078, -1614.7750197089, -1133.7636793022
4595, -616.35753645831, 1495.4630176808, -297.98076719752
4596, -764.66696218475, 1425.338797249, -332.79971671942
4597, -790.72726401295, 1411.0480657818, -187.09051775983
4598, -643.73134883904, 1483.8855078886, -152.27156823793
4599, -192.40982972462, -1606.0151641331, -1179.3110152381
4600, -98.901714045139, -1614.4735058089, -1370.1176484359
4601, -1255.8219034746, 1019.4202257918, -7162.1319717535
4602, -1173.5225100476, 1113.1716706832, -7276.0778684901
4603, 938.59191248886, -1317.3273973506, -2567.6662279284
4604, 920.73994945625, -1329.8662321735, -2362.2159434175
4605, -1606.7558340753, 186.12345275332, -7177.8267738423
4606, -1611.7588677836, 136.16020755358, -7075.9881731745
4607, -1598.8969702443, 244.61138269416, -7018.1927977296
4608, 129.7424539928, -1612.2881707784, -3528.8399253736
4609, 109.11831914625, -1613.8151822395, -3743.6626210341
4610, 238.21361187591, -1599.8626582045, -3626.9166089077
4611, 314.9804535496, -1586.5350812011, -3705.3176263369
4612, 205.71788793341, -1604.3647966046, -3823.8663990851
4613, 405.38477158723, -1565.8765714338, -3777.5310492843
4614, 149.54342022914, -1610.5722633481, -3218.2464247514
4615, 239.69136546111, -1599.6419284713, -3120.6374989644
4616, 90.772389397316, -1614.9509662287, -3032.1957617131
4617, 622.00371603365, 1493.1234467519, -6167.8029991006
4618, 462.53544618275, 1549.9571642547, -6193.8417402866
4619, 604.15921685832, 1500.4325678567, -6034.8130844806
4620, 1580.3998656757, -344.44522724573, -5825.9528789833
4621, 1590.5657397927, -293.95046759253, -5987.265923418
4622, 1612.3977856938, -128.37301386848, -5925.9508391862
4623, 1607.49284775, -179.64686034759, -5764.6377947515
4624, 446.15988286077, -1554.7500149303, -1654.4565833405
4625, 247.11676442889, -1598.5116686275, -1642.6773863792
4626, 113.35150945372, -1613.5233761259, -5778.4607573947
4627, 217.06168843533, -1602.8694498972, -5831.8278966589
4628, -312.47614466659, -1587.0302167931, -6036.8604301777
4629, -230.02424684046, -1601.0606159248, -5846.6093746126
4630, -364.49466452072, -1575.8965351621, -5795.7018328714
4631, -445.46605641084, -1554.948951762, -5985.9528884365
4632, -1521.7979071269, -548.1216834465, 511.89100160866
4633, -1534.3921372523, -511.80759972711, 399.44909351359
4634, -1492.815829795, -622.7416384934, 342.18972902042
4635, -471.60630188062, -1547.2212983366, -1373.7591875925
4636, -404.15732809183, -1566.193827133, -1226.96647203
4637, -516.96013286767, -1532.6638480193, -1185.3901926775
4638, -582.85116894451, -1508.8375541655, -1332.18290824
4639, -293.55026520678, -1590.639648631, -1301.5780945953
4640, -304.34102469839, -1588.6103331798, -1104.6993926727
4641, -624.29786857998, 1492.1656815805, -453.99128560446
4642, 1163.2450766417, -1123.9070876495, -7281.0118052733
4643, 1253.1199433284, -1022.7397800186, -7170.5137738631
4644, 1313.4605669246, -943.99554508171, -7274.5019685897
4645, 560.04084292974, -1517.4519775764, -6574.8130317637
4646, -742.05998453129, -1437.2380559105, -4096.19432151
4647, -805.47062065975, -1402.6843298668, -3903.2609511993
4648, -850.33976886956, -1375.9464115578, -4056.098045701
4649, 310.31843973833, 1587.4535319052, 247.81217232639
4650, -1614.7312451155, -94.60050765101, -400.02630401837
4651, -1615.6045352067, 78.283049375923, -432.09877933592
4652, -1616.7474108494, 49.336188664046, -598.41250804508
4653, -1612.7780417121, -123.50400062803, -566.34003272754
4654, -93.569453090084, -1614.7913200932, -3711.9182870249
4655, -63.47079709153, -1616.2542213144, -3460.5728208625
4656, -1259.4848695672, -1014.8911830001, -7180.5563438971
4657, -1194.2846729513, -1090.8667975302, -7079.6712801057
4658, 516.06128822851, 1532.9667304909, -905.21760933403
4659, 582.8014772408, 1508.8567487094, -773.08337770984
4660, 619.73022223743, 1494.0685063428, -866.76635784768
4661, 235.37291409035, -1600.2830503735, -5027.9554278732
4662, 354.1387665349, -1578.2559944563, -5155.0105560135
4663, 428.67557056604, -1559.6613431126, -5038.7722076995
4664, -733.51007652607, -1441.6203444856, -545.88535562091
4665, -654.63477658994, -1479.1076902238, -757.62407202076
4666, 1529.1194446205, 527.35185036501, -7223.4639599471
4667, 578.29949378636, 1510.5879469552, -5351.4335401836
4668, 645.18579533853, 1483.2537003134, -5479.0289476288
4669, 548.65539462558, 1521.6055691106, -5549.184092187
4670, 480.15260214685, 1544.5904727958, -5421.5886847418
4671, -204.22126681657, -1604.5559897304, -6111.4544869375
4672, -103.50113399262, -1614.1851706859, -6039.3988367847
4673, 368.43943304537, 1574.9789313439, -5565.3342860647
4674, 388.3096023077, 1570.1980457113, -5328.7543986771
4675, -1331.4633462131, -918.42888003967, -515.56159217991
4676, -1269.5396138824, -1002.285098554, -680.01021893985
4677, -1229.8494075332, -1050.6077692413, -804.10817198866
4678, 1133.5389221346, -1153.8612403603, -2855.2383710583
4679, 1142.823263144, -1144.6664314187, -2987.9634901954
4680, 1235.4551476104, -1044.0099751645, -2973.8333086303
4681, -1262.546689238, 1011.0796741574, 516.35024236235
4682, 1344.3427783384, 899.47136937733, -309.31267225109
4683, 1327.1961457901, 924.58457731018, -155.04436943019
4684, 1414.7349929273, 784.11169471375, -148.14286139847
4685, 1429.2254211841, 757.37767688331, -302.41116421938
4686, -339.91731428657, -1581.379925713, -5652.2737247601
4687, -237.68445613507, -1599.9413580853, -5585.5436210491
4688, -612.33932588694, 1497.1128213907, 50.601777259593
4689, -745.75212505365, 1435.3257532623, 79.552794980497
4690, -513.81565240838, -1533.720875955, -5789.3021448758
4691, -876.32206461165, -1359.5462070392, -6880.4277335
4692, -1048.1481353757, -1231.9463203843, -6880.8203866862
4693, -954.19173003068, -1306.0721237133, -6974.119020303
4694, -1562.3872249413, -418.63159142628, -60.735264047215
4695, -1560.1055539105, -427.05609778758, 177.1555447977
4696, -1594.2599421608, -273.20594214167, -69.561259157343
4697, -1140.6548804704, -1146.8272292106, -6777.8595035016
4698, -1127.1837889556, -1160.0702374924, -6978.5909497863
4699, -1218.9207115768, -1063.2678631883, -6669.2573736656
4700, 1565.6399489185, 406.29767455712, -7286.0571384983
4701, 1489.8234556535, 629.86690735789, -322.44667008096
4702, 1485.1035151849, 640.91637456489, -434.47595675917
4703, 1423.559965252, 767.97348608636, -414.44045089758
4704, -771.7350832444, -1421.5242563142, -7276.1912464154
4705, 861.0191905091, -1369.288940865, -3979.1211311466
4706, 705.17142187835, -1455.6921088493, -3910.695622059
4707, 651.0602372258, -1480.6845773167, -4065.0679722253
4708, -216.71174335393, -1602.9168008017, 100.41738465679
4709, -333.11018479236, -1582.8278032646, 193.65155158938
4710, -402.45229710523, -1566.6328218682, 85.152099601491
4711, -287.05082619805, -1591.8253902922, -8.0820673311
4712, -526.24509831215, -1529.5006853553, 131.03597285874
4713, 1486.7966691119, -636.97873961202, -3534.9199819342
4714, -1191.9285006595, 1093.4407616856, 653.19985568267
4715, -839.83694334217, 1382.3820595616, 59.249812368052
4716, -929.49921004507, 1323.7588407733, 26.396422139111
4717, -971.18615400002, 1293.4851001379, 148.27351395327
4718, 337.14910750552, -1581.9724173664, -3494.7418464209
4719, 130.46901468264, -1612.2295389329, -3438.9489994655
4720, -899.78473847737, -1344.1330568077, -1184.3293697706
4721, -898.6172918111, -1344.913831016, -1030.4425948358
4722, -1007.041054974, -1265.7703439395, -1194.8312970355
4723, -761.54740859819, -1427.0079868233, -1082.670806318
4724, -711.02231464188, -1452.8432531011, -920.7025319902
4725, -997.21495401817, -1273.5260442891, -490.02075049568
4726, -962.57726961972, -1299.9043234067, -275.72373395948
4727, -1090.0478475496, -1195.0321920569, -247.47171687906
4728, -821.33885446828, -1393.4520932349, -331.47226707186
4729, -1045.6009196797, 1234.1089768594, -6769.3012452331
4730, -1032.9925255394, 1244.6817634157, -6615.8221121387
4731, -911.21173661837, 1336.4128931767, -6638.3772269651
4732, -688.49668000045, -1463.6524763851, -373.48967564041
4733, -864.1136837144, -1367.3382140559, -503.86794705237
4734, -814.44579883822, -1397.4921433607, 409.32694507771
4735, -717.25921845826, -1449.7742802025, 497.13033749664
4736, -816.32352964548, -1396.396127518, 637.55857359067
4737, 885.69374181164, -1353.4595840718, -3204.5867758425
4738, 987.57744252573, 1281.014069015, -7282.8019946463
4739, 457.04920432485, 1551.5837956185, -5620.211095299
4740, 612.29924789771, 1497.1292132024, -5642.141145703
4741, 423.20065590051, 1561.1558073573, -7074.1552204533
4742, -899.54421345558, 1344.2940370464, -7273.6837403274
4743, -234.58520258773, -1600.398710549, -3112.8252562276
4744, -374.66632352263, -1573.5092614974, -2981.2995129561
4745, -490.10443917221, -1541.461607924, -3063.814430036
4746, -352.39782541242, -1578.6456292166, -3195.3401733076
4747, 1036.6347991183, -1241.6499278206, -3363.0174983706
4748, 915.45971719937, -1333.5065639828, -3325.8334649414
4749, 888.16209875266, -1351.8410913785, -3520.1117576196
4750, -244.30788451243, -1598.9433722196, 337.73536202384
4751, -357.15901184758, -1577.5752566062, 438.27370983945
4752, -444.5938105052, -1555.198570492, 294.18989940498
4753, -125.65238799093, -1612.6120821178, 407.82125730034
4754, -119.35875940631, -1613.0901204065, 152.6875422235
4755, 290.07664851156, -1591.2767791897, -3017.0315548192
4756, -95.168141921293, -1614.6978896262, 659.59423678011
4757, -220.31526504509, -1602.4254846913, 586.75143158046
4758, -1595.6326403032, -265.07117383647, -5446.7671222384
4759, -1580.3160897032, -344.82938770528, -5587.9236992977
4760, -1532.2512807016, -518.18168897443, -5505.1422908687
4761, -582.52765328458, -1508.9624856698, -1688.5933870547
4762, -523.6884147052, -1530.3779579906, -1534.4689922073
4763, -643.16279433427, -1484.1320257929, -1485.6304231338
4764, 1221.1261465143, 1060.734266581, 720.22567372052
4765, 1317.836533824, 937.87692162611, 678.16487722375
4766, 1281.811754938, 986.54187691293, 579.04405893848
4767, 1180.5710005439, 1105.6936115737, 621.10485543526
4768, -1558.7443304366, -431.99810454632, -4750.2995995891
4769, -1546.5338639609, -473.85573503155, -4893.9607470602
4770, -1513.9577079975, -569.41927293958, -4707.5600787286
4771, -103.99444641719, -1614.1534639291, -201.215935651
4772, -97.838275984584, -1614.5382998716, -87.387345066712
4773, 1318.0217973444, -937.61654834209, -7053.9926507872
4774, 415.11169147277, -1563.3261123651, -2574.8806807504
4775, 415.88557643268, -1563.1204167675, -2437.6355919262
4776, -665.20224291321, 1474.3853722902, -6180.7155625795
4777, -660.91921245593, 1476.3102806005, -6040.8925062565
4778, 1510.132759613, 579.48709937645, -4756.2522698164
4779, 1555.541813525, 443.39138058313, -4801.880893076
4780, 1541.4008905328, 490.29536471875, -4908.1149277438
4781, 1491.8912004792, 624.9535150174, -4862.4863044842
4782, 773.8871958848, -1420.3537791852, -3383.964460036
4783, -595.20042544861, -1504.0088774824, 384.89257703057
4784, -1193.2368702381, -1092.0128302837, -3780.9226338887
4785, -1266.7393823928, -1005.8218465986, -3668.3212060812
4786, -1335.9896112894, -911.83222608475, -3763.5630119051
4787, -1268.8954964633, -1003.1004282, -3876.1644397125
4788, -240.369518425, 1599.5401666142, -6093.0735267339
4789, 240.8432950685, -1599.4688984849, -2850.9556870587
4790, 179.70455394378, -1607.4863991001, -2982.6595384033
4791, 350.51735941175, -1579.0642262907, -2885.3277034746
4792, 1350.9744138884, 889.47983845551, 523.12428528971
4793, 1297.7200305435, 965.52005278304, 395.20818749609
4794, 1223.1028487881, 1058.4543784625, 451.12796114486
4795, 885.04702761995, -1353.8825683571, -6740.9643275883
4796, 974.44284357639, -1291.0334599083, -6620.5809522027
4797, 887.38743444851, -1352.3497296125, -6536.7518850322
4798, 794.05015080249, -1409.1808287124, -6657.1352604179
4799, -1122.5296639587, -1164.5743443562, 749.41293522409
4800, -934.14394961204, -1320.485263607, 752.75898558549
4801, 1547.0683009408, -472.10795611206, -3306.3828477083
4802, 1499.2269076919, -607.14489971715, -3214.1293853054
4803, 1517.3859138959, -560.21981249345, -3420.8570306095
4804, -566.25029604332, 1515.1458188012, -5309.5291784168
4805, -462.05371093301, 1550.1008413045, -5368.0046495901
4806, -127.10364068557, -1612.4983455881, -5773.8121003278
4807, -1597.6159771103, 252.84271728091, -6912.7133558066
4808, -1572.6204933516, 378.37948397152, -6911.0919059597
4809, -334.60275740026, -1582.5129524715, -1402.7418573372
4810, -140.63595022182, -1611.3745000791, -1471.2814111778
4811, -699.99430290084, -1458.1886798033, -1283.7353066187
4812, -758.17039865628, -1428.8050589921, -1437.1828215125
4813, -869.5750474934, -1363.8715066959, -1368.4891242169
4814, 219.00258221557, -1602.6054158722, -2158.8299521069
4815, 357.56772116719, -1577.4826701994, -2235.203298625
4816, 403.57054350938, -1566.3451300437, -2109.4972039185
4817, 298.71860995303, -1589.6771502628, -2562.1488551521
4818, 267.31506608277, -1595.258256661, -2718.788860905
4819, 384.20511159724, -1571.2073963111, -2731.5206865034
4820, -1604.7301928404, -202.84786956364, -7053.1382454445
4821, -1607.3355943134, -181.04843896946, -7239.5838930183
4822, -1588.3849957982, -305.51490163837, -7281.9127149147
4823, -1584.0919766532, -327.0456535455, -7095.4670673409
4824, -450.4000118588, -1553.5269805567, -1029.1125570865
4825, -579.99598919235, -1509.9373836424, -973.7445734109
4826, -644.55627959271, -1483.5273682806, -1130.0222090018
4827, 759.25968024785, -1428.2265184311, -6821.2585715791
4828, 664.39907461413, -1474.7474765708, -6630.2526790428
4829, -1593.379051369, -278.29741044135, -3163.4858996853
4830, -1602.4149403192, -220.39194413963, -3306.2931237879
4831, -1578.9563901429, -351.00280344584, -3342.7114002009
4832, -1565.2043049827, -407.97271191063, -3199.9041760983
4833, 1170.1884472549, 1116.6759816129, -630.33360762629
4834, 1236.6826973241, 1042.5555889923, -806.83049986917
4835, 1121.7412735268, 1165.3337570269, -875.11249144116
4836, 1047.9100029344, 1232.1488853828, -698.61559919828
4837, -373.0276429492, 1573.8985442511, -5317.0948501799
4838, -1077.1853803878, 1206.6390952885, -7250.5781923767
4839, -1172.2959726038, 1114.4632800666, -7074.7414173175
4840, 1382.0789486246, -840.33566493911, -7157.2350101772
4841, 1439.9779995383, -736.72899416661, -7267.7330415875
4842, 417.75543750499, 1562.621721478, -2814.6778693767
4843, 314.22244201048, 1586.6853837283, -2809.4888248216
4844, 324.79964853623, 1584.5540187418, -2701.345566374
4845, 428.16982064652, 1559.8002611513, -2706.5346109291
4846, 961.06667913546, 1301.021555646, -6619.5984618267
4847, 1096.0995750925, 1189.4839097197, -6668.9766515407
4848, 1215.289237077, -1067.4166572828, -2367.4036804486
4849, 1272.2482786942, -998.84461622397, -2329.6512120957
4850, 1225.7217913831, -1055.4204565616, -2208.4025825693
4851, 1253.8314839924, -1021.867339604, -2474.4086695969
4852, 1318.9303678673, -936.33804510844, -2505.9250949656
4853, 1335.7774478746, -912.14300400185, -2361.1676374644
4854, 1203.9076224451, -1080.2373288396, -2516.0250869563
4855, 1504.0854400567, 595.00692349703, -184.7862270127
4856, 1427.835753812, 759.99428296283, 4.2246394116755
4857, 1513.9647008133, 569.40068026956, -32.418726202555
4858, -1533.4416206469, -514.64846844018, -2116.0054671426
4859, -1561.5695426176, -421.67145216268, -2234.9988088332
4860, -1525.245855724, -538.4527180697, -2325.7734835643
4861, -1490.1733262728, -629.03871714321, -2206.7801418736
4862, -1095.2389776779, -1190.2763678134, -7180.9458270859
4863, -1022.3923946991, -1253.4033832974, -7079.8654967664
4864, -624.52308671499, 1492.0714340004, -1113.4881978222
4865, -484.71483461673, 1543.1648580442, -1163.2296023236
4866, -529.42823553951, 1528.4017774831, -1314.9710976643
4867, -667.69000717763, 1473.2604332959, -1265.2296931629
4868, 758.04838476728, 1428.8697968506, 770.73983308497
4869, -111.22560790958, -1613.6713154001, -5520.4424582212
4870, -1455.7264456289, -705.1005357371, -2126.5758512604
4871, -1396.0675298573, -816.88536654677, -1993.7256373297
4872, -1464.1410653074, -687.45704657126, -2009.9023544425
4873, -1413.9800695449, -785.47222288867, -2879.0155803435
4874, -1459.0074185077, -698.28618970993, -3041.7937990072
4875, -1405.7011543013, -800.19404821321, -3095.9783402607
4876, -1354.5924296678, -883.96017980822, -2933.200121597
4877, -1161.8785686215, -1125.3197064737, -7283.0614746851
4878, -1320.4684488746, -934.16771809283, -7282.494869212
4879, -221.56250659424, -1602.2535085534, 788.53954928011
4880, -333.89736992494, -1582.6619336918, 680.59352467509
4881, 1496.5427455354, 613.73126104629, -632.57985958584
4882, 1537.4786711736, 502.45953636716, -725.07967173714
4883, 1499.3925797049, 606.73564418603, -837.10737162251
4884, 1450.9206611443, 714.93739940273, -744.60755947121
4885, 1616.9431970364, -42.437572475813, -5726.2924348388
4886, 1615.5906728648, -78.568618113471, -5581.8602847412
4887, 1603.0758051934, -215.53239386123, -5620.2056446539
4888, 847.90006300459, 1377.4511726943, -2249.5215793972
4889, 909.17564874797, 1337.7988973398, -2352.5943404414
4890, 816.80413750396, 1396.1150564894, -2444.8821790193
4891, 45.039331641332, 1616.8728176963, -1231.0132853454
4892, 202.35014804427, 1604.793029517, -1212.4262813245
4893, 235.19309381852, 1600.3094883866, -1356.9735323956
4894, 78.162849208138, 1615.6103549444, -1375.5605364164
4895, 253.41352891789, 1597.5255344943, -2047.2369117585
4896, 174.21001385515, 1608.0911420291, -1937.0266445074
4897, 272.44327554888, 1594.3904514291, -1867.9929124629
4898, 350.85031357088, 1578.990280992, -1978.2031797141
4899, -933.16842844625, -1321.1748310315, -2302.0471385429
4900, -1045.9471215623, -1233.8155732911, -2156.4419234544
4901, -1125.1040898766, -1162.0873620098, -2290.0439905679
4902, -1018.3374718754, -1256.7000610226, -2435.6492056564
4903, 1533.3746691863, 514.84791336656, -1018.0912986508
4904, 1562.9229285805, 416.62713463894, -1116.5748045067
4905, 1537.3080474169, 502.98132902458, -1224.518686224
4906, 1502.3381385579, 599.40501118556, -1126.0351803682
4907, 191.40275158891, -1606.1354976104, -977.56553788273
4908, 421.02621525715, -1561.7436332722, -1040.6094018367
4909, 306.28102549538, -1588.2374455419, -895.8958407985
4910, 97.501169899697, -1614.5586926056, -903.84157347696
4911, -1317.578244334, 938.23974551163, 103.91980001709
4912, -1408.2203262556, 795.75232498591, -76.949734722693
4913, 1230.8314705469, 1049.4570696848, -3814.4680189327
4914, 1206.9736793759, 1076.8104695321, -3634.371680345
4915, 1289.4314574319, 976.56170649119, -3605.1388228523
4916, 1124.6093528878, 1162.5661501168, -3667.1252766394
4917, 1095.1522620528, 1190.3561538131, -3531.7114078334
4918, 1179.6376506024, 1106.6893255477, -3498.957811539
4919, 1396.6819958094, -815.83432912688, -2690.4075432854
4920, 1402.7734296659, -805.31543821253, -2532.8324769979
4921, 1395.1709101681, -818.41577539829, -2837.9206647125
4922, 1461.517899964, -693.01636206147, -2841.1176789689
4923, 1462.7969748616, -690.31243675299, -2693.6045575418
4924, 693.6686626931, -1461.2084164819, -2190.7031863904
4925, 588.8235281811, -1506.5168776553, -2128.1156617964
4926, 1126.6072864899, -1160.6301185252, -2698.1350092857
4927, -978.00936947135, -1288.3337778799, -7282.8843524007
4928, 89.210919108016, -1615.0379753776, -2822.3778391902
4929, 323.73438072686, -1584.7720027611, -2364.2048698955
4930, -193.11034398505, 1605.9310835294, -6675.2604362829
4931, -38.42595003129, 1617.043504784, -6666.8766016039
4932, 209.93882277213, -1603.8179262912, -2359.4776746645
4933, 1109.1658525633, 1177.3093737449, -7172.8376173588
4934, 1148.6507302154, 1138.8185764096, -7000.7709407304
4935, 1315.9522197408, -940.51900850502, -2990.5113324397
4936, 1394.8140537316, -819.02381254322, -2989.1352888624
4937, 1159.3659938414, 1127.9081267214, -333.57989442188
4938, 1143.836084324, 1143.654345595, -488.39595077348
4939, 1019.0000187826, 1256.1628921924, -474.67739139037
4940, 1209.63928872, -1073.81518018, -189.59346050174
4941, 1162.9083630867, -1124.2554821138, -331.00292468555
4942, 1276.846256679, -992.96016375528, -408.14558104992
4943, 1317.8940840462, -937.79605098126, -266.7361168661
4944, -1472.7726737977, 668.7652064176, -5381.4961916937
4945, -1428.804927776, 758.17064593857, -5489.3745275071
4946, -1462.9278338219, 690.03507376732, -5572.4168823818
4947, -1502.6359480673, 598.65804728232, -5464.5385465684
4948, -468.62341970766, -1548.1273657233, 532.11580293408
4949, 1552.2593019614, -454.74972179675, -2820.3016614378
4950, 1553.8022500209, -449.44946081852, -2713.3272469149
4951, 1517.6068689231, -559.62098012631, -2713.2276805122
4952, 1515.6881338894, -564.79707044835, -2820.2020950351
4953, -129.07619961026, -1612.3416463933, -426.00605560525
4954, 1544.9574329884, -478.97054215679, -658.16256893713
4955, 1569.4626444125, -391.27133525705, -786.97535263802
4956, 1593.1983026009, -279.33030374403, -720.68795199233
4957, 1574.9547975685, -368.54258317863, -591.87516829144
4958, -381.91344736535, 1571.7660031702, -1591.0242277144
4959, -440.50704684462, 1556.3610736845, -1682.2773759252
4960, -536.2561399197, 1526.0195288391, -1616.993266062
4961, -478.73164422125, 1545.0314763205, -1525.7401178512
4962, 1591.7524674864, -287.45492211988, -920.1184099468
4963, 1540.6737517696, -492.57551767027, -866.55040700583
4964, 1569.6722315397, -390.42968065104, -999.69346431462
4965, 1534.717417067, -510.83138093809, -7267.8842837627
4966, 1488.8562223457, -632.1498233667, -7150.6173253502
4967, -61.034369878272, 1616.3480614316, -2756.3212446264
4968, -87.090271405572, 1615.153718575, -2607.9580522997
4969, 47.015777008355, 1616.8165532033, -2582.1241563825
4970, 73.081055707084, 1615.8482011924, -2730.4873487092
4971, 540.85876626081, -1524.3943206923, -929.49824848931
4972, 615.00583915148, -1496.0194075645, -815.18639233845
4973, 494.00888045817, -1540.2147499711, -721.8894760597
4974, 417.83898907176, -1562.5993821871, -836.20133221056
4975, -445.47311202622, -1554.9469304326, -3752.736778051
4976, -220.40826951465, -1602.4126948853, -3758.8959249881
4977, -127.34249211993, -1612.4795005521, -3950.4542004632
4978, 356.77963337406, 1577.661098972, -2943.9389489061
4979, 217.83409344073, 1602.7646607456, -2850.0818330245
4980, -1211.113451022, 1072.1522553973, 83.228938659684
4981, -909.1777266435, -1337.797485188, -7174.0755988161
4982, -824.70682930219, -1391.4614244392, -6270.6098099632
4983, -712.21330996411, -1452.2597739764, -6151.8677085572
4984, -234.4568651906, 1600.417516889, -3863.9026582569
4985, -93.635606485839, 1614.7874854599, -3935.0311179521
4986, -147.14793142048, 1610.79289056, -4042.0367140694
4987, -287.41503178447, 1591.7596707746, -3970.9082543743
4988, -1371.6031314353, 857.32788350592, -6493.6488405615
4989, -1437.1831259119, 742.16636449933, -6650.0442917916
4990, 880.82140801824, 1356.6355063822, -5089.0680725781
4991, 974.33566870898, 1291.1143460908, -5085.6060784427
4992, 1117.8267046077, 1169.0892645414, -5121.4090957144
4993, 1017.6986166953, 1257.2174734613, -5193.9402875189
4994, 1054.8979599751, -1226.1714986251, 217.84683401908
4995, 941.18708520038, -1315.4744849871, 220.98912255088
4996, 941.25417825708, -1315.4264790985, 83.663620110068
4997, 1054.9604980865, -1226.1176931588, 80.521331578264
4998, 1576.2754916745, 362.85234510259, -553.80698496678
4999, 1605.9305620603, 193.1146805416, -552.64970228431
5000, 1574.1953348149, 371.77318064499, -701.29537776982
5001, -1569.2356800971, 392.18060929887, -4974.038884924
5002, -1591.1440157024, 290.80400838764, -4844.6109149616
5003, -162.63796218084, -1609.3026885138, -3307.8207571055
5004, -460.45896965132, -1550.5753084799, -3300.9038342847
5005, -826.18039155405, 1390.5870021727, -4064.8790370387
5006, -958.03652234099, 1303.2544923616, -3989.6236260913
5007, -911.22474247473, 1336.404025249, -3865.7158316782
5008, -776.35498138542, 1419.0064104429, -3940.9712426256
5009, -281.39530443365, -1592.8348729993, -1606.0563997663
5010, 968.9740135862, 1295.1430851434, 776.77656489811
5011, 886.84875525151, 1352.7030477192, 680.01639798309
5012, -1516.6210689212, -562.28710042488, 717.73578916182
5013, 609.89513487751, 1498.1102010375, -6277.6200506548
5014, 559.63752892074, 1517.600766415, -6374.0233638738
5015, -1289.8734386248, 975.97784930307, -2831.1155062645
5016, -1252.488476168, 1023.5130028809, -2704.6723341655
5017, -1166.4114571368, 1120.6206149541, -2749.1226531868
5018, -1207.486601201, 1076.2352707099, -2875.5658252858
5019, 733.7564259767, 1441.4949730533, -6192.0882647746
5020, 722.06216201084, 1447.3881594763, -6301.9053163288
5021, -1256.9497400533, 1018.0292731449, -3004.6416507007
5022, -1314.7782740744, 942.15940266074, -3127.4705691129
5023, -1365.1220954088, 867.61046249257, -3061.4513870151
5024, -1311.6007934493, 946.5778407628, -2938.622468603
5025, 707.98851917986, 1454.3240721069, -6426.5514363657
5026, -1057.800057948, 1223.6687817401, -4676.7445873965
5027, -919.97806644631, 1330.3934031923, -4749.6705708354
5028, -966.60329423307, 1296.91338245, -4889.0168055212
5029, -393.36132137516, 1568.9401265969, -3085.4435761213
5030, -494.13058950699, 1540.1757076754, -3072.0340663382
5031, -469.44554229942, 1547.8782680867, -2973.3860136737
5032, -368.22931138299, 1575.0280709366, -2986.7955234568
5033, -741.29402303645, 1437.6332708345, -5777.6324270064
5034, -844.15894278422, 1379.7470526576, -5720.2095091041
5035, -807.33381410059, 1401.6127719915, -5608.1185638173
5036, -702.97239656459, 1456.7553190801, -5665.5414817196
5037, -1212.0846302398, -1071.0541999061, -1804.7597644344
5038, -1233.8380395824, -1045.9206193968, -1621.3341395749
5039, -1343.58630968, -900.60095405254, -1649.0457660692
5040, -1324.7959349113, -928.02046359042, -1832.4713909287
5041, -977.2602355024, -1288.9021227796, 264.59695853188
5042, -1610.1825420058, 153.68289241076, -1656.1585876465
5043, -1617.4879898114, -6.2332027060749, -1591.2754044524
5044, -1616.8062336016, 47.369325380827, -1477.5976061508
5045, -1604.2056181507, 206.95551380362, -1542.480789345
5046, 1593.9940437516, -274.75305000023, -7274.7685830603
5047, 1617.2451306593, -28.713017235177, -7281.1919692368
5048, 1607.7412010807, -177.4104854498, -7170.9605522971
5049, -1570.7520040437, -386.06267858041, -3736.3268881889
5050, -1534.8819388827, -510.33683356364, -3586.1032871356
5051, -1575.7777150625, -365.00800362785, -3602.4022641416
5052, 1025.7491307028, -1250.6578152566, -2709.402818546
5053, -1230.7475283884, 1049.5555113312, -3171.6100886672
5054, -1175.0583016943, 1111.5503756552, -3064.023681232
5055, -1090.5997686151, 1194.5285240197, -3148.345655385
5056, -1150.674753618, 1136.7734432974, -3255.9320628202
5057, -814.7728498139, -1397.3014897316, -1236.3839039349
5058, -952.41030382225, -1307.3717387083, -1316.4345900526
5059, 829.03824104055, -1388.8851086006, 410.75603160189
5060, 936.00683913003, -1319.165435835, 554.1529489381
5061, 823.39090061444, -1392.240523324, 649.40219962905
5062, 711.00920601427, -1452.8496683976, 506.00528229285
5063, -1510.7832598565, -577.78905470535, -638.34857400731
5064, -1493.2571348952, -621.68269968246, -782.14143112894
5065, 1469.42282654, -676.0937855381, -2556.0788347857
5066, -1580.2079223681, 345.32473425045, -1033.6412601997
5067, -1601.4712966071, 227.1473885906, -1079.2849058863
5068, -1605.620922181, 195.67244122412, -975.84608757899
5069, -1586.6810452923, 314.24434841413, -930.20244189236
5070, 617.6198054537, 1494.9421480149, -1291.4919451363
5071, 542.10151181634, 1523.9528210829, -1191.7378829134
5072, 644.31299993212, 1483.6330436191, -1118.88247331
5073, 717.6874997389, 1449.5623141895, -1218.6365355329
5074, 1297.7416340592, -965.49101561297, -3284.9741975349
5075, 1238.4839035476, -1040.4152395334, -3362.469168651
5076, 327.14029657659, 1584.0724340622, -2549.6433048567
5077, 196.84891509598, 1605.477111212, -2706.045126631
5078, 199.22061431845, 1605.1845366906, -2554.3428651138
5079, 1332.3807344717, -917.09750212761, -3943.0275711081
5080, 19.488775782007, 1617.382588511, -2438.2895507476
5081, 1404.5134331509, -802.27692606657, -3141.9258813377
5082, 1296.8589432967, -966.67633217706, -3157.5879550597
5083, -541.97384220066, 1523.9982297792, -2915.2101242371
5084, -614.78232853941, 1496.1112721037, -3036.9490658939
5085, -721.15404539417, 1447.8408382179, -2982.9551139876
5086, -650.5480317204, 1480.9096894898, -2861.2161723307
5087, 1214.3060791837, -1068.5349765251, -3140.9099312503
5088, -950.75451309053, 1308.5763660704, -5653.3975107768
5089, -1029.4174940602, 1247.6401215587, -5550.0306030332
5090, -972.76780462951, 1292.2960373987, -5462.9194078932
5091, -891.46620427244, 1349.6644978068, -5566.2863156367
5092, 1474.5840619674, -664.76168225294, -1246.1307661641
5093, 1468.2353907401, -678.66861381542, -1066.9751091059
5094, 1406.631147695, -798.55811581509, -1060.3276014909
5095, 1414.1156727838, -785.22806495132, -1239.483258549
5096, -237.19300873599, 1600.0142895008, -2630.3644854521
5097, -186.12852637132, 1606.7552463492, -2785.8115501741
5098, -307.39938286219, 1588.0213693197, -2845.4544175584
5099, -357.80589496734, 1577.4286644811, -2690.0073528364
5100, 1175.6408282501, -1110.9342433067, -3814.3378834468
5101, 1264.4887927848, -1008.6497622672, -3880.3586150665
5102, 1119.6585567516, -1167.3349846094, -5005.7334737135
5103, 1209.5303562292, -1073.9378787249, -4914.5018179458
5104, 1137.9719580628, -1149.4894834938, -4788.2900169358
5105, 1042.2806123252, -1236.9144574994, -4879.5216727036
5106, -1616.6873898987, -51.265323001021, -122.98641618674
5107, -1604.0531646803, -208.13383886084, -195.87724794373
5108, -940.71587247552, 1315.8114976214, -1322.6695524296
5109, -1061.7730435924, 1220.2230344902, -1357.5618824989
5110, -1081.4665144653, 1202.8035700355, -1232.6671430462
5111, -961.97904923188, 1300.3470916793, -1197.7748129769
5112, 1294.8571932447, 969.35602288449, -5365.7052730254
5113, 1338.7910591397, 907.71402433123, -5506.924508003
5114, 1259.9243197965, 1014.3455813407, -5573.2551668672
5115, 1211.0880076066, 1072.1809958358, -5432.0359318896
5116, -1509.7589534118, 580.46029372648, -3102.0674277101
5117, -1427.0228413136, 761.5195732017, -3079.8017824406
5118, -1429.8959966767, 756.1108970831, -3254.8530796463
5119, -1511.945960704, 574.73964706718, -3277.1187249159
5120, 1315.5553204923, 941.07409311091, -5719.5271111751
5121, 1237.418574229, 1041.682063853, -5789.2479952008
5122, 1058.6285743701, 1222.9520806341, -6109.69058061
5123, 964.77700978337, 1298.2725335589, -6113.9082443211
5124, 1617.4884996898, -6.0994566343393, 761.72374486593
5125, -259.18768190808, 1596.598883736, -844.3130064761
5126, -254.42089294393, 1597.365411931, -688.60590600965
5127, -164.37559106095, 1609.1261339818, -707.16512459854
5128, -169.17788533559, 1608.6283265918, -862.87222506499
5129, -1526.5171571478, 534.83793707377, 359.09903478421
5130, -1608.5087800119, 170.3107589806, -1392.4970461935
5131, -1588.4868030985, 304.98512485324, -1357.0688037565
5132, -1581.1170135139, 341.13815321216, -1507.052546908
5133, -1567.5165449817, 398.99640500697, 230.31848191943
5134, -1615.0610664494, 88.791900752372, -2125.5466745256
5135, -1599.3390094073, 241.70432968416, -2110.069981046
5136, -1596.7641054525, 258.16785535466, -2244.3087167142
5137, -1614.0606283533, 105.42550924528, -2259.7854101937
5138, 1060.4086905702, -1221.408882792, -30.671239677662
5139, 959.40686460668, -1302.2460282702, -110.24200370145
5140, 1027.8295542425, -1248.948620811, -227.42270183043
5141, 1124.3532168806, -1162.8138688931, -147.85193780665
5142, 1465.7682515102, -683.98076205754, -79.12444110576
5143, 1520.8184255783, -550.83351969693, -50.14199633752
5144, 1508.2318787368, -584.41667495206, 105.74192257987
5145, 803.28305112708, -1403.9382428625, -2281.5329602238
5146, 1515.3170183065, -565.79199714258, -522.02618734235
5147, 1554.9921681295, -445.3151772125, -464.27706390681
5148, 1531.0805055709, -521.63084212951, -333.6667022134
5149, 1485.4989363399, -639.99934385351, -391.41582564893
5150, 1522.812984675, 545.29520785108, 119.60311932233
5151, 1578.0430010956, 355.08666082146, 65.411394541338
5152, 1531.6413658464, -519.98170778242, 200.43931645987
5153, 1562.0530172192, -419.8769121974, 311.52813738664
5154, 1492.9272268798, -622.47453380923, 296.75377115699
5155, 871.50724866525, -1362.6376501198, -811.34671314098
5156, 973.03966175516, -1292.0913538335, -702.07007813026
5157, 887.38775522497, -1352.3495191247, -592.05808137174
5158, 781.50303091005, -1416.1776945985, -701.33471638246
5159, 141.37286076663, -1611.3100149377, -2234.37640278
5160, -424.4976788859, 1560.8036297435, -5174.1336912269
5161, -287.21592041115, 1591.7956103289, -5119.8125405053
5162, -1482.675180838, -646.51415926258, -5428.9761525899
5163, -1419.3916572144, -775.65041960285, -5375.3556846105
5164, -1446.4021264843, -724.03531578346, -5254.1588671868
5165, 1024.5396631562, 1251.648804026, -4429.8642490981
5166, -1515.02084783, -566.58457501107, -302.52846927658
5167, -1508.8106243097, -582.92087796716, -73.724981005571
5168, -1566.8192213147, -401.72599831067, -289.53875231822
5169, -599.87996353463, 1502.1485543546, -3464.0699620153
5170, -738.55610788277, 1439.0417386265, -3442.0054031414
5171, -718.81170631572, 1449.0051693709, -3317.2753469508
5172, -579.28569361756, 1510.2100301514, -3339.3399058247
5173, 239.41773173678, 1599.6829059942, -1492.8980387556
5174, 277.88294763132, 1593.4513853318, -1619.0958356428
5175, 153.08277783386, 1610.2397067302, -1645.6062174618
5176, 114.24936344891, 1613.4600500017, -1519.4084205746
5177, -1609.6291303626, -159.37475549229, -737.89635911869
5178, -1588.0442917037, -307.28094244092, -698.78422106842
5179, -1594.4910277728, -271.85402765464, -527.22789467726
5180, 710.2931215298, -1453.1998938575, -6098.8108714288
5181, 797.56849899205, -1407.1925026149, -5974.9677423944
5182, 697.49585780685, -1459.3854111722, -5880.6932542619
5183, 768.56581059311, -1423.2402624952, -5678.1008004556
5184, 635.33085451481, -1487.5015816131, -5754.4908357651
5185, 827.90228866539, -1389.5625392269, -5804.3032189525
5186, 927.6129294589, -1325.0813194294, -6010.503099283
5187, 956.13516950755, -1304.6500632855, -5839.838575841
5188, -1581.3661784456, -339.98126370187, -864.99362803543
5189, -1545.8248153294, -476.16372217114, -826.64151622131
5190, -1555.3203143626, -444.1677270254, -660.4321092543
5191, 958.54687565208, -1302.8791721329, -399.9496145554
5192, 647.24058283588, -1482.3582151188, -58.395703091201
5193, 623.15625160922, -1492.6428025755, -247.89809954018
5194, 800.09008429906, -1405.7603305707, -300.31492765301
5195, 822.74459096235, -1392.622557638, -110.81253120403
5196, -1543.7198154908, 482.94449086925, -752.25983324237
5197, -1509.7229665814, 580.55388567882, -853.1660547976
5198, -1540.3477983927, 493.59387150436, -945.10276413283
5199, -1568.7280955024, 394.20605320237, -844.1965425776
5200, 1246.8533389807, -1030.3703222981, -774.0503737476
5201, 1143.5969941334, -1143.8934237983, -818.6355490023
5202, 1182.0705325029, -1104.0903523663, -971.30021314559
5203, 1281.3817181227, -987.10037101646, -926.7150378909
5204, 225.30609475483, 1601.7313799968, -4475.1599176968
5205, 80.527054465329, 1615.494241246, -4453.5287226486
5206, 88.239325895395, 1615.0913507804, -4304.9709720938
5207, 232.95100510621, 1600.637397795, -4326.6021671421
5208, 1004.6046715568, 1267.7048962145, -4729.8403581926
5209, 1014.5824483311, 1259.7335851435, -4584.5457045088
5210, -1145.2405092456, 1142.2479704438, -4593.3212389116
5211, -1077.9801930914, 1205.9290830321, -4471.158557119
5212, -986.02255502775, 1282.2112817225, -4554.5819056038
5213, -1579.2902689894, 349.49749108588, 22.179084150415
5214, 591.40002888747, 1505.5073084618, -4325.5281058563
5215, 739.18314316336, 1438.7197541089, -4399.8097772569
5216, -1296.7730690038, 966.79152742796, -7056.2139681543
5217, -1451.1984729657, -714.37332121376, 227.55807362353
5218, -1407.1710928499, 797.60627219679, -7013.114196233
5219, -1332.0261247938, 917.61247423228, -6942.8965776901
5220, 83.418147352605, -1615.3475361953, 651.96178215823
5221, 1587.7448577865, -308.82441058374, -2770.1718581704
5222, 1596.0569247444, -262.50436753626, -2679.7661936289
5223, 1327.0008182688, -924.86489733034, -728.34881987931
5224, 1292.1971654855, -972.8991394339, -608.50702766443
5225, -721.10758611012, -1447.8639781604, -6860.4853538097
5226, -1343.8591148717, -900.19382878149, -2529.5830663362
5227, -1282.9306842242, -985.08634620318, -2377.7730925009
5228, -1407.5069385958, -797.0134677686, -2435.6883054675
5229, 1329.0040163296, 921.98404247574, -4175.3079685393
5230, 1278.4702637377, 990.86832361242, -4031.107112819
5231, 731.37262770509, -1442.7059053888, -863.04822095532
5232, 667.07690536746, -1473.5381407773, -653.47288776558
5233, 1480.3264319093, 651.87414812262, -3822.7784934447
5234, 1505.3190509436, 591.87904580771, -3968.3921649145
5235, -792.91264815969, 1409.8211880903, -3116.6584740154
5236, -907.45444012482, 1338.9670231554, -3060.5117718303
5237, -839.10766563232, 1382.8248535071, -2926.8084118025
5238, 790.40521088258, 1411.2284905747, -854.88577728795
5239, 690.25228232836, 1462.8253609849, -943.95011867156
5240, 722.2290531009, 1447.3048900826, -777.70201646407
5241, 1607.2106615353, 182.15416395785, -6034.9238032817
5242, 1616.7341333557, 49.76938860929, -6203.938871542
5243, 1607.4972198164, 179.60773447269, -6315.6281281009
5244, 1587.3596966782, 310.7980749001, -6146.6130598406
5245, -1475.8528278835, 661.94008824689, -6141.1503644203
5246, -1450.9254375253, 714.92770595504, -5997.8906536085
5247, -1377.8518459136, 847.24880685224, -6057.6128092821
5248, -1407.6167464333, 796.8195185615, -6200.8725200939
5249, 883.43474211838, 1354.935166869, -5826.091151456
5250, 903.37854028889, 1341.7203370843, -5943.9460674031
5251, 767.52949292646, 1423.7993986121, -5962.906788771
5252, 1153.0825593538, 1134.3310192858, -5855.0830165832
5253, 1069.3054409305, 1213.627671074, -5917.2779428282
5254, 995.42962266014, 1274.9220040186, -5765.7162391356
5255, 1548.3959491915, 467.73521839543, -903.69238153157
5256, 1598.331639068, -248.27851609483, -535.37821680287
5257, 1584.2371206313, -326.34183858911, -407.78011241824
5258, 1381.5752324857, -841.16355542913, -893.86155290714
5259, 1450.6086370347, -715.57028457058, -828.55556368527
5260, 1403.6573478037, -803.77378655731, -663.04283065744
5261, -1501.7384768813, -600.90581379644, -3921.4235089082
5262, -1438.7610297393, -739.10280022702, -3857.4703448846
5263, -1080.3757437125, 1203.7834117471, 555.48531300377
5264, 1357.7204649226, 879.1481042068, -4281.5248213875
5265, 1304.5614435193, 956.25607976257, -4335.0859089464
5266, 917.9747886641, 1331.7764592367, -1105.8992982256
5267, 808.08019851442, 1401.1825872344, -1165.1273809507
5268, 754.41989736921, 1430.7888972359, -1048.2418459615
5269, 866.86488115644, 1365.5956677647, -989.01376323642
5270, 1029.9302567341, 1247.2168681764, -1069.4275053916
5271, 1059.5269846759, 1222.1738087292, -1205.4442893034
5272, 949.63035322802, 1309.3923942913, -1241.9160821374
5273, -1580.32103343, -344.80673035574, -6282.3738158235
5274, -1552.7040462546, -453.22885471296, -6149.5550251287
5275, -1579.741402197, -347.45266178935, -6065.3473961171
5276, -1599.9814382859, -237.41450490775, -6198.1661868119
5277, 1582.1625481109, 336.25573802565, -879.90808756425
5278, 509.3588345989, -1535.2067703134, -1186.5850290706
5279, -985.3769112569, 1282.7075242477, -542.40203977263
5280, -869.34190985898, 1364.0201221986, -512.99439210985
5281, -848.72228851669, 1376.9447073049, -672.52942918995
5282, -965.96747850408, 1297.3870203114, -701.93707685273
5283, -825.31406641634, 1391.1013413031, -845.2136111877
5284, -731.82834900331, 1442.4747892407, -637.63570940538
5285, -707.32860236455, 1454.6451451392, -810.31989140312
5286, -921.3272026985, -1329.459452397, -3732.1816414268
5287, -950.52533528842, -1308.7428460071, -3862.6633476855
5288, -774.22889080191, -1420.1675516106, -3772.7792449406
5289, -1562.0036502889, 420.06052716727, -5547.5872775414
5290, -1548.9525532048, 465.88865399411, -5682.6259103898
5291, -1576.757221162, 360.75326126498, -5734.1524769559
5292, -1586.6993836318, 314.15174037797, -5599.1138441075
5293, -1385.3265386954, -834.97103613612, -4614.9343029331
5294, -1456.1005019467, -704.32774915554, -4659.493048803
5295, -1399.3092452546, -811.31984207517, -3568.899942436
5296, -1478.9122500372, -655.0761838823, -3567.1438876847
5297, -1403.9065423158, -803.33845323311, -3714.4134960588
5298, 1152.6540325916, 1134.7664654678, 786.02072610508
5299, 1077.0720643349, 1206.740244721, 695.29729100319
5300, 132.50678778415, -1612.0633365942, -5109.611022259
5301, -1608.0144375579, 174.91660471564, -4752.774597855
5302, -1614.9106933364, 91.486078437127, -4835.3688511615
5303, 1593.0214391015, 280.33719796538, 425.70262960558
5304, 1569.9816561749, 389.18356758009, 504.2090831357
5305, 918.68149775782, 1331.2890578974, -3568.5684366855
5306, 1027.5399613874, 1249.1868866394, -3573.4667841535
5307, 1025.3505450215, 1250.9846161421, -3682.6878956142
5308, 916.34845365538, 1332.8960055021, -3677.7895481462
5309, 1030.33384495, -1246.8834821067, -1901.2236393098
5310, 939.47368398839, -1316.6986925995, -1885.7953777891
5311, 1138.7979383535, -1148.6711912475, -1903.8840183845
5312, 1220.1641690453, -1061.8406898297, -2065.7849095976
5313, 1244.8305584471, -1032.8132119392, -1911.0465937483
5314, 1578.6660653627, 352.30626459424, 338.72810750745
5315, 1604.9793906697, 200.86663616802, 338.6571890546
5316, 1594.2164016458, 273.45989600584, 251.68266695647
5317, 774.55087687894, 1419.9919679794, -3251.117316191
5318, 852.40212209082, 1374.6697320648, -3311.8556408858
5319, 801.11793554954, 1405.1748301691, -3402.5982346531
5320, 721.64797278374, 1447.5947130938, -3341.8599099584
5321, 628.3580444308, 1490.4604718003, -3335.9120892029
5322, 707.20423827861, 1454.7056112358, -3460.0685153055
5323, -1577.9017333796, -355.7138875522, -5078.4053927522
5324, -1536.8070723967, -504.50993273813, -5037.6312474308
5325, -1584.6620703914, -324.27206580705, -4934.7348923816
5326, 1460.4620218126, 695.23875959482, 191.8938249618
5327, 1485.0578501062, 641.02217733718, 338.45473769301
5328, 1541.8485892329, 488.88564908433, 266.16403205354
5329, -1617.4146537802, -16.615888089105, -5128.2803394548
5330, -1605.3842629208, 197.60470228805, -5196.2468594716
5331, -1616.9273929481, 43.03551944579, -5253.2779438117
5332, -1539.849225231, 495.14706255375, -7274.9141869691
5333, -1586.1195032854, 317.06650926508, -5154.9633514238
5334, -1576.7734930798, 360.68213363149, -5255.8183876758
5335, -1599.3250070263, 241.79696420844, -5297.1018957236
5336, -1145.3331522688, 1142.1550771739, -2032.3380119825
5337, -1232.2370973003, 1047.8062731425, -1986.5531455285
5338, -1201.9570626817, 1082.4072567521, -1849.4259757265
5339, -1112.4065186204, 1174.2478389722, -1895.2108421805
5340, 1617.4236599412, -15.714778472511, -4147.5423434674
5341, 1604.5925871217, 203.93351699563, -4097.0242588762
5342, 1616.4905468633, 57.136344838415, -4012.5361265587
5343, -1082.8365610329, 1201.570319245, -1699.5226646744
5344, -954.97987189791, 1305.4959572016, -1723.0102683426
5345, -987.17599771576, 1281.323456249, -1918.6984458487
5346, 1462.3094816969, 691.3445087214, -5360.8223394465
5347, 1404.07199898, 803.04923365895, -5428.0900985923
5348, 1374.6310989143, 852.46442265803, -5310.3403620599
5349, 1436.8035132642, 742.90101243144, -5243.0726029141
5350, 1612.3841203481, -128.54453877616, 652.48928690515
5351, 1598.2771136976, -248.6292779029, 758.26554203921
5352, 1617.4903875477, 5.5763958605496, -443.61908315867
5353, 1616.7112679839, 50.506692368574, -576.42646526695
5354, 1568.7481035336, 394.12642344788, 219.91059606913
5355, 1554.2937627841, 447.74674646567, 384.98154349185
5356, -1608.7606851818, 167.91458487429, -6262.0278562849
5357, -1596.0072789606, 262.80604160637, -6113.5501022238
5358, -1592.3944616765, 283.87696000549, -6315.9769423507
5359, 1563.0117098161, -416.29394059686, -2909.4038120443
5360, 237.69183343028, 1599.94026211, -7276.4826291491
5361, 333.61142197416, 1582.7222337253, -7162.1299172799
5362, -375.31655916166, 1573.3542927196, -4478.9386645836
5363, -530.21279780528, 1528.1297847511, -4557.4117203147
5364, -453.89744503894, 1552.508730857, -4332.9919256865
5365, -228.55575343256, 1601.2709069901, -4448.6963348803
5366, -175.32227040997, 1607.9702582754, -4625.6881617525
5367, 1419.384915729, -775.66275597126, -432.54713421964
5368, 1463.7319249082, -688.32775768864, -269.84521919897
5369, 1393.208420628, -821.75211997984, -310.97652776968
5370, -1351.7586962049, -888.28749694808, -1122.3194309403
5371, -1315.3028450809, -941.42693594459, -1269.1979747564
5372, -1228.1960494241, -1052.5401247358, -1195.3983909758
5373, -1269.146989021, -1002.7822147699, -1048.5198471597
5374, -699.39580825461, -1458.4758322975, -5389.62713893
5375, -826.90583195913, -1390.1557448977, -5349.6082810086
5376, -830.27593702649, -1388.1455681573, -5525.8504819337
5377, 1617.4762366878, 8.767767686185, 330.15255802352
5378, 1613.4293751697, -114.68173934667, 434.44212090286
5379, 1604.6703237382, -203.32093378187, 322.29090116605
5380, 1615.5064693937, -80.281363634159, 218.0013382867
5381, 432.80918288832, -1558.5193169183, -373.22914659911
5382, 582.67181760411, -1508.9068238198, -427.10857918726
5383, -1584.6873457809, -324.14852478735, -6614.8535238608
5384, -1582.2094611316, -336.03492542521, -6757.1564844231
5385, -1523.4593532155, -543.48675154061, -6765.9791415404
5386, -1479.2296793685, -654.35908007405, -4509.9449140236
5387, -1532.4615491145, -517.55951395536, -4558.0119439493
5388, -1548.024142009, -468.96429049262, -6894.5634953309
5389, -1596.9944816599, -256.73892487872, -6857.1252149894
5390, -1569.478620519, -391.20724652517, -6994.5322258972
5391, -1507.5410838196, -586.19632427711, -6973.3123757404
5392, -1477.3385471521, -658.61754235556, -6844.7280219498
5393, 1508.4391206599, 583.88155413825, 720.76592886954
5394, 1419.1689185566, 776.05787838464, 597.22585847784
5395, 1400.6361092984, 809.0270325085, 743.95992960831
5396, 1293.0264149332, 971.79675873356, 801.70494761544
5397, -1541.9475183175, 488.57353669076, -4409.2679651913
5398, -1573.210477011, 375.91893411033, -4318.6952490874
5399, -1375.8141802027, -850.55369704276, -3906.6198607308
5400, -1526.9725012135, 533.53653158689, -2315.1584440078
5401, -1470.5394869829, 673.66153758691, -2314.0311169111
5402, -1467.0757172873, 681.17185037696, -2439.9004106113
5403, -1524.2244768532, 541.33722776248, -2441.027737708
5404, -1614.1078608118, -104.69987423865, -6789.0933727869
5405, -1616.7171204756, -50.319005962691, -6985.106403242
5406, -1349.683885813, -891.43685047048, -4046.2062263685
5407, -1321.4522239654, -932.77557310262, -3940.3000724482
5408, 1347.285434131, -895.05765679001, -1762.4703174717
5409, 1252.5864705375, -1023.3930739586, -1754.6787989097
5410, 1149.1012247989, -1138.3640125925, -1753.7543847951
5411, -1584.7113543853, 324.03113011315, -304.44857951906
5412, -1606.2011051976, 190.85140728327, -287.61097456645
5413, -1604.9995383721, 200.70558493843, -195.61136805445
5414, -1582.6928255541, 333.7509100208, -212.44897300706
5415, 450.24775357355, 1553.5711153346, -4266.734669035
5416, 645.61079042579, 1483.0687635055, -4201.2263610259
5417, -1604.18991625, -207.07718996039, -5276.7093909859
5418, -1616.2873110582, -62.62250483722, -5323.6342283395
5419, -1612.9566001994, -121.14972502256, -5493.6919595919
5420, 1118.0540833759, 1168.8718136077, 519.10040427604
5421, 1167.9260515322, 1119.0419957055, 340.04835606249
5422, -1582.1393105205, 336.36505779541, -5400.7497536943
5423, -1539.2030250937, 497.15218750624, -5273.0227558664
5424, -1546.6742431296, 473.3973337899, -5417.9541218849
5425, -344.78656123744, 1580.3254339503, -4983.5794240004
5426, -249.80190235062, 1598.0942586662, -4932.2211412766
5427, -191.64905542805, 1606.1061264915, -5068.4542577815
5428, -525.94880617855, 1529.6025965195, -5200.013465744
5429, -558.68692700295, 1517.9509766774, -5057.5843460483
5430, -457.92948414864, 1551.324220641, -5031.7045715311
5431, -1445.4948483563, 725.84495133286, -3750.4572246413
5432, -1369.1276640529, 861.27561763067, -3793.1025179191
5433, -1405.2609002276, 800.96694831409, -3943.4759718082
5434, -1475.6708415849, 662.34569319658, -3900.8306785304
5435, 1604.7674275291, 202.55308820556, -2648.1213937228
5436, 1613.5811717693, 112.52578420807, -2500.6206476435
5437, -1542.3531889742, -487.29138147643, -3329.9605272872
5438, -1577.1167251318, -359.1783474952, -3457.9388360204
5439, -1539.8079315538, -495.27546267092, -3445.1879631067
5440, -1617.2940889124, -25.808525125372, -2613.9267271857
5441, -1605.3572152188, -197.8243199024, -2658.6847815067
5442, -1599.5453345754, -240.33512568533, -2477.8507049933
5443, -1616.0405459034, -68.696462763502, -2433.0926506723
5444, -1576.6461154398, -361.23853153917, -2702.9223464682
5445, -1534.646699364, -511.04379277222, -2754.0710045797
5446, -1519.2674690403, -555.09693524276, -2615.6184119608
5447, -1565.5704347727, -406.56544831762, -2564.4697538494
5448, 973.01786671108, -1292.107766814, 368.75599989722
5449, 1053.9445571898, -1226.991084063, 317.36254594123
5450, 1102.8329495322, -1183.2437345814, 414.6511314365
5451, 1024.6133459174, -1251.5884872305, 466.04458539249
5452, 1484.3018301527, 642.77081997046, -6809.7924520738
5453, 1529.6023719838, 525.94945918942, -6786.3280293306
5454, -519.09007583524, -1531.9437793762, -5244.9243101756
5455, -680.30271631126, -1467.4789484621, -5210.3562735385
5456, -757.11335717919, -1429.3654586497, -4376.0767714094
5457, -745.36354504664, -1435.5275809665, -4226.9498516683
5458, -873.41548968502, -1361.4153048862, -4213.9510536817
5459, -741.21939965535, -1437.6717468096, -4532.0390741733
5460, -629.35823345875, -1490.0384102357, -4526.7940989412
5461, -645.83965727362, -1482.969111982, -4370.8317961773
5462, 1112.1945010267, -1174.4486544272, 570.21782788015
5463, 1178.0800025942, -1108.3473090542, 460.62865396004
5464, 1485.2183753447, 640.65016002366, -1778.6537112431
5465, 1493.0412561614, 622.20097830211, -1909.8228066145
5466, 1413.0431272876, 787.15650948552, -1952.7273842246
5467, 1604.3114720689, 206.13333206484, -7286.5297470163
5468, -1598.8381269008, 244.99570193845, -51.974003623302
5469, -1557.3493286437, 437.00036449979, -138.29588523334
5470, -903.27012139532, -1341.793329017, -4664.2669723741
5471, -755.26128117373, -1430.3449399218, -4686.7092303801
5472, 147.21703399488, -1610.7865764594, -1725.2224195001
5473, -1003.4734488364, -1268.6005232067, -4620.4047895769
5474, -1045.4814284508, -1234.2102060688, -4763.8536352822
5475, -947.79083353784, -1310.7245270695, -4807.7158180794
5476, -1311.9579861999, 946.08270909384, -387.19775679502
5477, -1379.6367419003, 844.33921524385, -378.22998709572
5478, -1376.8471604324, 848.88052563907, -226.26268884769
5479, 1114.4859198685, -1172.2744492716, -3231.7872179337
5480, -1565.4693118843, 406.95464556705, -6772.0079914651
5481, -1519.6624564674, 554.01468248012, -6790.076153218
5482, 702.40023528578, 1457.0312829416, -1387.2802573328
5483, 612.65130370604, 1496.9851803098, -1467.0027716324
5484, 1541.9037704301, -488.71158440694, -2277.0867677078
5485, 1475.8634586984, -661.91638541349, -2406.0801039675
5486, 1592.5098324166, -283.22903039138, -1129.7282826102
5487, 1607.8160796609, -176.73059719218, -1258.9744373822
5488, 1607.2347381955, -181.9416014489, -1044.7193832562
5489, 1078.6912637512, -1205.2930795068, -5323.130251013
5490, 961.94817712625, -1300.3699298751, -5198.8925983485
5491, 870.32992658728, -1363.3899181403, -5317.7005438598
5492, 993.32961484752, -1276.5588612621, -5441.9381965244
5493, -1162.1034322318, 1125.0874911734, -6612.02699588
5494, 1076.5922292595, -1207.1683486151, -5549.5727111879
5495, 1097.8326205731, -1187.8845849684, -5704.7454648792
5496, 1191.1921962093, -1094.2428440205, -5689.2022894433
5497, 1171.5979030567, -1115.1971142149, -5534.029535752
5498, 878.90677291432, -1357.8767007815, -5574.8067869202
5499, 967.87223406898, -1295.9666618082, -5682.4413015837
5500, 1299.5901468401, -963.00140199071, -4029.6324460678
5501, 1222.6763846665, -1058.9469809103, -4104.3439105526
5502, 1228.5469622882, -1052.1305106556, -3966.9634900262
5503, 1512.7799089448, 572.5410003598, -1504.8518944788
5504, 1559.7766623979, 428.2557803917, -1493.3387548495
5505, 1560.9276249352, 424.04150706535, -1602.7876443111
5506, 1514.3207345704, 568.45313162134, -1614.3007839405
5507, -1444.9247456785, 726.97918080641, -1177.4831911601
5508, -1505.7880516594, 590.6848512361, -1232.0592852819
5509, -1520.5391206804, 551.60405408266, -1071.3706542947
5510, -1463.2156262572, 689.42460144431, -1016.7945601729
5511, -1565.9886209773, 404.95171189846, -1159.9091503616
5512, -1321.9830441369, -932.0231118457, -4430.5313466052
5513, -1225.0568110914, -1056.1922455683, -4399.5629623865
5514, -1243.5318205071, -1034.3765568622, -4257.9945506916
5515, 1541.861968154, -488.84345261077, 750.50923397723
5516, -199.52353307167, 1605.1469122017, -1393.2090537023
5517, -202.58362288633, 1604.7635731591, -1248.907905382
5518, -83.556242964896, 1615.3403988824, -1252.2498499899
5519, -80.476203202308, 1615.4967752113, -1396.5509983102
5520, 591.61324845185, -1505.4235331814, -3823.7900336039
5521, 954.62287006723, -1305.7570317424, -4989.656035261
5522, 873.75246662927, -1361.1990585727, -4904.9773274962
5523, 699.18803440286, -1458.5754497275, -4826.9424878151
5524, 743.53964852711, -1436.473125773, -4961.0602888172
5525, -1563.3345505907, 415.07991149804, -399.69610639112
5526, -1525.2635810809, 538.40250577824, -278.23883331906
5527, -1474.8690821628, 664.12908419995, -431.49562308326
5528, -1523.1246067984, 544.42417485382, -552.95289615532
5529, -1586.2596868408, -316.36443527001, -4477.2777161958
5530, -1601.2304183795, -228.83923889099, -4363.2416422125
5531, -1613.3642425976, -115.59442334026, -4442.9597513954
5532, -1604.5897135373, -203.95612569914, -4556.9958253788
5533, -1124.3442654114, -1162.8225242213, -4371.9972200186
5534, -1207.6922831308, -1076.0044606164, -4540.1636772061
5535, -1105.2564253122, -1180.9803064853, -4512.5979348382
5536, 322.88686867978, -1584.9448949519, -680.00928632863
5537, 523.79311691247, -1530.3421253678, -588.1580724835
5538, 353.57098184698, -1578.3832902042, -546.27788275243
5539, 886.68670082941, 1352.8092787131, -1560.5060980668
5540, 976.23468450717, 1289.6790650256, -1508.0579838692
5541, 1022.2998930841, 1253.4788305354, -1615.7816708635
5542, 935.0969047453, 1319.8106033578, -1668.2297850611
5543, 217.02124041106, -1602.8749268768, 387.09435440184
5544, -359.82889981401, -1576.9684248135, -2770.5524293142
5545, -242.23670539126, -1599.2584620883, -2690.4675312643
5546, 1613.0107235052, 120.42697313024, -959.16777960164
5547, 1593.8491964464, 275.59206989166, -1026.2060878282
5548, 994.59718341923, 1275.5715161192, -2740.6935681732
5549, 913.28687515988, 1334.9956305774, -2878.9194602223
5550, 842.80630101112, 1380.5737173277, -2808.3595483388
5551, 927.0896785261, 1325.4474633007, -2670.1336562897
5552, 654.90845337262, 1478.9865339823, -2092.6755224028
5553, 546.08029213567, 1522.5316300626, -2002.8861858488
5554, 629.17653108384, 1490.1151441192, -1876.8565728044
5555, 909.01643160058, -1337.9070883586, -940.83558601062
5556, 1076.7925430826, -1206.9896723509, -1015.2278069798
5557, 1027.0324112193, -1249.6042078615, -875.46999872706
5558, -719.78127513929, 1448.5237885374, -35.259876240177
5559, -814.80433801345, 1397.2831283439, -55.562858852622
5560, -517.02051530322, -1532.6434799899, -2301.6355904243
5561, 1062.0139123506, 1220.013401555, -5342.9088374712
5562, 1162.7818192989, 1124.3863618472, -5283.3512297565
5563, 1251.3518560288, 1024.902328231, -6817.7081546237
5564, 956.37872754448, 1304.4715326524, -1373.1147677549
5565, 1078.3788199952, 1205.5726318168, -1347.8196389245
5566, 1591.0072158184, -291.55152068487, 210.13066586636
5567, 1510.3611726055, -578.89150821695, -6245.6464554474
5568, 1436.2096807436, -744.04838749803, -6401.4530911242
5569, 1493.8223964319, -620.32322052173, -6576.9143074159
5570, 1553.7867359463, -449.50309142149, -6421.107671739
5571, -1580.4193685431, -344.35573108879, -5838.4811981894
5572, -1545.5348450353, -477.10406913137, -5723.6849848912
5573, -1603.8611278214, -209.60852240171, -5702.7199125959
5574, 1566.4357367389, -403.21871567072, -278.56551831388
5575, 1545.4279490851, -477.45021121212, -152.34864036237
5576, 1504.4668548279, -594.04186108758, -207.44982426189
5577, 571.57652914802, -1513.144580444, -4837.8096866103
5578, 1573.3043934483, -375.52567895723, -90.884471638762
5579, 1553.5388040251, -450.35922815923, 11.322172386088
5580, 1275.0780414984, 995.2297413606, -1296.1500714943
5581, 1289.1551199894, 976.92646939523, -1438.5076132966
5582, 1181.0737462277, 1105.1565753194, -1322.1056026142
5583, 1519.801597789, -553.63286874779, -3042.3686086581
5584, 1473.9571603038, -666.15053823373, -3117.0434463275
5585, 1540.5709667114, -492.89689238804, -3139.4545476361
5586, 820.88008621544, 1393.7224020783, -5470.6494265212
5587, 726.7467420606, 1445.0416682242, -5572.1393146797
5588, 742.02974518266, 1437.2536683774, -5377.5390594703
5589, 742.55328229886, 1436.9832542334, -6068.5898555933
5590, 792.90038226531, 1409.8280866132, -5685.1287182154
5591, -1057.5431846513, 1223.8907886726, -6097.5171357045
5592, -1046.3026277681, 1233.5141106309, -5935.3705598149
5593, -1171.3433086357, 1115.4645235571, -6088.6590019037
5594, -1332.8159101199, 916.46494735548, -6232.780391711
5595, -1350.9268745105, 889.55203879551, -6372.7947312928
5596, -1525.6291894117, -537.36563568471, 206.19944877653
5597, -1489.2577866682, -631.20321200723, 91.567793379638
5598, 130.49200777195, 1612.2276780615, -4706.1056883422
5599, 199.31968802317, 1605.1722374768, -4837.6121251211
5600, 72.899104408379, 1615.8564201613, -4904.5674171158
5601, 3.7301693583836, 1617.4956988618, -4773.060980337
5602, -1325.047189721, 927.66168133234, -6118.1265020055
5603, -1250.5054355893, 1025.9348934321, -6138.7072037963
5604, 1306.2640361773, -953.92898990947, -5177.5927643677
5605, 1263.964279809, -1009.3069648858, -5036.5362976094
5606, 1183.2427758321, -1102.8339781858, -5092.8986001507
5607, 1229.6458276984, -1050.846034595, -5233.955066909
5608, 76.827053287045, 1615.6744269447, -4190.5558625301
5609, -33.473418483014, 1617.1536044096, -4087.816128502
5610, 44.775883256077, 1616.88013479, -4012.8423566965
5611, 154.87574789085, 1610.0682447385, -4115.5820907246
5612, -867.06180830041, -1365.4706406902, -1951.1451601616
5613, -1448.2042233715, -720.4240261187, -2314.3253743566
5614, -1486.5909496121, -637.45870339282, -2391.4486005272
5615, -1450.285500149, -716.22497726452, -2512.8115316381
5616, 1266.5544110262, -1006.0547569143, -5680.5241786249
5617, 1336.0192766462, -911.78875976285, -5742.2931269665
5618, 1359.6577489853, -876.14899168127, -5644.3371799466
5619, 1292.7093250338, -972.21852017474, -5582.568231605
5620, 1536.5730827715, 505.22214055021, -5197.8806690105
5621, 1508.2114125284, 584.46949032371, -5277.5048807524
5622, 1481.7908670369, 648.53841548981, -5208.563248739
5623, 1513.5211259454, 570.5786986182, -5128.9390369971
5624, 1496.3400084745, -614.22538944483, -4249.4424708403
5625, 1533.1302857341, -515.57519040857, -4163.0090517538
5626, -1497.1898014698, 612.15108296474, -666.38158253563
5627, -1442.2155743194, 732.33905207258, -689.65631801778
5628, -1457.2865148885, 701.87054612952, -876.44079027975
5629, -1343.8181188838, 900.25502684491, -756.91602257035
5630, -1420.0981104868, 774.35625302035, -517.2869261338
5631, -1316.8142850925, 939.31165678713, -584.54663068637
5632, -1216.7624218024, 1065.7370495997, -4300.9636817907
5633, -1151.932561821, 1135.4988432475, -4392.5939719931
5634, -1208.0758216448, 1075.5738278506, -4479.1343240214
5635, -1269.2816563518, 1002.611752798, -4387.504033819
5636, -1268.8010942664, 1003.2198329322, -4193.8025340063
5637, -1326.0544547125, 926.22126575517, -4291.1467383948
5638, -1374.1509188616, 853.23824468425, -4209.6601856864
5639, -1321.1404528885, 933.21709893339, -4112.3159812979
5640, 1575.6463584782, -365.5746203093, -5630.4730661493
5641, 1540.1435238057, -494.23089348941, -5646.7176484425
5642, 1546.6228163088, -473.56532186484, -5842.1974612765
5643, -1594.9999198854, 268.85220022461, -7286.8718714778
5644, 1163.7689262353, 1123.3646497594, -1179.7302529931
5645, 1528.4778741245, 529.20850173816, -3772.0639658126
5646, 1426.7759309107, -761.98208179327, -1413.4412366719
5647, 1331.3642295177, -918.57255476135, -1253.0965243313
5648, 1346.2176410985, -896.66287577617, -1427.0545024543
5649, -1090.9157307827, -1194.2399751854, -4000.254172379
5650, -1155.6927214014, -1131.671588271, -3890.4598177807
5651, -1222.7103034952, -1058.9078164442, -3960.5275000216
5652, -1161.8792546711, -1125.3189981356, -4070.32185462
5653, 656.4013955839, -1478.3245441633, -5526.4047434889
5654, 557.32511096844, -1518.4515042253, -5391.6503064569
5655, 444.99280660781, -1555.0844517477, -5478.1177127121
5656, 546.73398350171, -1522.297014805, -5612.8721497442
5657, 1586.0107868058, 317.60987726398, -2734.614812102
5658, 1567.1488366792, 400.43822706529, -2602.2973078701
5659, 1591.9201497, 286.52484530888, -2515.8038894909
5660, 1424.2670539224, 766.66133925695, -4858.1892323794
5661, 1320.1460164237, 934.62331734268, -4729.5896527836
5662, 1419.9758557647, 774.58041483451, -4706.0874942613
5663, 1566.938264289, 401.26141841321, -2299.0506862588
5664, 1580.4982935793, 343.99330515734, -2418.5832134437
5665, 1550.0309452154, 462.28813404044, -2480.8723698828
5666, 1532.1877204228, 518.36959728132, -2361.3398426978
5667, -1278.3630396062, -991.0066543514, -4024.6631327573
5668, 105.82405764532, 1614.0345469734, -7171.8437896189
5669, 212.03498147963, 1603.5421468203, -7045.6332725855
5670, 1406.3071338835, 799.12858489008, -6480.4792257343
5671, 1472.1673796555, 670.09660219878, -6273.9699120873
5672, 1481.8029856367, 648.51072601628, -6470.045088453
5673, -1553.1190523631, 451.80466928389, -5102.444349682
5674, -1474.0437889206, 665.95882631336, -5235.8595311328
5675, -902.17369738776, 1342.5307705009, -212.27593811207
5676, -886.71252120483, 1352.7923546275, -360.14716883314
5677, -1000.4460810831, 1270.9893346702, -378.67759055457
5678, -1014.9613105902, 1259.428357631, -230.8063598335
5679, -1419.9841136537, 774.56527612016, -4480.5285211524
5680, -1365.0650111591, 867.70027389029, -4580.8885017412
5681, -1457.0755813587, 702.30833699179, -4561.3557070093
5682, -746.37867961313, 1435.0000406338, -485.64693999613
5683, 504.49881377255, 1536.8107225362, -1562.9324513273
5684, 702.95442220723, 1456.7639926561, -1569.8734009289
5685, 597.43676591808, 1503.1219380773, -1665.8030806237
5686, -1446.7285561547, -723.38284110591, -7282.3880231575
5687, 423.4167387894, 1561.0972152025, -582.70450181567
5688, 572.563058539, 1512.7715604137, -559.28282500492
5689, 589.92222484904, 1506.0869890644, -675.79525409307
5690, 1125.5205780641, 1161.6839838589, -6054.6108944992
5691, 1215.1126460706, 1067.6176784596, -6009.0839539497
5692, 430.97448732793, -1559.0276589184, -5696.0942030833
5693, -218.20750349491, -1602.7138657348, -506.65767095281
5694, 1291.1980414237, 974.22475221253, -599.69379558358
5695, 1268.1339087497, 1004.063065489, -457.75613873077
5696, -1404.9968312222, -801.43006822531, -4467.3742280055
5697, -105.04484723068, -1614.0854469545, -4719.0230466885
5698, -79.935672207556, -1615.5236111889, -4471.5897555426
5699, 811.78088019241, 1399.0418337398, -4104.0252915566
5700, 818.26677187311, 1395.2583058518, -3963.2818003514
5701, 938.17854432389, 1317.621823199, -3964.5341221008
5702, 1617.4103595989, -17.028759857856, -703.0390001041
5703, 1616.4256540478, -58.943658999455, -605.0448998114
5704, 1248.1786588744, 1028.764446086, -221.46881190683
5705, 1191.7712992829, 1093.6120976862, -124.37938981833
5706, 1276.210997243, 993.77650430871, -57.954947341687
5707, 1253.595286708, 1022.157085356, -3442.637289625
5708, 1338.1321341229, 908.68511687367, -3381.698657311
5709, 1616.6978523642, 50.934312218328, -7182.7217162532
5710, 1617.4726464762, 9.4068007997096, -6980.1550442721
5711, 1615.8184817023, -73.735230312091, -7075.4295739659
5712, 577.91107462441, 1510.736588498, -1014.5907460201
5713, 461.35818500824, 1550.3079936341, -1077.0163913207
5714, 397.9970510049, 1567.7705818746, -967.64325463464
5715, 1240.5174221692, -1037.9897761031, -68.699246819688
5716, 1347.9342647303, -894.08023575403, -97.279425139268
5717, 1251.5243509033, -1024.6916848966, 86.146420351061
5718, 1576.2088774657, -363.14160405891, -2282.5566637324
5719, 1574.0879152431, -372.2277328272, -2134.9314127664
5720, 1539.0590436919, -497.59773917313, -2129.4615167419
5721, 562.89469093161, 1516.3956663487, 75.408389444537
5722, 440.19576827051, 1556.4491432735, 162.44846586786
5723, 659.65020556681, 1476.8777391158, 181.75935281999
5724, -1282.9615435833, -985.04615510463, -1429.1791067932
5725, -1397.5165952906, -814.40384078625, -1329.0492840119
5726, -1369.3926484984, -860.85424099468, -1489.0304160488
5727, 1109.5015702601, 1176.9929972563, 219.54860530473
5728, 1026.7759961286, 1249.814907806, 92.166062288768
5729, 894.85330897386, 1347.4211685359, 175.95122232736
5730, 337.39807773074, 1581.9193364845, -1164.4048411122
5731, -1517.5908042178, -559.66454323428, -469.1102611206
5732, 1009.1610192931, 1264.0808072031, 593.29283984398
5733, 1368.2333771265, 862.695586935, -5855.8861107199
5734, 1294.0991091425, 970.36784041757, -5943.2489325673
5735, -1016.8008528257, 1257.943669523, -85.228546097581
5736, -1021.0090556783, 1254.5304931419, 21.916155246397
5737, -925.05961686094, 1326.8650855506, -80.748279204868
5738, -1108.044742423, 1178.3645865303, 66.917698507115
5739, -122.08864719369, -1612.8858025993, -2523.1816870366
5740, 1563.4622059424, 414.5988188476, -4377.4977592668
5741, 1546.4955593272, 473.98073271116, -4241.0881686407
5742, 1581.5139130284, 339.29337290561, -4171.7513401513
5743, 1555.2252060197, 444.50062830229, -4676.1416734773
5744, 1588.3574011706, 305.658332369, -4657.7514938725
5745, 1588.5749825614, 304.52549118275, -4783.4907134713
5746, -524.74005572085, -1530.017687454, -4421.6373447886
5747, -560.36521961821, -1517.3322215791, -4627.8713285033
5748, 366.00216116466, 1575.5471011756, 51.86259408311
5749, -824.12431921948, -1391.806508273, -2429.0013698414
5750, -911.29844848484, -1336.3537659576, -2547.7637076594
5751, -799.34932761724, -1406.1816747625, -2672.1439764608
5752, -814.11841795294, -1397.6828866198, -5018.4186796751
5753, -824.6154104982, -1391.5156034946, -5184.3982796107
5754, -669.23805215337, -1472.5578696778, -5044.3766736029
5755, -957.44144541229, -1303.691730666, -5157.7903018312
5756, -663.10025578547, 1475.3319290171, -5130.4208561062
5757, -543.1418317911, 1523.5823576553, -1741.8186668819
5758, -648.94768455695, 1481.6116740591, -1736.2992298586
5759, -642.25044400248, 1484.5270685234, -1611.4738290388
5760, 1600.5098918748, 233.82543918665, 97.183465428672
5761, 861.69277188259, 1368.8651565751, -1383.6752624183
5762, 854.61316402082, 1373.296249861, -1252.4765768008
5763, -1449.6078452358, 717.59553024731, -6807.655850371
5764, 1586.6646056437, -314.32734401834, -3945.1090034489
5765, 1566.1857690197, -404.18855367291, -4056.2287789749
5766, 1560.6513460378, -425.05720333896, -3508.7619726504
5767, 1419.4032165404, -775.62926638619, -141.51983604284
5768, -1617.2314534487, -29.473309554924, -4966.4024604332
5769, -1617.2630465079, -27.685526902155, -4829.8747748776
5770, 657.52045385967, -1477.8271559138, -5294.8995802613
5771, 549.00696763347, -1521.4787542026, -5166.7150262621
5772, 446.13788778625, -1554.7563265932, -5263.4657524576
5773, -1002.9191915999, 1269.0387484709, -4103.5580362979
5774, -911.58949690101, 1336.1552451492, -4169.5819417778
5775, -965.76866869534, 1297.5350201696, -4273.6222082865
5776, -1609.1254428528, -164.38235660752, -4823.8245717074
5777, -1608.9916948787, -165.68637786944, -4709.3823463324
5778, -1617.2400783691, -28.996187970743, -4715.4325495026
5779, 1547.7949156999, 469.7202879732, -356.85717028367
5780, 1069.0422483294, 1213.859514642, -2941.4847370154
5781, 1163.7307749397, 1123.4041719071, -2873.3273927077
5782, 1206.6167604417, 1077.2103988642, -2988.7673735882
5783, 1115.5244124764, 1171.2862737901, -3056.9247178959
5784, -92.089029258993, -1614.8764227303, -5275.2137667908
5785, -1384.8536653916, 835.75509298561, -6834.6443164208
5786, -1570.5697000647, -386.80365463451, -4616.9367545685
5787, -1596.8239962262, -257.79715878197, -4660.6522419292
5788, -1588.7131971491, -303.80359972236, -4794.0150869498
5789, -1613.653188625, -111.4882811793, -4605.725929782
5790, -371.02374867703, 1574.3721376846, -703.66624030131
5791, 1530.9586604027, 521.98834291379, -517.73608358764
5792, 1443.5705567973, 729.66451027034, -549.31973275736
5793, 1159.1097618164, 1128.1714453318, 32.479864664158
5794, 1221.2406152329, 1060.6024748725, 154.46318857116
5795, 1330.5295230352, 919.78119046414, 64.028376565317
5796, -1513.9018837942, -569.56767485912, -6070.8858721621
5797, -1523.7264626012, -542.73742930531, -6291.7238916007
5798, 1338.3719834668, -908.33181375037, -2213.1041549623
5799, 1608.3269422788, -172.01946616596, -4046.8206059349
5800, 1595.7316625351, -264.47440553457, -4199.4998487729
5801, 1613.8262614227, -108.95433879631, -4300.2215863054
5802, 1610.1043357292, -154.50009082813, -4441.7145994533
5803, 1617.3440144196, 22.463059032299, -4508.115880019
5804, -1395.481560385, -817.88597287478, -5081.5212854693
5805, 570.82899064114, 1513.4267453179, -411.24212358593
5806, 383.88132833954, 1571.2865352164, -458.78828661999
5807, 371.8684653374, 1574.1728286588, -342.83956377125
5808, 768.21569662029, 1423.4292723793, 283.79279855408
5809, 659.36058059037, 1477.0070665923, -0.40803885623063
5810, 460.84986934135, 1550.4591732542, -32.56902558139
5811, 1545.5367784806, 477.09780586762, -6635.0805824378
5812, 1578.7690146108, 351.84463688535, -6673.7219728405
5813, 1331.5782706111, 918.26224970674, -1997.1168557424
5814, 1427.7014144417, 760.24661867136, -2079.8602637396
5815, 1348.7348388442, 892.87209861653, -2124.2497352573
5816, 1478.3100288081, 656.43408559083, -2040.6165019935
5817, 1440.5192576116, 735.67011523519, -2188.1449251073
5818, 1217.3942873009, -1065.0152108055, -1116.2830198589
5819, -967.65950773285, -1296.1255059192, -5767.3717885949
5820, -971.68461778703, -1293.110688826, -5609.3165905371
5821, -1073.7709580273, -1209.6785439517, -5604.2988001864
5822, -942.03939899354, 1314.8642594366, -5189.2973779889
5823, -929.21029066382, 1323.9616632382, -5070.7628156474
5824, -808.94467100358, 1400.6836792277, -5084.4861670678
5825, 1616.6320111775, 52.982925892681, -5970.5469434265
5826, 1617.3800811929, -19.695759965281, -5850.0422740522
5827, 1616.5369370412, -55.80843288773, -6046.4555085606
5828, 1546.3813745185, 474.35313274199, -1930.1167515576
5829, 1482.478809052, 646.96431950449, -5010.7405896732
5830, 1412.7648632061, 787.65582032402, -5006.4435175684
5831, 1555.3140583473, 444.18963282268, -3110.9307516955
5832, 1566.0151242292, 404.84920734181, -3230.4953631214
5833, 1466.2290246875, -682.99245761859, -591.44014670047
5834, 1349.1924798102, -892.18042033184, -504.14981817661
5835, 351.51072205986, 1578.8433938415, -1494.4254985223
5836, -1582.3874666034, -335.19569737144, -6427.4098353319
5837, 1434.1926397235, -747.92895529125, -1601.5159090231
5838, 1517.1637965686, -560.82106271223, -1600.5746918151
5839, 1511.5811939917, -575.69830985559, -1412.500019464
5840, -1617.3838387143, -19.384743116149, -4346.7404159721
5841, -1617.3777401963, -19.887069103927, -4537.1785221179
5842, -1224.1434743559, -1057.2506818119, -2196.4871393632
5843, -1190.0855804031, -1095.4462840855, -2471.3299437056
5844, 1500.6281814544, 603.67318229727, 545.98184914846
5845, 1545.7957919511, 476.25793388264, 557.61974301458
5846, 1465.8814954576, -683.73802824997, -2964.2528538521
5847, -548.62609771846, 1521.6161325716, -6204.1078208512
5848, -533.40612599831, 1527.0180597319, -6023.6357280318
5849, -375.8317650341, 1573.2313035251, -6056.5823823515
5850, -391.52100891108, 1569.4003789923, -6237.0544751709
5851, -387.95745684241, -1570.2850893008, -1563.4516619521
5852, -464.45014695596, -1549.3844942404, -1764.254718456
5853, -1269.2606354348, -1002.638364185, -4124.8982092127
5854, 1427.7902116257, 760.07983895502, -5770.2837248944
5855, 1475.2512063253, 663.27982649543, -5669.5724665731
5856, 1512.6873015943, 572.7856297041, -5781.4909063911
5857, 1211.4799618976, 1071.7380985672, -1736.1747618634
5858, 1301.1067014789, 960.95140426906, -1579.9545931303
5859, 893.04986853045, 1348.6171370399, -4719.1311507845
5860, -1273.8411584299, 996.81239613582, -2093.8865327355
5861, -1271.0736448559, -1000.3389622286, -5705.1794022386
5862, -1177.1436494901, -1109.3417320489, -5592.3725876135
5863, -1275.3234719974, -994.91521838414, -5587.8677174995
5864, -1333.1337503309, -916.0025402414, -5774.6678780998
5865, 1402.0010898016, -806.65928011464, -6196.7870888796
5866, 1304.8684072669, -955.83716694675, -6278.9237029585
5867, 1345.7500131971, -897.36455912863, -6483.5897052032
5868, -1604.6001233413, 203.87421164268, -6016.4876716804
5869, -1587.0241330358, 312.50704177995, -5932.6647547461
5870, -1598.7389706532, 245.64192173685, -5811.6754239505
5871, -1613.2322792171, 117.42173262148, -5894.1135277446
5872, -1617.033855729, 38.829878008004, -5766.8367508453
5873, -1608.7931574428, 167.60318184721, -5684.3986470512
5874, -560.7689191351, 1517.1830704737, -6326.2282539798
5875, -369.15317160719, 1574.8117938002, -852.07446498923
5876, -480.60682323565, 1544.4492000255, -868.7244188055
5877, -482.44125164666, 1543.8771611464, -720.31619411758
5878, 1614.8076626008, 93.286991621193, -6861.7085160303
5879, 1617.478933301, -8.2553211556261, -6778.0657522564
5880, 1614.8736643301, -92.137387921378, -6896.5122804981
5881, 1604.8762399955, 201.68912786232, -6768.8546670365
5882, 1526.861692997, 533.85355712801, 438.39220337073
5883, 1376.9533722187, 848.70823062786, -2248.2605684973
5884, 1298.3559830206, 964.66470410946, -2312.5433624759
5885, 1266.4220471765, 1006.2213714811, -2188.5325292359
5886, -666.82130833367, -1473.6538239194, -3718.89552082
5887, 1255.7289426052, 1019.5347334464, -2503.4436750891
5888, 1215.1796990943, 1067.5413570017, -2386.7668486557
5889, 1334.846438598, 913.50491808324, -2429.2201889094
5890, 802.342122501, -1404.4761900654, -6320.416464113
5891, 857.06921687645, -1371.7647784816, -6159.7925045063
5892, 124.41018345434, 1612.7083915739, -745.48369590819
5893, 275.11927125173, 1593.9308757239, -631.14252588905
5894, 1076.1553281167, -1207.5578494491, -6224.2114628174
5895, 956.54623808645, -1304.3487050642, -6221.0162729177
5896, 943.51095883932, -1313.8087077463, -6378.3092743806
5897, 1064.0778996917, -1218.2136402896, -6381.5044642802
5898, 1144.6411353571, -1142.8485994429, 316.05385103457
5899, 1217.1481441287, -1065.2965057879, 362.03137355811
5900, -1611.6156595084, -137.84489844546, -6434.2624556329
5901, -1612.5380732303, -126.59862709629, -6621.7061441618
5902, 1244.9261667955, -1032.6979661198, 218.44971233215
5903, 1145.5291080941, -1141.9585423776, 216.53813911242
5904, 1152.830141352, -1134.5875528977, 84.234847131327
5905, 1579.9876177511, 346.33131211797, -6414.216604936
5906, 1614.0383591945, 105.76589738139, -6446.8221044906
5907, 1594.1966826947, 273.57482867623, -6545.4105813257
5908, -343.60693398358, 1580.582337279, -6633.3808434309
5909, -315.02617553287, 1586.5260031683, -6466.9373633634
5910, -534.9255724359, 1526.486449974, -6541.2637546493
5911, 742.52818039957, -1436.9962252256, -6478.8590747647
5912, -645.8443584231, -1482.9670646016, -4907.0980155219
5913, -605.68490640386, -1499.8173369296, -4741.204925523
5914, -793.4961364781, -1409.4928631938, -4852.6023203791
5915, 677.18606284714, -1468.9197684985, 90.442956926421
5916, 803.35164610898, -1403.8989930526, 83.093092607485
5917, 794.88799040096, -1408.708391654, 262.98915425556
5918, -1097.4852724569, -1188.2055069474, -4966.3409663039
5919, -1129.7664048682, -1157.5552342896, -4814.419921242
5920, 1293.9073792529, 970.62348205415, -2615.3081122085
5921, 1211.5657619918, 1071.6411033407, -2692.1482599718
5922, 1617.3497576733, -22.045665197556, 9.6697263877204
5923, 1616.9912676246, 40.56464502326, 139.05610705743
5924, 1611.1891550768, -142.7436743355, 88.614957616991
5925, -1606.8710941341, -185.12573250735, -4964.5443771393
5926, -1617.463128935, -10.921379749622, -7130.5387953827
5927, -1616.9159376559, 43.463784400487, -7275.9549023645
5928, -1614.5974108474, 96.857890152178, -6930.5557810337
5929, 1410.4611616151, -791.77368077968, -2382.8337461798
5930, -1158.3478048332, -1128.9537692209, -3586.6710948459
5931, -1206.2584177895, -1077.6116552414, -3453.3154771648
5932, -1309.2032957383, -949.89103608144, -3534.9655884
5933, -332.54657586577, 1582.9463114332, -1284.4465986923
5934, -361.89484898005, 1576.4955972922, -1165.2028856808
5935, 1436.3108094961, -743.8531498385, -7023.4486969407
5936, 1379.0562977505, -845.28692030262, -6920.2063375507
5937, -273.70192155516, 1594.1748674901, -1489.2153902092
5938, -405.5531034446, 1565.8329828837, -1380.4529351992
5939, 1486.3653213579, -637.984624787, -6896.1189038
5940, -1604.3704294302, -205.6739535523, -3603.6360327265
5941, -1617.4914609148, -5.255841297042, -3611.4212448775
5942, -1617.0705405322, -37.270859166797, -3778.288319791
5943, -1599.9850751885, -237.38999383705, -3770.50310764
5944, 1350.5336425493, -890.14893716862, -6659.404561465
5945, 1423.3569356218, -768.34971452944, -6733.830367973
5946, -1598.8444013173, 244.9547516914, -6476.8768485272
5947, -1545.2760456463, 477.94162065219, -6311.3018181236
5948, -992.06897125237, -1277.53880813, -4031.2363042009
5949, -1013.4655328187, -1260.6323269647, -4189.0893121816
5950, 1453.9283883521, 708.80074177712, 446.04438347074
5951, 1391.1159273887, 825.28948046452, 371.94281028261
5952, 1370.4147975771, 859.22612424308, 251.69756211544
5953, 1273.601019855, 997.11919659802, 274.96293932893
5954, -873.73682623162, 1361.2090980032, -4942.8089663167
5955, -717.79843490511, 1449.5073841991, -5029.5674782187
5956, -1522.2883047383, 546.75823474092, -5594.1717022249
5957, -1495.8179017367, 615.49577971257, -5678.1026004215
5958, -1526.1362120041, 535.92398006609, -5766.5568085864
5959, 1226.2499217641, 1054.8067971783, -3942.6538977859
5960, 1137.7202302863, 1149.7386344719, -3800.2863348484
5961, -203.20380898663, 1604.6851597785, -3605.7744681466
5962, -77.481648969446, 1615.6431673092, -3534.8415890033
5963, -11.374746390603, 1617.460004187, -3613.9108678689
5964, -137.43975474998, 1611.6502610102, -3684.8437470122
5965, -1615.8814960185, 72.341141993489, -140.30781845059
5966, 1498.2165231621, -609.63390631097, -4746.4502370199
5967, 1461.3174414815, -693.43895565647, -4821.7929232492
5968, 1491.1304728022, -626.76643423259, -4907.7723321009
5969, 1524.2088786262, -541.38114514356, -4832.4296458716
5970, 1485.2893831267, -640.48551769046, -5095.0778249778
5971, 1523.8918049832, -542.2730093828, -5011.7554901034
5972, 1447.0883127306, -722.66289870076, -4991.0946669752
5973, 1060.1666656286, 1221.6189631345, -3429.9123426046
5974, 1003.0783908885, 1268.9129173164, -3317.5338246393
5975, 1082.8050530503, 1201.5987130023, -3248.7741158688
5976, 1136.7252430674, 1150.7223695459, -3361.1526338342
5977, -1118.8139197267, 1168.1445385849, -86.417073969442
5978, -1117.1055079523, 1169.7784123938, -231.99488770536
5979, 402.44497799591, 1566.6347020559, -1606.7688309563
5980, 1047.1743025598, -1232.7742007596, -5096.6904046131
5981, 1114.5350036965, -1172.2277831272, -5183.8555310503
5982, 1197.4088676992, -1087.4365515078, -5373.2297868718
5983, 1107.1068518578, 1179.2458049828, -87.061283436618
5984, 1154.8931551584, 1132.4875496748, -228.58963473295
5985, -1617.066992113, -37.424497573212, -1362.5925333557
5986, -1610.2615380285, -152.85296577481, -1504.9667731745
5987, -1608.2409639793, -172.82144478897, -1274.8594544212
5988, -1601.9983251642, 223.40012571829, -2884.4738459985
5989, -1609.155804721, 164.08487478344, -2738.9233583115
5990, -1592.9681841543, 280.6396519952, -2689.90326567
5991, -1581.5173025426, 339.27757332077, -2835.4537533571
5992, -1616.2852475472, 62.675741408896, -4646.8851418385
5993, -366.72999265742, -1575.3778475291, -5012.9509126533
5994, -546.32116428232, -1522.4452159133, -5072.6089494319
5995, 1039.4704459712, 1239.2769835483, -3815.8489538232
5996, 221.05884344837, -1602.3230753295, -130.00074142809
5997, 213.03773381068, -1603.4092347161, -332.61210065989
5998, 313.81706447929, -1586.7656096732, -340.16666576855
5999, 1250.4936658918, 1025.9492392729, -1174.065800329
6000, 1337.8558148597, 909.09189230026, -1125.7030705143
6001, 1359.5720032, 876.28204256092, -1247.7873416797
6002, 1590.0580559015, 296.68439268505, -5163.8414831387
6003, 1570.9774785764, 385.14414419237, -5286.6438292527
6004, 1562.4228716018, 418.49853081662, -5075.0783228966
6005, -1311.6672878359, 946.48569773729, -4652.5256216112
6006, -1205.2715436227, 1078.7153267352, -4661.9148376516
6007, -1311.6861192432, 946.45960008064, -4769.2357993167
6008, 1564.1307109387, -412.06961681072, -3186.0194766016
6009, 1583.2978993833, -330.86857180541, -3371.089780328
6010, -1088.7705995924, -1196.195983718, -5150.5990907597
6011, -966.94538188477, -1296.6583507045, -4973.5321773754
6012, 1160.3329770805, 1126.9133206683, -1025.2175748827
6013, 1247.3547988166, 1029.7632037848, -1019.5531222185
6014, -1131.5332953063, 1155.8281237335, -6744.7704061143
6015, 881.76664763049, 1356.0213232566, -4428.0110218608
6016, 778.46878445688, 1417.8478767577, -4234.7486356871
6017, 1531.2079662991, 521.25657208529, -1733.3175870189
6018, 1586.5858160164, 314.72479790361, -1631.5539174791
6019, 1563.6824128156, 413.76752150356, -1762.0838601869
6020, 1464.6536312796, 686.36432772946, -1659.6369081647
6021, 1198.3004609485, 1086.4539821321, -1896.5667938415
6022, 1216.0803826168, 1066.5152380602, -2041.8708975999
6023, -1563.8161594915, 413.26174431385, -638.83114686206
6024, 1587.3050975265, 311.07680300256, -2105.8278402163
6025, 1596.1829524547, 261.73695247874, -2250.380201629
6026, -885.41525349652, -1353.6417838098, -2778.4581415681
6027, -779.84520657303, -1417.0912827991, -2893.1026580773
6028, -690.03088122168, -1462.9298113582, -2786.78849297
6029, -1212.9346503727, 1070.0914839046, -401.10936869488
6030, 519.36307543187, 1531.8512479604, -4768.0118662859
6031, 396.31033305006, 1568.1978095629, -4701.8890744448
6032, 229.41465826451, 1601.1480770289, -4684.5454765794
6033, 311.46715484745, 1587.2285473275, -4609.3985483917
6034, 315.12438956317, 1586.5064982856, -4777.0360026325
6035, 1445.5653210102, 725.70459051374, -4366.0100072814
6036, 1383.0677255497, 838.70728895299, -4414.7506036449
6037, -1133.0861190156, -1154.3058939874, -4203.4181960988
6038, 1028.6914187341, -1248.2388453429, 658.32619142576
6039, -1459.7281962511, -696.77818785428, -2633.9775692641
6040, -1479.1787857906, -654.47411688078, -2819.6809484802
6041, -1390.7859719998, -825.84540326171, -2693.3122011274
6042, 1528.3258338153, 529.64742583426, -6315.5883681993
6043, 1568.1912384773, 396.33633389216, -6266.0432471236
6044, 1544.3762271184, 480.84126186469, -6463.7617260116
6045, 771.45899517858, -1421.6741077891, -5423.1107299534
6046, 760.66010744084, -1427.4811560746, -5189.4893941678
6047, 1610.7653018235, -147.4496267934, -2293.7150962719
6048, 1601.4760751315, -227.1136957149, -2189.9244969253
6049, 1605.9564719421, -192.89909338114, -2077.1696951508
6050, 1581.6701382027, -338.56435712855, -2022.1766109919
6051, 663.06278695987, 1475.3487691217, -4807.9401618527
6052, 790.78357444471, 1411.0165089, -4733.7046728712
6053, 870.9862950322, 1362.9706980952, -4582.6924772715
6054, 969.42720812903, 1294.8038994918, -27.375085812009
6055, 858.66750075521, 1370.7648861664, -12.020619123074
6056, 1581.7674197511, -338.10956776448, -4667.6020981273
6057, 1600.7816297593, -231.95780613135, -4782.610911446
6058, 1610.8805489453, -146.18518060878, -4709.509532977
6059, 1597.5593104514, -253.20051261798, -4594.5007196583
6060, 1166.5018434353, 1120.5265276922, -2271.9379812144
6061, 1110.7288843073, 1175.8348504639, -2125.2763495784
6062, 864.70065903223, -1366.9670882173, -5091.8582289963
6063, 634.66611224696, -1487.7853259007, -5058.6914539886
6064, -1558.2066012138, -433.93367918814, -7180.6273130643
6065, -1539.2670434246, -496.95394054863, -7079.6924716206
6066, 1070.4668724013, 1212.6033667657, -2361.7377296076
6067, 1023.4294044114, -1252.556786811, -6071.7268676943
6068, -1536.8078342789, -504.50761193365, -7283.7145981496
6069, 1169.1140062566, -1117.8008276857, -6168.1491338406
6070, 1120.1483548159, -1166.8649935632, -6015.6645387175
6071, 1606.8733982972, -185.10573152895, -6512.6427575031
6072, 1579.5280429801, -348.42131312459, -6522.7219328564
6073, 1607.8137377251, -176.75190177926, -6649.7730833966
6074, 1410.0037602875, -792.58794210809, -4382.1938723972
6075, 1449.8503590668, -717.10542203635, -4298.4981170442
6076, 1480.9789097869, -650.39043563572, -4437.9962796406
6077, 1522.7390786176, -545.5015567814, -4388.9406334366
6078, -522.15318001558, -1530.9024484269, -4935.330291351
6079, -1599.7872064333, 238.71980255579, -6770.3039493606
6080, -1598.1663057061, 249.34054885999, -6625.1250406089
6081, 1536.6402684641, 505.01775744482, -6168.705492672
6082, -1615.3900359705, 82.591050890434, -6788.1463745877
6083, -990.96319462636, 1278.3967290696, -5778.4630218018
6084, -1150.439253265, 1137.0117741461, -5848.8576788567
6085, -1099.2487690852, 1186.5742259398, -5691.9501408437
6086, 1610.7619333657, -147.48641978218, -4917.4856724659
6087, 1615.6595615471, -77.139037985299, -5092.0959114121
6088, 1615.9429854762, 70.954335246004, -5040.9660205335
6089, 1617.4999363245, 0.45386154875305, -4866.3557815873
6090, 1561.7428393634, 421.02916015066, -6049.275305389
6091, 1617.3512132731, 21.938617183364, -116.93310852966
6092, 1609.6895684952, 158.76316662757, 6.5330857578656
6093, 986.44069337831, 1281.8896241281, -589.10147663742
6094, 847.92926749778, 1377.4331952297, -542.9999926884
6095, 723.64801980564, -1446.5959330205, -492.42339446935
6096, 1157.8698738979, -1129.4439362446, -26.957724124599
6097, 112.12798034163, -1613.608864014, 429.30046498056
6098, -1466.9062806336, 681.53665626861, -143.1257299202
6099, -1111.9491782831, 1174.6809247262, -398.11752971047
6100, 1262.8060641031, 1010.7557046411, -5227.4614426994
6101, 1346.3213251772, 896.5071886901, -5172.0965317339
6102, -581.77168732935, -1509.2541051201, -2923.0174234164
6103, -682.29912513754, -1466.5517903697, -2974.3389783211
6104, -593.01441946901, -1504.8721368614, -3115.1359849407
6105, -753.15227279424, -1431.4565672716, -3068.8124150698
6106, 1252.2402770393, 1023.8166528049, -326.45907159577
6107, 1613.3281286005, 116.09737062666, 229.70648672824
6108, 1421.9686407254, 770.91597129233, -6649.8349647987
6109, 1337.7777182537, 909.20681175625, -6662.2384848877
6110, 1319.3742817145, 935.71243165322, -6492.8827458233
6111, 1093.4077833769, 1191.9587531667, -6497.9170796485
6112, 974.68126808231, 1290.8534679232, -6487.4177286736
6113, 1217.763723689, 1064.5927687464, -6507.2442786749
6114, 941.54619370175, -1315.217478262, 760.98527005879
6115, 1395.7348577034, 817.45364210552, -688.40835055343
6116, 1308.0020641646, 951.54445515754, -712.61312489114
6117, 1381.2574172414, 841.68533153172, -575.48902124587
6118, 1431.4988212669, -753.07195852149, -1770.701584222
6119, 1350.4894316171, -890.21601035393, -1593.2846422727
6120, 792.46523689001, 1410.0727280254, -1665.4097106276
6121, 800.56473204352, 1405.4900781607, -1464.9697883681
6122, 712.71697218131, 1452.0126609519, -1766.7944797535
6123, 885.74308995464, 1353.4272897343, -1755.6379781874
6124, 1599.3879236312, 241.38044606559, -1788.6785065538
6125, 1588.7736223687, 303.48744103397, -1956.7113979245
6126, 791.6158003676, 1410.5497774302, 73.917776593272
6127, 1612.8310021995, 122.81045698171, -1945.3404359996
6128, 1612.2256668705, 130.51685363917, -2094.4568782914
6129, 1609.1124939292, -164.50906321861, -6778.3273397229
6130, 1605.764850887, -194.48777251015, -6956.0405704462
6131, 853.1613294773, -1374.198674095, -3640.5562465693
6132, 796.43617782782, -1407.8336779062, -3777.7034394478
6133, 910.04637973039, -1337.2067292456, -3836.0831771116
6134, 1519.2378722546, -555.17793319558, -2943.3372699183
6135, 288.72505089596, 1591.5225713087, -4198.730565791
6136, 1361.3849050624, 873.46287286198, -3158.3258595636
6137, 1404.5686412257, 802.18026782343, -3302.4154604337
6138, 1289.5506662498, 976.40428572122, -3237.6090564409
6139, 933.41631107632, 1320.9997124211, -5398.0344222281
6140, 909.88991446329, 1337.3131995004, -5624.7538058949
6141, 1571.2270259928, -384.12482709373, 106.01956626609
6142, 1600.0795382499, -236.75244723975, -15.496141983279
6143, 1600.4375918792, -234.31979109747, -6371.2334191804
6144, 1582.0070601599, -336.98651546335, -6269.6191580631
6145, -846.00517128438, -1378.6157913502, -5657.0537434572
6146, 1617.0732335743, -37.153832340658, -6455.7903248991
6147, 1615.1720039187, -86.750491394073, -6314.3809865763
6148, -1099.9916767067, -1185.8855598986, -4628.8155455693
6149, -602.61923480994, -1501.0517338976, -4229.1164416222
6150, 1557.3012025512, -437.17183639011, -6099.9874578861
6151, 1606.0719105406, -191.93558339361, -6156.8976235949
6152, 657.89285839608, 1477.6614080605, -2754.2129184838
6153, 605.96598188342, 1499.7037970213, -2893.9327992746
6154, 509.59559046721, 1535.1281979615, -2857.4792670525
6155, 562.8163417246, 1516.4247477167, -2717.7593862617
6156, 753.12645877299, 1431.4701488666, -2664.1426904221
6157, 750.70942863517, 1432.7391960012, -2898.4297764005
6158, 209.98632435581, -1603.8117076464, -739.70379491658
6159, 1461.2970585984, -693.48190786192, -5638.5064477897
6160, 1422.8804180547, -769.23180246037, -5744.2567250144
6161, 112.92842505263, -1613.5530424548, -644.65128393962
6162, -1439.8464108662, 736.98613495495, -292.43868404519
6163, -1604.4671878704, -204.91777142876, -907.96779973964
6164, -1598.0553204064, -250.05088066391, -1081.8292026686
6165, -1343.1952916809, 901.18403137553, -5955.2616065306
6166, -1287.2455572712, 979.44123115454, -6015.775299254
6167, -1239.8405953327, 1038.7981267624, -5724.8305134946
6168, -1211.4159649157, 1071.8104356403, -5965.7270973614
6169, -1295.2627074333, 968.8141043216, -5841.6999319992
6170, -646.73350941186, 1482.5795148335, -4629.9842489937
6171, -99.363566317918, -1614.4451466955, -3234.943248743
6172, 1017.8228816963, 1257.1168726477, -1731.4268077018
6173, 1102.5621434606, 1183.4960793376, -1732.6564110797
6174, -795.32873252967, 1408.4596043951, -4651.2836066817
6175, 765.893677076, 1424.6800080773, -1305.985731383
6176, -1180.7397728861, -1105.5133824269, -4679.3818315291
6177, -1299.1976146074, -963.53090671679, -4578.0914215329
6178, -1161.8966076056, -1125.3010811488, -2717.3364660302
6179, -1223.9262101256, -1057.5021901479, -2858.0249942241
6180, -1132.8813677835, -1154.5068455964, -2945.6241788624
6181, -1065.4899005701, -1216.9788501791, -2804.9356506685
6182, -672.14274197843, 1471.2343064263, -5923.7378962432
6183, 631.22975949164, 1489.2465345711, -4938.9803966014
6184, 748.30975425636, 1433.9939894172, -5092.0150021276
6185, 797.27828983694, -1407.356947812, -3492.1390689194
6186, -714.49133510084, -1451.1403729708, -3571.9176259129
6187, -820.09882953123, -1394.1822548725, -3625.8013500335
6188, -1264.4134338187, 1008.744228424, -4547.7279227614
6189, 999.58995731313, 1271.6627568812, -5972.3576289389
6190, 866.70321129213, 1365.6982805642, -6085.4966827852
6191, 511.18195148471, 1534.6006850241, -1775.8651736747
6192, -1567.2994505272, 399.84832421462, -3771.6969745997
6193, -1542.6344709865, 486.40018392703, -3637.9619710744
6194, -1499.601127067, 606.22001756746, -3703.8801660845
6195, -1530.9969131331, 521.87613662338, -3837.6151696098
6196, 324.29138034793, -1584.6581179018, -5763.6831539691
6197, -1598.4428843378, -247.5612964696, -325.57285062789
6198, -1560.5253054053, -425.51970716962, -491.19379636759
6199, -1321.5547532727, 932.63030408748, -4476.0908028914
6200, 1423.4673361406, 768.14516397667, -5140.7357276695
6201, -609.17566449829, 1498.4029030214, -605.9800550137
6202, -600.03543585027, 1502.0864574731, -751.52726229017
6203, -120.83390469525, -1612.9802904797, -2781.3092817277
6204, 885.57135465128, 1353.5396654037, -5249.0658722759
6205, -444.59844259599, -1555.1972462814, -4842.8809448375
6206, -397.68811418856, -1567.8489767299, -4729.5473478179
6207, 1318.318310142, 937.1995962143, -4582.8023351522
6208, 1304.5978034969, 956.20647410018, -4445.2841507158
6209, 1395.0771727411, 818.57555063452, -4552.2687880814
6210, 293.77845638499, 1590.5975193505, -5127.3611303321
6211, -452.57952977828, 1552.8934346006, -6401.2619545764
6212, -1608.2920104922, -172.34575418912, -5126.4222561609
6213, 1436.7387389206, 743.02627550106, -3387.2038397793
6214, -287.13748833873, -1591.8097602385, -4920.5015661398
6215, 516.70154398173, -1532.7510445101, -4930.748635426
6216, -167.16917947859, -1608.8383123958, -4814.9929154392
6217, -121.08578711553, -1612.9614013232, -5040.5477132006
6218, 1203.0502219447, -1081.1921260715, -6333.0258313269
6219, 1089.6750836964, -1195.3721018876, -6549.1238482289
6220, 1225.7101222577, -1055.4340084511, -6500.6452152756
6221, 1441.1578446957, 734.41835262477, -5555.0903159389
6222, 1380.999209933, 842.10891941869, -5633.9247253496
6223, 1274.7518927722, -995.64745862865, -6114.0470054722
6224, 1193.6485439965, -1091.562826142, -4612.2227801942
6225, 1089.4194637385, -1195.6050694221, -4686.693438168
6226, 1237.8054162564, -1041.2223592904, -4713.8193589621
6227, 1242.9810490325, -1035.0383382977, -4516.279471779
6228, 1107.8409985611, -1178.556138632, -4542.159721949
6229, 1605.3671695763, -197.74352289405, -353.98063102494
6230, 1593.812541603, -275.80397428081, -224.76603692058
6231, 1616.3161592522, -61.873446163365, -312.01487264004
6232, 1612.2163365374, -130.63205656318, -485.58484154357
6233, -969.5575445609, 1294.7063056095, -5348.9837072908
6234, -1081.3617422238, 1202.8977647559, -5313.6165658949
6235, -134.96154438983, -1611.8596810938, -4214.7031632075
6236, 753.3316764331, 1431.3621607694, -5252.0128018253
6237, -433.32993516287, 1558.3746074971, -3905.2124203839
6238, -599.6901918182, 1502.2243254045, -3815.0399789738
6239, -541.00322395188, 1524.3430590499, -3679.458121765
6240, -372.59126444004, 1574.0019058638, -3769.6305631752
6241, -1278.2689655538, 991.12799461123, -2400.0249910142
6242, -1241.0573254883, 1037.3441882287, -2288.9775772502
6243, -1168.0105759887, 1118.9537722259, -2348.541481454
6244, -1208.2645573363, 1075.361803992, -2459.5888952179
6245, -1193.4806669521, 1091.746375131, -2171.9201380304
6246, -1317.096930097, 938.91529262705, -2210.9439719553
6247, 233.30452329094, -1600.5859081636, -513.21540192187
6248, 120.98768321745, -1612.9687630297, -419.46255548225
6249, -1487.4168997197, -635.52908385716, -1228.8653598988
6250, -1483.71712768, -644.11934843549, -1083.6511169473
6251, -1529.6362589133, -525.85089656452, -1240.6170232387
6252, -1473.741285218, -666.62798789426, -1377.962572009
6253, -1414.3126463857, -784.87323070253, -1179.9520719017
6254, 1563.4341939815, -414.70443823227, -3008.4351507841
6255, 1579.4891309855, -348.59766938214, -5172.7080061681
6256, 1546.5390045156, -473.83895736003, -5098.5095728379
6257, 1528.0258088064, -530.51237273186, -5199.3239647204
6258, 1546.8442431861, 472.84155625532, -1337.3019019984
6259, 1504.8731045135, 593.011963886, -1370.2297181941
6260, 1492.9964264451, 622.30854133786, -1257.4465024198
6261, 842.11169531929, 1380.997517234, -6460.2383177015
6262, 727.83157059134, 1444.4955710734, -547.73357209487
6263, 1483.3699860623, 644.91839363568, -6641.3639448791
6264, -859.41257780348, 1370.297876782, -5461.7129669198
6265, 1550.4233028452, -460.97053267501, -1356.0140351523
6266, 1520.194634158, -552.5527343859, -1189.6447818524
6267, 930.15253018958, 1323.2998604179, -3826.4903972218
6268, 1543.2579681167, -484.4183046131, -1090.1991151423
6269, 1496.9572318483, -612.7195900386, -967.52944239585
6270, 705.91841652171, 1455.3300104153, -3856.7065221927
6271, 511.19903683852, 1534.5949937151, -3821.175398889
6272, 612.19971660999, 1497.1699158688, -3746.3609945943
6273, -938.54054196716, 1317.3639971868, -860.44638540285
6274, -1048.8954006408, 1231.310151227, -897.93075026298
6275, 1364.3489373044, 868.82577498384, -6801.6427889443
6276, 1423.0829068481, 768.8571325264, -6818.2634719934
6277, 1220.1672694332, 1061.8371271545, -6678.3038505671
6278, 849.09822464325, 1376.7129166633, -675.68031344083
6279, 729.05749829117, 1443.8772157581, -680.4138928473
6280, 1231.3414956305, -1048.8586039779, -6676.4600715374
6281, 1143.3191058802, -1144.1711725652, -6697.739463155
6282, 915.36581829143, 1333.5710212447, -785.19443600168
6283, 1465.0446578279, -685.52928498349, -6099.9292165436
6284, 1423.3973620729, -768.27482038908, -5953.5013675557
6285, 1353.5228240651, -885.59709503524, -6050.3592398916
6286, 1617.3692449709, -20.566366284701, -6649.5114959301
6287, -1615.2236859762, 85.782831973881, -1277.4919733984
6288, 1612.8686740003, 122.31471877299, -6640.5432755217
6289, 1088.0258645672, 1196.8734135375, -1893.0484430578
6290, -1418.6393502744, 777.02551042612, -4069.052390181
6291, -1305.1277783222, 955.48298375829, -3986.7395629251
6292, 1031.1616196002, 1246.1990066854, -2018.1442660474
6293, 970.72682927747, 1293.8298469741, -1818.8350008282
6294, 1615.1698408358, -86.790755581053, -770.92293205806
6295, 1617.4984711235, 2.2239408914138, -855.03618176391
6296, 1232.5790989811, -1047.403940586, -5970.0476187545
6297, 1202.7945995352, -1081.4764913437, -5816.5258191735
6298, 1087.0658307936, -1197.745436026, -5862.1427391366
6299, 1315.8243289139, -940.69792464863, -5906.3598531739
6300, -1405.2455638858, 800.9938546451, -5235.1817257963
6301, -1403.7173744555, 803.66895090693, -5380.8183863571
6302, 374.23138346286, 1573.6127610157, -3323.1455236805
6303, 509.53263116333, 1535.1490962704, -3313.8744283387
6304, -1084.7270217215, -1199.8639666009, -1274.7057181614
6305, -1616.8841552056, 44.63046767787, -2930.4897665075
6306, -1597.7792182867, 251.80909358305, -3045.2868633137
6307, -1615.8368356116, 73.331921293549, -3091.3027838226
6308, 1531.7423391695, 519.6841890952, -2668.3126852254
6309, 1509.922110422, 580.03574929379, -2546.887747238
6310, 1492.4158942075, -623.699485904, -1953.8709090001
6311, 1499.3041640244, -606.95409524857, -1791.9118996546
6312, 1587.6226715826, -309.45193920353, -1884.1793073982
6313, 1553.1351474419, -451.74933733293, -1842.139171862
6314, 1544.574429731, -480.20420762531, -1980.1364754557
6315, 228.38075577813, -1601.2958753429, -5613.3491767404
6316, 336.41244398224, -1582.1292354084, -5545.7602258546
6317, 1566.2233961976, -404.0427244777, -1650.8019640225
6318, -1285.123009955, 982.22456662623, -843.46113003613
6319, -1336.8444834303, 910.57842996747, -963.76706857988
6320, -1390.97565787, 825.52587434506, -877.2219611141
6321, -1601.6051648457, 226.20156042705, -3205.0598661283
6322, -1564.7418306334, 409.74291142853, -3070.4591732284
6323, -1571.1000189177, 384.64396596962, -3230.232176043
6324, -1176.3588723005, 1110.1738843803, -1283.2658461506
6325, -1116.1614369603, 1170.679245841, -1093.5290195396
6326, 872.35371572997, 1362.0959014152, -2563.7981028874
6327, 694.88033843423, 1460.632590783, -2545.2267665539
6328, 446.70026966941, 1554.5948408114, -2574.6970133815
6329, 580.82111293034, 1509.6201789769, -2585.921788714
6330, 115.60332831727, -1613.3636045486, -5543.5993568456
6331, 1389.7533543944, -827.58193790682, -4506.8420007921
6332, 1464.2604123177, -687.20280479572, -4562.6444080354
6333, 1517.8624311611, -558.92744615892, -4623.564584399
6334, 1440.3328725432, -736.0349626693, -4685.5300606563
6335, 1611.2815570321, 141.69683824354, -1464.0299746428
6336, 1614.7912862484, -93.570037171673, -1376.4421499666
6337, 1617.4577697403, -11.688160961028, -1524.2938539496
6338, 1361.5774723006, 873.16266349609, -817.76741245328
6339, -1479.9333427308, 652.76607684034, -2113.1420599294
6340, -1433.1704986234, 749.88570587487, -2236.3590332366
6341, -1512.1425389466, 574.22224957596, -2190.8141436039
6342, 1432.5196107106, 751.12836115386, -2486.0190674525
6343, 1487.0288544674, 636.43651370853, -2425.0722373563
6344, -1466.0631638204, 683.34841017514, -4383.1882996976
6345, -1425.2627591939, 764.80868016442, -4282.3932860124
6346, -1374.1209891808, 853.28644492496, -4379.7335074672
6347, 1277.211998255, -992.48967829066, -5807.847708355
6348, 1371.3622472372, -857.71314368652, -5840.8052717855
6349, 297.71744087256, 1589.8649550828, -1721.5616183113
6350, 356.88128321618, 1577.6381079608, -1819.8616160025
6351, 212.71273528175, 1603.452382283, -1769.6929147717
6352, -1317.7652702182, 937.97704801699, -5311.3732972903
6353, -1511.7130013178, -575.35211101272, -2494.4523743348
6354, 1617.33189676, 23.319213593695, -3489.4864004236
6355, 1606.4828161666, -188.4654115784, -3465.1007338344
6356, 1616.2977748581, -62.35184831778, -3583.0559195152
6357, -661.25462913352, -1476.1600744667, -2176.7827936751
6358, -736.71248514594, -1439.9864458494, -2308.5625251788
6359, -1593.5952164096, 277.05691876654, -2568.9624725489
6360, -1612.3528507919, 128.93616460567, -2580.8495055046
6361, -1613.6746981447, 111.17651985695, -2426.9883159929
6362, -1596.5489940979, 259.49481583457, -2415.1012830373
6363, -944.98899652514, -1312.7459946412, -2059.1714802108
6364, -849.90535898779, -1376.2147836598, -2181.6082938803
6365, -768.44869663886, -1423.3034991294, -2073.5819738311
6366, -1615.7854865106, -74.454761981811, -2265.8897448731
6367, 1293.7435479106, -970.84184203178, -4832.1127219575
6368, 1383.7371334449, -837.60240897806, -4735.3957596334
6369, 1335.0627488506, -913.18875739444, -4617.102396638
6370, 1407.7274522776, -796.62392011784, -4871.6586222262
6371, 1592.3194585938, -284.2973650661, -3602.7729261568
6372, -1190.7178003852, 1094.7590464782, -5598.9509337367
6373, -1125.9996426176, 1161.2196410778, -5457.0313959263
6374, -1316.5834622323, 939.63516163258, -5636.7529905993
6375, -1271.9431636369, 999.23312519017, -5510.8734108415
6376, -1565.8569204099, 405.46066986151, -2254.8588476298
6377, -1565.519406609, 406.76189291862, -2425.6514139529
6378, -23.182328889333, 1617.333864614, -1878.9169336362
6379, 96.342095011965, 1614.628270138, -1813.7540434768
6380, 198.69356315234, 1605.2498615362, -4572.5724939651
6381, -1405.2940441443, -800.90879598898, -1838.9280981066
6382, -1314.1248316713, -943.07061070996, -1987.2689301518
6383, -1445.7454838947, -725.34560438316, -1535.8771466019
6384, -1423.8760834119, -767.38722239003, -1695.8924966223
6385, -1373.2363945558, -854.7093392888, -1009.2901037029
6386, -1433.2231388448, -749.78509206291, -1066.9227446644
6387, -1320.2859185746, -934.42567559626, -891.95543701908
6388, 1255.4248096753, -1019.9092102985, -1597.5453438477
6389, 1152.2593735902, -1135.1672061743, -1596.620929733
6390, -16.131423530676, 1617.4195581774, -3178.43396292
6391, -150.71926141137, 1610.4626522337, -3171.4963254249
6392, -147.17340414861, 1610.7905633916, -3057.1625857771
6393, -12.570576544857, 1617.4511524634, -3064.1002232722
6394, 99.576781069414, 1614.4320099254, -4594.132705728
6395, 1250.5340088877, -1025.9000646336, -1431.3152040292
6396, 61.945749840301, 1616.3133898093, -3258.6102931219
6397, -32.350244347424, 1617.1764627556, -3359.7021124346
6398, -110.3591927198, 1613.7308011506, -3279.5257822327
6399, -5.3925981704502, 1617.4910107586, -779.64219154631
6400, -72.564245964191, 1615.8714924794, -842.08101543953
6401, 1595.4274202332, 266.30358008863, -1454.1234822879
6402, 1606.2240566217, 190.65814939235, -1641.4604098339
6403, -1569.7832244136, -389.9831770085, -2043.3593370849
6404, -1510.8441275538, -577.62987477799, -2021.074764083
6405, -1552.3106798998, -454.57430973267, -1948.4286340253
6406, -1587.4669346561, -310.24986925621, -2342.1582085158
6407, -1585.248761242, -321.39168467904, -2144.8608051627
6408, -1603.999461935, -208.54729946072, -2252.0202048453
6409, -1343.7930063804, -900.29251135568, -5576.4397154066
6410, -1401.447456356, -807.6207507694, -5475.8414802176
6411, -1444.6513555096, -727.52230964022, -5551.4945088094
6412, -1392.300201733, -823.28998430344, -5652.0927439985
6413, 1032.5470772652, -1245.0513175091, -3891.7736053337
6414, -1234.7468780537, 1044.8475473181, -5381.4370660796
6415, 1463.4829885529, 688.85687353489, -2306.2214359292
6416, 1403.5935898729, 803.88511894902, -2366.3370793192
6417, 1367.8968560091, 863.22907812497, -2548.9021770427
6418, -476.46178106891, 1545.7329721464, -1852.5701789985
6419, -372.50028452503, 1574.0234394788, -1793.0288880418
6420, -426.25457857378, 1560.324736792, -1974.8430929238
6421, -575.89761437514, 1511.5052721565, -2035.7767580715
6422, -624.44878737397, 1492.1025306416, -1913.5038441462
6423, 421.93563613034, 1561.498180903, -1709.2346136248
6424, 447.16532417822, 1554.461135845, -1886.4921760525
6425, 1609.7290528286, 158.36232657947, -4590.0025326988
6426, 1576.3779881312, 362.40679979217, -4510.5022830374
6427, 1138.3624206937, -1149.1028018208, -3945.7706214801
6428, 1615.347210522, -83.42445360281, -961.37358228908
6429, 1606.3390969336, -189.68646673501, -836.7726089797
6430, -1556.210105545, -441.04008593285, -3876.8445894746
6431, -40.623493498958, 1616.989790251, -956.3567049311
6432, -1327.3522925674, -924.36039585003, -3113.4833940378
6433, -1421.5274140508, -771.72926671337, -3232.7033529286
6434, -1345.6944162034, -897.44793063383, -3250.2084067057
6435, 12.42633471239, 1617.4522670563, -1093.6452949074
6436, 79.103176801922, 1615.5645878206, -923.42390072728
6437, 132.04186842302, 1612.1014840832, -1060.7124907036
6438, -1144.7205370837, 1142.7690676505, -1417.3453110037
6439, -1233.4779782997, 1046.3452236474, -1467.3078971347
6440, -1262.3736647384, 1011.2956939367, -1333.2284322816
6441, -1554.1036991475, 448.40600162815, -3329.5305000903
6442, -1498.3659872382, 609.26645918487, -3411.3545487316
6443, -1543.4102250708, 483.93297794917, -3463.7663239061
6444, -1453.1409685363, 710.41366510046, -3435.5250132192
6445, -1342.4879122758, 902.23747172974, -3287.4062643874
6446, -1370.4079529846, 859.23704086624, -3468.0781979602
6447, 1522.0096160549, -547.53354110636, -5954.2702189824
6448, 555.67605510351, 1519.0557500581, -2443.3751327467
6449, 1587.1279896666, 311.97915702313, -1298.0866294368
6450, -1560.2317883025, 426.59467503766, -5855.1418077515
6451, -1496.6983295845, 613.35174265586, -5902.6274897196
6452, -370.35538200438, 1574.5294983011, -5870.735166311
6453, 1342.67855979, -901.95373222812, -4954.1472016211
6454, 1387.5806776437, -831.21965390015, -5073.5832463701
6455, 1441.5155180513, -733.71606307715, -5198.365608302
6456, 1491.1643790601, -626.68576226242, -5302.6117480446
6457, 1607.7764831271, -177.09045796809, -654.8382750707
6458, -1538.4832442718, 499.37516667814, -1432.0929179373
6459, -1553.2225416189, 451.44876365637, -1294.3030406869
6460, -1601.9042390911, -224.07377977337, -4134.8020019069
6461, -1614.6072128105, -96.694355265205, -4226.7956372101
6462, -1306.3563634451, -953.80254858459, -2785.0020020512
6463, -1252.6016737839, -1023.3744655959, -2621.27286726
6464, -729.53506329997, 1443.6359795377, -4155.0309238387
6465, -818.45364717016, 1395.1486936645, -4259.7338285779
6466, -1261.7213338558, 1012.1094435352, -3331.5457839417
6467, 36.970653513499, 1617.0774319057, -3462.7000384046
6468, -146.63598500702, 1610.8395754702, -3431.8436630334
6469, 1598.0006294274, 250.400156449, -5882.1918481391
6470, 1612.9116268903, 121.747007529, -5817.8149882839
6471, -1590.6513402285, -293.48690572033, -3911.0208089257
6472, -1612.5249463272, -126.76571883829, -3983.3056020294
6473, 1507.9312503529, -585.19192937806, -5540.3440331535
6474, 1610.7146601922, -148.00180215742, -1552.1538644517
6475, 1614.9978367358, -89.934628140451, -1686.9499713298
6476, 1616.8305086612, 46.533388684775, -1659.0899608276
6477, -357.19389118718, 1577.5673596074, -3579.5505870779
6478, -236.59429798624, 1600.1029304893, -3507.5697099525
6479, -324.24676429627, 1584.6672476717, -3677.755345272
6480, 1614.5488874107, 97.663402361118, -1806.3080575475
6481, -759.92869319223, 1427.8706633527, -2794.7017010662
6482, -676.40442030441, 1469.2798610859, -2670.8039804475
6483, -564.149763542, 1515.929185119, -2737.318451712
6484, -988.28377830656, -1280.4692200659, -3637.2557578774
6485, -1092.8739135676, -1192.4482626275, -3722.1440319716
6486, -764.60278628723, 1425.3732245282, -1574.7845452662
6487, -724.66007449403, 1446.0892180064, -1423.5689965438
6488, -600.70970293785, 1501.8169338492, -1460.2582803164
6489, -395.88810172546, 1568.3044541517, -2881.8066085123
6490, -469.46236977555, 1547.8731644953, -2823.6307190758
6491, -784.15493916183, 1414.7110239862, -1935.5339602972
6492, -807.35706761635, 1401.599377629, -1758.3293460096
6493, -1177.0463856057, -1109.4449315458, -5448.4347390542
6494, 115.64478835434, -1613.3606332517, -5330.3931715109
6495, 247.42377645985, -1598.4641769031, -5247.0745062699
6496, 340.79255443527, -1581.1915395807, -5355.529702714
6497, 230.6565388356, -1600.969647149, -5423.1722158565
6498, 1502.5931145143, -598.76554862014, -727.57652829525
6499, -1600.9788185565, 230.5928718185, -847.91866902343
6500, -1615.0861208111, 88.335000782557, -953.98915289107
6501, -1612.7793420638, 123.487018801, -826.06173433551
6502, -37.157325465414, 1617.0731533126, -4601.6463817582
6503, -56.228693027428, 1616.5223735168, -4461.0423986788
6504, -1587.2444460686, 311.38612432862, -761.91276970867
6505, -1614.1797793793, -103.5851815798, -5857.2883274627
6506, -1616.0830089308, -67.690163577507, -5612.2683359785
6507, 941.24355985505, 1315.4340770375, -2989.1666757622
6508, 1043.1997039705, 1236.1394046125, -2831.2375214755
6509, -134.62072677007, 1611.8881815821, -4797.1027603312
6510, -777.01095915071, -1418.6473202878, -3195.3364521567
6511, -988.42401925352, -1280.360967916, -3226.3871338048
6512, -853.02955479988, -1374.2804766997, -3313.382708843
6513, -1354.2241988691, 884.52420498102, -2802.4910136315
6514, -1423.5183869842, 768.05055297032, -2773.4462975123
6515, -1407.9844636284, 796.16958003998, -2634.2488107741
6516, -1336.3908218893, 911.24410624702, -2663.2935268933
6517, -1475.7216703205, 662.2324378542, -2606.5954645898
6518, -1485.9535211763, 638.94317658449, -2756.5226825792
6519, -1535.4846405447, 508.5205685628, -2734.5108833017
6520, -1527.2977053614, 532.60489032463, -2584.5836653123
6521, -1351.0184205755, 889.41299589437, -5440.8096420522
6522, 1467.5584988171, 680.13109217981, -4499.5228392553
6523, 1488.0954736724, 633.93857055383, -4653.3415454353
6524, -952.03691991792, 1307.6436644259, -2862.1945439593
6525, -876.91129149143, 1359.1662285588, -2730.087833223
6526, 1502.5733340482, 598.81518501718, -4306.7135933518
6527, 1520.5694186482, 551.52052824169, -4440.2264253256
6528, -1378.8870333804, 845.56300721784, -5549.3657832021
6529, -891.64351151839, 1349.5473679598, -4617.1243465623
6530, -1588.5879010218, -304.45809354858, -1749.5091536939
6531, -1600.9144739649, -231.03916778246, -1627.357387579
6532, -1605.1200333126, -199.73965219407, -3459.1726046053
6533, -1616.3578476502, -60.774652114786, -3282.1380602055
6534, -1617.0064204512, -39.956053602185, -3435.0175410229
6535, 190.1063484328, 1606.2894590595, -5046.8923510754
6536, -20.158671753334, 1617.3743777967, -4982.9487551833
6537, 254.54945647697, 1597.3449296277, -4939.9637504854
6538, 36.377645986273, 1617.0908808328, -1689.6673461669
6539, -1471.0436373504, -672.5599356272, -1873.1878665548
6540, -1516.6294980393, -562.26436458034, -1884.3602761953
6541, -1093.5288183635, -1191.8477140174, -2567.3935424757
6542, -1568.6188908446, -394.64037462664, -1857.5961682607
6543, 1537.1836776794, 503.36129278696, -5870.4164551024
6544, 1574.6039419855, 370.0387491651, -5934.964258658
6545, -118.49908437605, 1613.1535007562, -2453.65233887
6546, -268.27884693841, 1595.0964579879, -2476.0587720225
6547, -1260.3693125624, 1013.7926049992, -3679.1545638115
6548, -1307.5281426832, 952.1955713463, -3520.1336988322
6549, -1232.2455275109, 1047.796358998, -3453.1456812198
6550, -1180.5895016404, 1105.6738572547, -3612.1665461991
6551, -841.07861325262, 1381.6269454267, -1367.5023287115
6552, -786.53486914112, 1413.3892420792, -1209.1630253306
6553, -1253.1846863934, -1022.660447944, -3199.1589299266
6554, -1198.5582824026, -1086.1695510757, -3091.8986496587
6555, -1277.7156688115, -991.84117663745, -3006.2231137699
6556, -1549.340956363, 464.59536258574, -4194.4479153084
6557, -1325.2925883485, -927.31106176328, -3366.6629341991
6558, -1230.0064417609, -1050.4239159628, -3315.61345742
6559, -1550.2142324255, -461.67313500499, -5949.7792941328
6560, -1601.3151303379, -228.24570828569, -5954.0493001737
6561, 1295.7207354375, 968.2014386259, -911.98478743131
6562, 1358.2760876619, 878.28942819891, -440.60973938609
6563, -1482.5782460107, -646.73641806837, -934.81908217354
6564, 348.06319591787, 1579.6069959479, -2445.0151568176
6565, 467.22282953204, 1548.5506377139, -2470.0688653423
6566, -1612.7859831505, 123.40025345764, -1990.7059018468
6567, -1604.2224817215, 206.82475465802, -1898.7941539924
6568, -1584.6619061413, 324.27286846846, -2018.1582331917
6569, 1616.5885975761, 54.291400672617, -2391.2430159557
6570, 1617.3360917625, -23.026425741189, -2243.0748156723
6571, -1589.9394288641, 297.3194621, -1752.6694727885
6572, -1616.3008348358, 62.272476336969, -1802.2832688504
6573, -1616.5053588063, -56.715738119534, -2084.0775662065
6574, -1617.3497944401, -22.042967687251, -1949.2367935277
6575, 1614.4641668558, 99.054045543272, -5694.0651490705
6576, -1276.8899904903, 992.9039239451, -3808.760681107
6577, -1171.1099197678, 1115.7095526262, -3848.0414665504
6578, -1202.9510085582, 1081.3025113301, -4026.0203483684
6579, 396.2642390151, 1568.209457591, -3768.1900856578
6580, 204.23937758241, 1604.553684563, -3816.581318795
6581, 156.49632630087, 1609.9115347914, -3704.1096729735
6582, 172.80661837861, 1608.242557155, -3391.4052465877
6583, 113.73695164688, 1613.4962521897, -3582.1501778475
6584, 605.01478575605, 1500.0877837702, -2186.72550465
6585, 536.53504476881, 1525.9214906852, -2338.8408183942
6586, 513.76034668448, 1533.7394029543, -2212.3842587542
6587, 759.13688979768, 1428.2917883081, -2158.2613894313
6588, -922.73635604649, 1328.4817903268, -2504.1969939616
6589, -1016.3721271523, 1258.2900894261, -2373.1714624983
6590, -905.50412467202, 1340.2867343229, -2258.0565996736
6591, -806.2300631692, 1402.2479578313, -2389.0821311369
6592, 1617.0453859818, -38.346703575601, -2099.3084479753
6593, 1610.9169145532, 145.78389625214, -2238.2232459883
6594, -725.73438163806, 1445.5503648467, -1043.2868232096
6595, -680.80175399743, 1467.2474984658, -927.58250630629
6596, -578.20369554779, 1510.6246179825, -997.78388091891
6597, -572.66493724789, 1512.732996813, -868.78987719334
6598, -486.26240655079, 1542.6779061021, -997.71842253107
6599, 1310.9433723196, -947.48811315567, -1093.1810864746
6600, 1240.4095079004, -1038.1187324725, -1276.1984577156
6601, -143.88385719447, 1611.0877336877, -2313.890421379
6602, -302.95693393329, 1588.8748680062, -2312.5384975061
6603, -312.67855103271, 1586.9903508604, -2164.1582335612
6604, -153.74444538413, 1610.1766659325, -2165.5101574341
6605, 1538.0596045616, 500.67844253167, -4573.2309490962
6606, -1606.3788107011, 189.34985220623, -650.38680002297
6607, -1590.7933324294, 292.71628498959, -527.30517717636
6608, -1617.4124028233, -16.833573399634, -774.08744235762
6609, -391.73010267292, 1569.348201216, -2491.2412694544
6610, -425.81809907704, 1560.4439100776, -2327.720994938
6611, 92.507228083779, -1614.8525204341, -206.15735767764
6612, -454.53147175765, 1552.3232238106, -2603.6950854726
6613, -1614.9394362576, 90.977289582665, -5558.9073425592
6614, -1599.8333951867, 238.41006196323, -5473.6225396155
6615, 1150.7194605654, -1136.7281878603, -1444.07516636
6616, -1612.3993501487, 128.35336240293, -3384.7605548574
6617, -1609.2745657199, 162.91599714837, -3561.1642587121
6618, -137.49359174126, 1611.6456689453, -2035.1757314931
6619, -1373.8682942457, 853.69324705442, -2909.9979759699
6620, -1434.6877447406, 746.97879828764, -2928.3483713953
6621, -472.29714791186, 1547.0105539635, -3544.6719581071
6622, -439.10548778038, 1556.7570846478, -3365.0857150927
6623, -323.37508117298, 1584.8453574013, -3399.9643440636
6624, 1491.1941760207, 626.61485731015, -5467.5100954146
6625, 1519.9719628415, 553.16496831935, -5581.9922460487
6626, -234.13489259182, 1600.464651928, -3324.2382971445
6627, -35.632053984445, 1617.1074815017, -2900.0430405139
6628, 94.212493645127, 1614.7539304926, -2874.5240551027
6629, -1208.8416812038, -1074.71300345, -2023.5996874785
6630, 1617.227218993, -29.704749591063, -4610.129090914
6631, 1613.998698865, 106.36940378743, -4692.0157435938
6632, 1616.6554605829, -52.2625273737, -4737.2106059764
6633, 1609.6745923553, 158.91493550226, -4821.1609192047
6634, -1464.8523867151, 685.94003756538, -4141.785490507
6635, 1611.8043132291, -135.6211851296, -149.37770726509
6636, -1510.564659055, 578.36032091941, -4290.9001931437
6637, -1511.7433066937, 575.27247862809, -4045.3332126717
6638, -872.76771403726, 1361.8306676434, -1146.5173922996
6639, -814.08123965727, 1397.7045414672, -980.64119017858
6640, -1014.5120979406, 1259.7902417197, -1047.131385071
6641, -927.89803428197, 1324.8816882936, -995.87396439372
6642, -185.36865643437, 1606.8430885471, -3772.0274403538
6643, -16.63506867988, 1617.4144566221, -3823.0540563365
6644, 121.71905375148, 1612.9137366747, -3900.865295081
6645, -1612.4870283658, -127.24713494565, -6083.0888490518
6646, -1617.2868954671, -26.255432776592, -6182.5889797304
6647, -1611.6886466401, -136.98889112448, -6297.6663174905
6648, -1615.2740573826, 84.829060744412, -6108.7020202767
6649, -1617.4987326476, -2.0248169119144, -5986.3278763409
6650, -1605.0520727481, 200.28503131061, -432.0576503043
6651, -1616.4924944518, 57.081217410408, -6335.9148157385
6652, -1584.300697086, -326.03305233179, -1232.4169611488
6653, 760.71630364788, 1427.4512094514, -3559.1431652724
6654, 793.17532073104, 1409.6734233798, -3697.2493161692
6655, 927.40969258296, 1325.2235706111, -3404.7721668591
6656, 931.08050101773, 1322.6470998058, -3224.6172986659
6657, 807.78404334362, 1401.353342066, -3845.9501652448
6658, 1026.4454850971, 1250.0863634661, -3129.7682848562
6659, 841.2744753465, 1381.507693475, -3084.0156895719
6660, 1572.5214859185, -378.79074213166, -1220.2339334379
6661, 1594.0670493468, -274.32916758317, -1315.0398383535
6662, 1606.0943365978, -191.74783427325, -1432.5075509378
6663, 1577.4330222728, -357.78668259646, -1450.8199400679
6664, -44.352606699113, 1616.8918010427, -1540.3988824684
6665, -169.91882394018, 1608.5502302604, -1596.5528057861
6666, -279.35410921228, 1593.1941286818, -1698.3616432913
6667, 1610.6235296185, 148.99025417592, -3561.3821676849
6668, -1185.0207258579, -1100.9233076319, -1351.7463495827
6669, -1354.7616686644, 883.70078143999, -3663.4964006236
6670, 1615.7508801969, 75.202015552195, -3677.0984866154
6671, 1604.1451912594, 207.42337225935, -3759.3174171383
6672, -1567.8217545918, 397.7954195674, -2569.2073415572
6673, -1566.9232891854, 401.31989211664, -2690.1481346782
6674, -1413.0101180141, -787.21576228493, -3400.5972882351
6675, -1492.1693879342, -624.28900976391, -3258.3346283493
6676, -1485.2589062956, -640.55618900272, -3426.2285636557
6677, -1310.1673866364, 948.56084095555, -1511.0046795727
6678, -1380.1170622241, 843.55387768531, -1564.7138112655
6679, -1338.4914176115, 908.15580985882, -1386.4836115453
6680, -1344.1650826839, 899.73689514963, -1678.6052287679
6681, -1402.7856346523, 805.29417805748, -1740.0153922467
6682, -657.62207055477, -1477.7819400437, -3372.2334608492
6683, -765.78745558553, -1424.7371065807, -3424.7152413619
6684, -1361.4685765237, 873.33244823411, -1256.6653221801
6685, -618.12460939773, -1494.7334937228, -3241.6600220276
6686, -1118.7735038882, 1168.1832463264, -3726.3978892228
6687, -1006.2558503809, 1266.3946515894, -3809.0955308743
6688, -1063.209127625, 1218.9719442771, -3930.7391082019
6689, -1397.9610920024, 813.64060570223, -1017.5757310073
6690, -1380.3331483651, 843.20024283939, -1124.8428920969
6691, -1105.0874631143, 1181.1384122395, -4044.6735184085
6692, 852.72666521709, 1374.4684370431, -3501.6728846199
6693, -1051.9964791054, -1228.661734551, -3831.6812158636
6694, -890.50725174422, -1350.297405978, -3530.8754664841
6695, 1532.3696877825, 517.83143006721, -5384.1926367205
6696, 1587.1164372657, 312.03792167152, -5404.2838426048
6697, 1554.6898260928, 446.36957181646, -5501.8326500726
6698, -1611.3616421774, 140.78319544386, -3826.798910891
6699, -1598.5701652957, 246.73807291613, -3680.8781767954
6700, -1397.6201935274, 814.22604026433, -2467.5537567956
6701, -1616.5608711356, 55.110796703464, -1134.1019658535
6702, -1614.6562923444, -95.871307453024, -1124.271695941
6703, -1616.2860770101, -62.654347520604, -944.15888297856
6704, 245.21731309527, 1598.8041529088, -3993.9422129948
6705, 326.85199134265, 1584.1319470787, -3909.6582367089
6706, -984.1529026037, 1283.6468806867, -3211.510587651
6707, -847.11320736843, 1377.9352175999, -3271.1847864387
6708, -895.31742731791, 1347.1128216823, -3390.5346598302
6709, -1028.9366389452, 1248.0367154199, -3330.8604610425
6710, -1567.0578284907, 400.79422671252, -3561.0349182733
6711, -1514.4487359316, 568.11202789169, -3540.6933767072
6712, -1089.4691743571, 1195.5597718749, -2249.1058392651
6713, -1099.3342051826, 1186.495071762, -2472.6071046871
6714, -1546.2349079932, -474.83034791728, -2428.7772573719
6715, -73.061932140537, 1615.8490659934, -4194.8758460506
6716, -186.54660870189, 1606.7067600473, -4149.0964316179
6717, -1115.9737557492, 1170.8581581383, -2589.1207352175
6718, -1223.3244474005, 1058.1982547672, -2576.1025257483
6719, -1585.8508185567, 318.40764953616, -3441.3210001899
6720, -1597.5183378996, 253.45889227757, -3342.0226761426
6721, -1144.362366136, -1143.1277378192, -3277.8428783491
6722, -1100.3232504722, -1185.5779158159, -3170.9250008465
6723, -89.448377536933, 1615.0248412195, -1745.8212694846
6724, -127.30105051945, 1612.4827727876, -1917.0577770049
6725, -193.2807977358, 1605.9105775935, -1783.9621128534
6726, 1591.2484783002, 290.23185612062, -5543.4288221451
6727, 1606.4936266989, 188.37323954281, -5377.6373960785
6728, 1608.9270509097, 166.31294252459, -5516.7823756188
6729, -1148.0465844606, 1139.4276150367, -944.32838473155
6730, 1326.0176842372, 926.27390716259, -3040.8480305379
6731, 1396.3158716665, 816.46079913987, -2971.3063990362
6732, 1611.7821352985, 135.8845036521, -3885.358832782
6733, 1594.7751251796, 270.1824385642, -3962.6546195519
6734, 1581.1829974825, 340.83218520585, -3836.6132039082
6735, 1590.2591033364, 295.60486169158, -5733.3509559408
6736, 1572.9480360359, 377.01555131166, -5617.0382217723
6737, 1604.071213332, 207.99469358563, -5659.7415563136
6738, 1616.4904406581, 57.139349497927, -5551.1059683758
6739, 1500.0497745211, -605.10901824327, -5744.8800630787
6740, 1469.1527246356, -676.68051671072, -5856.9528207846
6741, 1548.5782105129, 467.13143324395, -3900.9743749053
6742, 1566.1128758531, 404.47090140976, -4037.381700827
6743, 447.71800880787, 1554.3020409782, -2365.5345509898
6744, 1250.6178783442, 1025.7978223635, -2802.4931094822
6745, 1329.7622342886, 920.89014016857, -2734.3640925192
6746, 1363.990693854, 869.3880819748, -2852.7788937339
6747, 1288.9141868558, 977.24432406736, -2920.9079106969
6748, 1596.8935888747, 257.36572384626, -2357.3105730448
6749, 1605.1671950135, 199.36029206564, -2454.531249092
6750, 1611.3100236404, 141.37276157676, -2345.1536174042
6751, 1457.6092259734, 701.20011006645, -2908.391877573
6752, -1454.4167470611, 707.79811801687, -5769.5482685307
6753, -1416.9314272322, 780.13561674985, -5663.862550491
6754, -1616.6852980862, 51.331247326106, -4031.8161931295
6755, -1446.1751186886, 724.48863074991, -1816.5713698438
6756, -1490.6992842744, 627.79128208636, -1904.9342821076
6757, -1526.7495679285, 534.17413530624, -1785.495571827
6758, -1549.5070649863, -464.04106020643, -2870.0674051967
6759, -1584.9633835511, -322.79610097118, -2854.8449645096
6760, -1586.8919978356, -313.17732549663, -3006.9393865632
6761, -1552.2929852443, -454.63473026302, -3022.1618272504
6762, -1402.2425777666, 806.23942045673, -5864.8114324196
6763, -1359.0965789625, 877.01923528081, -5751.2497578882
6764, -564.99023060407, 1515.6161418123, -4235.4010435168
6765, -492.3209907789, 1540.7551044986, -4143.8812314752
6766, -379.60039034597, 1572.3262363928, -4241.4721136449
6767, -625.87723905743, 1491.5039160625, -3991.1026963537
6768, -477.89204586739, 1545.2913778627, -4027.9278194567
6769, -639.79675373658, 1485.5862021129, -4107.0561083722
6770, -1456.416311738, -703.67448220286, -5751.0473775294
6771, -678.0986842996, -1468.4986974292, -5924.3447524715
6772, -541.16416436587, -1524.2859302658, -5928.3024988764
6773, 208.47894304053, 1604.0083479548, -889.26540508916
6774, -265.85350729585, 1595.502479678, -3078.0725722184
6775, -274.12410060763, 1594.1023265356, -3216.2088403367
6776, -401.49244951279, 1566.8790837152, -3223.5798442396
6777, -160.86148499725, 1609.4812309078, -2929.5333460616
6778, -279.40733504869, 1593.1847950319, -2950.4433325029
6779, -1108.9702826361, -1177.4935932862, -2029.357618547
6780, -915.06428917357, 1333.7779412928, -1539.4654675992
6781, -1010.9698809227, 1262.634606633, -1494.6326913172
6782, -1097.0162801172, 1188.6385199706, -1554.4161198221
6783, 1600.0271880074, -237.10598397599, -5143.1179080265
6784, 1607.3158699888, -181.22346449123, -5298.8334530825
6785, 1617.3661409137, -20.809041927632, -5247.8114564681
6786, 973.51898703529, 1291.7302473356, -2462.3858106892
6787, 267.96021476666, 1595.150015924, -1012.6910504912
6788, -1018.9274659666, 1256.2217436021, -2997.3468395643
6789, -608.44888262072, -1498.6981708261, -6064.6751271643
6790, -1117.6774345452, 1169.2319711282, -3377.5319600983
6791, 1586.5791013727, -314.75864577052, -1570.4662535817
6792, -1616.5225843579, 56.222631216411, -6472.510953881
6793, -1616.3622429582, 60.657642050402, -6620.7591459627
6794, 449.61785660786, 1553.7535303321, -2986.7403465819
6795, -1472.0033758274, 670.45679320358, -3564.8638411948
6796, 987.36280203091, 1281.1795140283, -919.32242195015
6797, -1412.7782233649, 787.63185663473, -3611.4408997516
6798, -1560.8401128011, 424.36351430223, -1891.4604462988
6799, -1564.8006308661, 409.51829707711, -1646.7045983168
6800, -363.47591388856, 1576.1318187331, -999.69170588822
6801, 371.13091263984, 1574.3468790845, -156.9316196645
6802, -1036.9453246062, 1241.3906088646, -2109.5237132172
6803, 1527.9059664782, 530.85742681107, -4104.7994908361
6804, 990.87649384147, 1278.4639314241, -3471.6677189248
6805, -1369.9360606128, 859.98920913737, -2332.8550293337
6806, 1531.0325730687, 521.77151149015, -2971.8239959946
6807, 1564.1748402885, 411.90207453776, -2915.893384288
6808, 1601.2959688497, -228.38010015267, -5487.4311913642
6809, 1613.3633857911, -115.60638126353, -5438.8058684378
6810, 1551.0132894601, 458.98150934244, -2791.2343905958
6811, 1509.436114149, 581.29929236392, -2852.6624976219
6812, -1285.9832923093, 981.09796753506, -1635.2180137853
6813, -1260.8283977599, 1013.2215954085, -1728.3240151901
6814, 1609.0836417937, -164.79103043547, -1815.6249820551
6815, 1590.9416589766, -291.90904016973, -1776.6497118497
6816, 1607.1666672409, -182.54192315656, -1923.1545776035
6817, 1604.9118208494, -201.40580254248, -1696.314001409
6818, 1552.6163170471, -453.52929567913, -4536.4478130817
6819, 1592.428217658, -283.68754221252, -4453.787301197
6820, 1572.6294015225, -378.34245792255, -4306.2801215519
6821, 1121.1054827595, 1165.9454303383, -2762.9825431973
6822, 1009.877584652, 1263.5084146999, -2251.9462593598
6823, 924.7735728755, 1327.0644629825, -2144.8141758288
6824, -1276.5535131114, -993.33648788467, -5313.976321219
6825, -1269.3000985245, -1002.5884050225, -5454.1963583401
6826, -1185.0788838192, -1100.8607037795, -5308.2147019331
6827, -1338.3390427457, -908.38034801652, -5442.7683562472
6828, -1358.5831037391, -877.81444521876, -5342.2825606402
6829, 260.25824495202, 1596.4247229151, -3302.656512373
6830, 406.73651513094, 1565.5260001862, -3136.3012894627
6831, -666.45229571028, 1473.8207447117, -3598.8561256733
6832, -1497.1712124521, -612.19654573081, -7181.1026213071
6833, -767.95126875625, 1423.5719506985, -3644.3714172217
6834, -837.44461904452, 1383.8326344011, -3487.5206946898
6835, -1596.3763965447, -260.55450591928, -1968.7065581009
6836, -1606.191817101, -190.92955946563, -2070.2080261787
6837, -1608.6463509824, -169.0064125148, -1860.6195435341
6838, -1615.2679730398, -84.944836639841, -1713.6660188568
6839, 1542.9982543128, 485.24492494785, -5697.1978177485
6840, 1563.4799138099, 414.53203629285, -5786.1233664597
6841, -661.94561703692, 1475.8503481334, -3162.7490345274
6842, -542.75283355576, 1523.7209756603, -3197.8340349716
6843, -991.57897380871, -1277.9191636017, -2679.5080444788
6844, 31.533793653703, 1617.1925889818, -3735.8703629949
6845, -878.71950810491, 1357.9978925152, -4341.5603129831
6846, 1602.3706470336, 220.71375019473, -4987.4102031981
6847, 1610.7386854566, 147.74010008614, -5217.3973004742
6848, 1575.6857161248, 365.4049452324, -4949.7399974646
6849, 1523.9328417854, 542.15767423142, -5033.4532531758
6850, -287.32305841733, 1591.776275141, -1878.6293576038
6851, -1616.5708126824, -54.81840551728, -270.33070133422
6852, -1616.0365869205, 68.789532157533, -287.65210359807
6853, -441.26059667321, 1556.1475944857, -2142.254014393
6854, -297.38148221511, 1589.9278298198, -1996.747312092
6855, -1522.8636036371, 545.15382665582, -2003.8167603329
6856, -1554.4416028979, 447.23322012152, -2130.5145472259
6857, -1503.6938742163, 595.99579079419, -4501.5560717452
6858, 1213.842128082, 1069.0619898273, -3304.8321119202
6859, 1168.1688679304, 1118.7885171015, -3175.9305489086
6860, 1247.678380292, 1029.3711232359, -3108.7074934293
6861, -993.83892724871, 1276.1623864874, -3468.2736999323
6862, -1084.7364726927, 1199.8554224615, -3514.9451989882
6863, -1617.4818769344, 7.6568785342323, -4153.6865956801
6864, -1310.3389412872, 948.3238418105, -2534.7237184761
6865, -966.84789106122, 1296.7310459577, -3715.5006921336
6866, -1017.9450824283, 1257.0179231658, -3629.1765420119
6867, -938.88341207495, 1317.1196561173, -3565.259734792
6868, -885.44534740982, 1353.6220989443, -3651.5838849137
6869, 585.97784016521, 1507.6260215436, -3023.5217106159
6870, 544.31297635658, 1523.1643489032, -3173.0826534967
6871, 731.59861695571, 1442.591319005, -3028.0186877418
6872, -1522.0748731516, -547.35210835481, -3128.2782771604
6873, -233.91967692367, 1600.4961214411, -4296.9448918158
6874, -61.644685284292, 1616.3249001287, -4309.2909556143
6875, -332.99577144098, 1582.8518775307, -4093.623653447
6876, -751.41312642778, 1432.3702605933, -3764.9085252456
6877, 662.09135605631, 1475.7849728993, -3195.1203143609
6878, -869.70942714248, 1363.785819819, -3772.1209929375
6879, 1434.2773954314, 747.76640935163, -1227.0857251494
6880, 1445.2482502627, 726.3358349363, -1390.3613441323
6881, 1372.4639562289, 855.94914501529, -1411.0629606626
6882, -1004.1334434153, 1268.0781828479, -2639.7936422428
6883, -790.0587427486, 1411.4224856529, -2594.4911849418
6884, -613.39635262914, 1496.6800474989, -2355.3569225109
6885, -705.0192428266, 1455.7658181329, -2470.7886378622
6886, -717.73085109759, 1449.5408498496, -2273.6504157855
6887, -646.48553273102, 1482.6876629855, -2141.9530437777
6888, -809.40117159646, 1400.419934669, -2210.7699435611
6889, -740.43328570494, 1438.0767710453, -2079.0725715532
6890, 1601.2867597611, -228.44466072528, -3820.6636997521
6891, 1611.1017961505, -143.7263108853, -3701.1554413612
6892, 1617.487654293, -6.319668487215, -3795.1980084614
6893, 1615.2557533127, -85.176882957568, -3922.3753022381
6894, -1431.8978847679, -752.3128987311, -918.09070989067
6895, -588.13567509927, 1506.7855446863, -2547.1014333679
6896, 390.94281576463, 1569.5445087037, -2278.7748001046
6897, 327.37899409029, 1584.0231198529, -2160.9877308608
6898, 1617.3757875966, 20.045241237084, -5408.0515520724
6899, 1382.917036901, 838.95573128088, -1552.5099404963
6900, 1454.969327042, 706.66152248942, -1524.983520417
6901, -1611.1696254956, 142.96393909045, -5369.9746816448
6902, -1617.0659702087, 37.468626781137, -5440.3309661726
6903, -1373.8543440121, -853.71569707903, -5210.2503585296
6904, -936.41658233603, 1318.8746090232, -4442.6089703734
6905, -1020.7796868833, 1254.7171318056, -4374.6708656769
6906, -1216.3209554239, 1066.2408655631, -4133.1425249129
6907, -255.85669433428, -1597.1360624456, -2917.0819142123
6908, -476.83764291693, -1545.6170652194, -2834.770028058
6909, -135.82913038243, -1611.7868026943, -3007.6866949846
6910, 1470.1132012224, 674.59130263567, -5106.2263734945
6911, 1612.7631105653, -123.69882456967, -4582.4280179146
6912, 1616.6275454432, -53.119010856906, -1806.2609519759
6913, 1570.498183187, -387.09392478597, -5028.6658355132
6914, 1551.6920346606, -456.68159539303, -4941.9117527787
6915, 1617.2589939036, -27.921257811607, -1945.293330428
6916, -1596.871613665, 257.50203779977, -1222.6749134312
6917, 1577.0350192625, -359.53692163647, -4864.2009763516
6918, 1593.7547974725, -276.13745767876, -4999.0757373716
6919, 451.5395720564, 1553.1961450078, -2094.5971895104
6920, -114.6993369872, 1613.4281242419, -4926.1293136701
6921, -1464.6500058254, -686.37206414279, -5125.4297941264
6922, -1554.3263557734, 447.63358871753, -2879.8165019805
6923, -1495.212540997, 616.96491573298, -2911.4247564622
6924, -1615.087265658, -88.314066316132, -3125.643099185
6925, -1614.3523106698, 100.86063174008, -3247.7977448431
6926, -1617.472190772, 9.4848341716402, -2772.0005799926
6927, -1609.6926321827, -158.73210102755, -2810.607399548
6928, -1612.7618086347, -123.71579773483, -2969.096586063
6929, -1121.2713033316, 1165.7859641997, -2934.9478558171
6930, -1058.95720609, 1222.6675286725, -2799.7955602121
6931, -527.05770353594, 1529.2208562348, -2434.6476173497
6932, 1554.8594544984, -445.77833814239, -4754.7188694445
6933, -1501.2488578975, -602.12799026572, -5627.6606470882
6934, -1206.8673256712, 1076.9296672612, -1591.5212313474
6935, -945.60172012117, 1312.3047042908, -2165.2015953491
6936, -851.36025502623, 1375.3152242892, -2117.9149392365
6937, -893.10650308991, 1348.5796321087, -1974.3763279805
6938, -514.10179935943, 1533.6249834609, -2248.4303000992
6939, -1509.1728821777, -581.98235514438, -5847.0717153323
6940, -1498.4356738142, -609.09505123673, -2935.6773490972
6941, -1194.0052354337, 1091.1726480062, -1736.6277761997
******* E L E M E N T S *************
*ELEMENT, type=T3D3, ELSET=Line54
1, 14, 220, 201
2, 201, 221, 202
3, 202, 222, 203
4, 203, 223, 204
5, 204, 224, 205
6, 205, 225, 206
7, 206, 226, 207
8, 207, 227, 208
9, 208, 228, 209
10, 209, 229, 210
11, 210, 230, 211
12, 211, 231, 212
13, 212, 232, 213
14, 213, 233, 214
15, 214, 234, 215
16, 215, 235, 216
17, 216, 236, 217
18, 217, 237, 218
19, 218, 238, 219
20, 219, 239, 13
*ELEMENT, type=T3D3, ELSET=Line57
21, 13, 353, 334
22, 334, 354, 335
23, 335, 355, 336
24, 336, 356, 337
25, 337, 357, 338
26, 338, 358, 339
27, 339, 359, 340
28, 340, 360, 341
29, 341, 361, 342
30, 342, 362, 343
31, 343, 363, 344
32, 344, 364, 345
33, 345, 365, 346
34, 346, 366, 347
35, 347, 367, 348
36, 348, 368, 349
37, 349, 369, 350
38, 350, 370, 351
39, 351, 371, 352
40, 352, 372, 14
*ELEMENT, type=T3D3, ELSET=Line84
41, 9, 490, 486
42, 486, 69, 487
43, 487, 491, 64
44, 64, 492, 488
45, 488, 59, 489
46, 489, 493, 19
*ELEMENT, type=T3D3, ELSET=Line89
47, 19, 498, 494
48, 494, 50, 495
49, 495, 499, 45
50, 45, 500, 496
51, 496, 40, 497
52, 497, 501, 9
*ELEMENT, type=S8, ELSET=Surface17
53, 154, 502, 114, 10, 542, 543, 116, 194
54, 114, 502, 73, 9, 543, 544, 113, 115
55, 114, 503, 117, 10, 545, 546, 155, 116
56, 114, 9, 36, 503, 115, 74, 547, 545
57, 153, 505, 72, 504, 548, 549, 550, 551
58, 541, 37, 38, 540, 552, 76, 553, 554
59, 541, 540, 119, 118, 554, 555, 157, 556
60, 540, 38, 39, 539, 553, 77, 557, 558
61, 540, 539, 120, 119, 558, 559, 158, 555
62, 539, 39, 40, 538, 557, 78, 560, 561
63, 539, 538, 121, 120, 561, 562, 159, 559
64, 538, 40, 41, 537, 560, 79, 563, 564
65, 538, 537, 122, 121, 564, 565, 160, 562
66, 537, 41, 42, 536, 563, 80, 566, 567
67, 537, 536, 123, 122, 567, 568, 161, 565
68, 535, 43, 44, 534, 569, 82, 570, 571
69, 535, 534, 125, 124, 571, 572, 163, 573
70, 536, 42, 43, 535, 566, 81, 569, 574
71, 536, 535, 124, 123, 574, 573, 162, 568
72, 534, 44, 45, 533, 570, 83, 575, 576
73, 534, 533, 126, 125, 576, 577, 164, 572
74, 533, 45, 46, 532, 575, 84, 578, 579
75, 533, 532, 127, 126, 579, 580, 165, 577
76, 531, 47, 48, 530, 581, 86, 582, 583
77, 531, 530, 129, 128, 583, 584, 167, 585
78, 532, 46, 47, 531, 578, 85, 581, 586
79, 532, 531, 128, 127, 586, 585, 166, 580
80, 530, 48, 49, 529, 582, 87, 587, 588
81, 530, 529, 130, 129, 588, 589, 168, 584
82, 529, 528, 131, 130, 590, 591, 169, 589
83, 529, 49, 50, 528, 587, 88, 592, 590
84, 527, 526, 133, 132, 593, 594, 171, 595
85, 527, 51, 52, 526, 596, 90, 597, 593
86, 528, 50, 51, 527, 592, 89, 596, 598
87, 528, 527, 132, 131, 598, 595, 170, 591
88, 525, 524, 135, 134, 599, 600, 173, 601
89, 525, 53, 54, 524, 602, 92, 603, 599
90, 526, 52, 53, 525, 597, 91, 602, 604
91, 526, 525, 134, 133, 604, 601, 172, 594
92, 524, 54, 19, 523, 603, 93, 605, 606
93, 524, 523, 136, 135, 606, 607, 174, 600
94, 523, 19, 55, 522, 605, 94, 608, 609
95, 523, 522, 137, 136, 609, 610, 175, 607
96, 522, 55, 56, 521, 608, 95, 611, 612
97, 522, 521, 138, 137, 612, 613, 176, 610
98, 521, 520, 139, 138, 614, 615, 177, 613
99, 521, 56, 57, 520, 611, 96, 616, 614
100, 519, 58, 59, 518, 617, 98, 618, 619
101, 519, 518, 141, 140, 619, 620, 179, 621
102, 520, 519, 140, 139, 622, 621, 178, 615
103, 520, 57, 58, 519, 616, 97, 617, 622
104, 518, 59, 60, 517, 618, 99, 623, 624
105, 518, 517, 142, 141, 624, 625, 180, 620
106, 517, 60, 61, 516, 623, 100, 626, 627
107, 517, 516, 143, 142, 627, 628, 181, 625
108, 516, 61, 62, 515, 626, 101, 629, 630
109, 516, 515, 144, 143, 630, 631, 182, 628
110, 514, 63, 64, 513, 632, 103, 633, 634
111, 514, 513, 16, 145, 634, 635, 184, 636
112, 515, 62, 63, 514, 629, 102, 632, 637
113, 515, 514, 145, 144, 637, 636, 183, 631
114, 513, 64, 65, 512, 633, 104, 638, 639
115, 513, 512, 146, 16, 639, 640, 185, 635
116, 511, 66, 67, 510, 641, 106, 642, 643
117, 511, 510, 148, 147, 643, 644, 187, 645
118, 512, 65, 66, 511, 638, 105, 641, 646
119, 512, 511, 147, 146, 646, 645, 186, 640
120, 510, 67, 68, 509, 642, 107, 647, 648
121, 510, 509, 149, 148, 648, 649, 188, 644
122, 509, 68, 69, 508, 647, 108, 650, 651
123, 509, 508, 150, 149, 651, 652, 189, 649
124, 508, 69, 70, 507, 650, 109, 653, 654
125, 508, 507, 151, 150, 654, 655, 190, 652
126, 507, 70, 71, 506, 653, 110, 656, 657
127, 507, 506, 152, 151, 657, 658, 191, 655
128, 506, 71, 72, 505, 656, 111, 549, 659
129, 506, 505, 153, 152, 659, 548, 192, 658
130, 502, 504, 72, 73, 660, 550, 112, 544
131, 502, 154, 153, 504, 542, 193, 551, 660
132, 118, 117, 503, 541, 156, 546, 661, 556
133, 37, 541, 503, 36, 552, 661, 547, 75
*ELEMENT, type=S8, ELSET=Surface22
134, 662, 663, 665, 664, 992, 993, 994, 995
135, 743, 744, 241, 240, 996, 997, 248, 998
136, 748, 749, 245, 246, 999, 1000, 253, 1001
137, 682, 683, 680, 684, 1002, 1003, 1004, 1005
138, 751, 752, 777, 750, 1006, 1007, 1008, 1009
139, 777, 783, 784, 750, 1010, 1011, 1012, 1008
140, 792, 791, 793, 785, 1013, 1014, 1015, 1016
141, 746, 747, 832, 745, 1017, 1018, 1019, 1020
142, 812, 686, 834, 790, 1021, 1022, 1023, 1024
143, 828, 829, 760, 812, 1025, 1026, 1027, 1028
144, 680, 683, 841, 771, 1003, 1029, 1030, 1031
145, 830, 831, 845, 771, 1032, 1033, 1034, 1035
146, 741, 735, 734, 740, 1036, 1037, 1038, 1039
147, 735, 728, 727, 734, 1040, 1041, 1042, 1037
148, 722, 715, 714, 689, 1043, 1044, 1045, 1046
149, 715, 705, 704, 714, 1047, 1048, 1049, 1044
150, 705, 706, 847, 704, 1050, 1051, 1052, 1048
151, 663, 673, 847, 674, 1053, 1054, 1055, 1056
152, 668, 666, 850, 667, 1057, 1058, 1059, 1060
153, 668, 671, 695, 670, 1061, 1062, 1063, 1064
154, 671, 696, 698, 695, 1065, 1066, 1067, 1062
155, 696, 699, 701, 698, 1068, 1069, 1070, 1066
156, 699, 702, 708, 701, 1071, 1072, 1073, 1069
157, 702, 709, 711, 708, 1074, 1075, 1076, 1072
158, 709, 712, 717, 711, 1077, 1078, 1079, 1075
159, 720, 719, 717, 712, 1080, 1081, 1078, 1082
160, 725, 724, 719, 720, 1083, 1084, 1080, 1085
161, 732, 730, 857, 731, 1086, 1087, 1088, 1089
162, 738, 737, 730, 732, 1090, 1091, 1086, 1092
163, 738, 861, 694, 737, 1093, 1094, 1095, 1090
164, 822, 863, 347, 348, 1096, 1097, 367, 1098
165, 779, 745, 832, 778, 1099, 1019, 1100, 1101
166, 768, 769, 869, 692, 1102, 1103, 1104, 1105
167, 766, 767, 885, 765, 1106, 1107, 1108, 1109
168, 889, 887, 206, 207, 1110, 1111, 226, 1112
169, 871, 869, 769, 872, 1113, 1103, 1114, 1115
170, 874, 871, 872, 875, 1116, 1115, 1117, 1118
171, 771, 841, 842, 830, 1030, 1119, 1120, 1035
172, 860, 874, 875, 877, 1121, 1118, 1122, 1123
173, 843, 860, 877, 878, 1124, 1123, 1125, 1126
174, 819, 843, 878, 879, 1127, 1126, 1128, 1129
175, 772, 819, 879, 883, 1130, 1129, 1131, 1132
176, 838, 828, 835, 839, 1133, 1134, 1135, 1136
177, 798, 772, 883, 884, 1137, 1132, 1138, 1139
178, 825, 798, 884, 886, 1140, 1139, 1141, 1142
179, 837, 825, 886, 888, 1143, 1142, 1144, 1145
180, 851, 837, 888, 890, 1146, 1145, 1147, 1148
181, 739, 902, 288, 289, 1149, 1150, 328, 1151
182, 737, 694, 907, 906, 1095, 1152, 1153, 1154
183, 855, 851, 890, 891, 1155, 1148, 1156, 1157
184, 865, 855, 891, 892, 1158, 1157, 1159, 1160
185, 740, 845, 831, 741, 1161, 1033, 1162, 1039
186, 820, 816, 817, 821, 1163, 1164, 1165, 1166
187, 816, 813, 814, 817, 1167, 1168, 1169, 1164
188, 811, 882, 814, 810, 1170, 1171, 1172, 1173
189, 682, 808, 811, 807, 1174, 1175, 1176, 1177
190, 785, 793, 918, 916, 1015, 1178, 1179, 1180
191, 892, 912, 925, 865, 1181, 1182, 1183, 1160
192, 801, 676, 930, 802, 1184, 1185, 1186, 1187
193, 799, 795, 796, 800, 1188, 1189, 1190, 1191
194, 976, 791, 792, 794, 1192, 1013, 1193, 1194
195, 786, 787, 792, 785, 1195, 1196, 1016, 1197
196, 892, 891, 908, 909, 1159, 1198, 1199, 1200
197, 891, 890, 905, 908, 1156, 1201, 1202, 1198
198, 890, 888, 904, 905, 1147, 1203, 1204, 1201
199, 740, 806, 681, 845, 1205, 1206, 1207, 1161
200, 888, 886, 903, 904, 1144, 1208, 1209, 1203
201, 886, 884, 901, 903, 1141, 1210, 1211, 1208
202, 884, 883, 899, 901, 1138, 1212, 1213, 1210
203, 883, 879, 898, 899, 1131, 1214, 1215, 1212
204, 879, 878, 897, 898, 1128, 1216, 1217, 1214
205, 878, 877, 895, 897, 1125, 1218, 1219, 1216
206, 877, 875, 889, 895, 1122, 1220, 1221, 1218
207, 875, 872, 887, 889, 1117, 1222, 1110, 1220
208, 673, 941, 918, 933, 1223, 1224, 1225, 1226
209, 872, 769, 770, 887, 1114, 1227, 1228, 1222
210, 769, 768, 868, 770, 1102, 1229, 1230, 1227
211, 706, 940, 674, 847, 1231, 1232, 1055, 1051
212, 910, 911, 725, 726, 1233, 1234, 1235, 1236
213, 725, 720, 721, 726, 1085, 1237, 1238, 1235
214, 720, 712, 718, 721, 1082, 1239, 1240, 1237
215, 709, 713, 718, 712, 1241, 1242, 1239, 1077
216, 702, 710, 713, 709, 1243, 1244, 1241, 1074
217, 699, 703, 710, 702, 1245, 1246, 1243, 1071
218, 664, 943, 667, 850, 1247, 1248, 1059, 1249
219, 696, 700, 703, 699, 1250, 1251, 1245, 1068
220, 671, 697, 700, 696, 1252, 1253, 1250, 1065
221, 668, 672, 697, 671, 1254, 1255, 1252, 1061
222, 667, 669, 672, 668, 1256, 1257, 1254, 1060
223, 942, 943, 664, 665, 1258, 1247, 994, 1259
224, 664, 850, 945, 662, 1249, 1260, 1261, 995
225, 674, 675, 665, 663, 1262, 1263, 993, 1056
226, 939, 940, 706, 707, 1264, 1231, 1265, 1266
227, 706, 705, 716, 707, 1050, 1267, 1268, 1265
228, 705, 715, 723, 716, 1047, 1269, 1270, 1267
229, 715, 722, 729, 723, 1043, 1271, 1272, 1269
230, 728, 735, 742, 736, 1040, 1273, 1274, 1275
231, 735, 741, 896, 742, 1036, 1276, 1277, 1273
232, 741, 831, 867, 896, 1162, 1278, 1279, 1276
233, 927, 921, 948, 926, 1280, 1281, 1282, 1283
234, 831, 830, 894, 867, 1032, 1284, 1285, 1278
235, 830, 842, 949, 894, 1120, 1286, 1287, 1284
236, 835, 900, 949, 839, 1288, 1289, 1290, 1135
237, 789, 790, 834, 788, 1291, 1023, 1292, 1293
238, 725, 911, 731, 857, 1234, 1294, 1088, 1295
239, 766, 784, 783, 767, 1296, 1011, 1297, 1106
240, 881, 882, 811, 880, 1298, 1170, 1299, 1300
241, 811, 808, 920, 880, 1175, 1301, 1302, 1299
242, 808, 919, 922, 920, 1303, 1304, 1305, 1301
243, 924, 832, 747, 833, 1306, 1018, 1307, 1308
244, 919, 921, 927, 922, 1309, 1280, 1310, 1304
245, 930, 931, 929, 802, 1311, 1312, 1313, 1186
246, 800, 932, 931, 930, 1314, 1315, 1311, 1316
247, 792, 935, 957, 794, 1317, 1318, 1319, 1193
248, 787, 936, 935, 792, 1320, 1321, 1317, 1196
249, 786, 893, 936, 787, 1322, 1323, 1320, 1195
250, 728, 722, 689, 727, 1324, 1046, 1325, 1041
251, 690, 678, 727, 689, 1326, 1327, 1325, 1328
252, 954, 955, 778, 685, 1329, 1330, 1331, 1332
253, 948, 921, 679, 805, 1281, 1333, 1334, 1335
254, 800, 930, 676, 799, 1316, 1185, 1336, 1191
255, 677, 678, 799, 676, 1337, 1338, 1336, 1339
256, 938, 775, 754, 937, 1340, 1341, 1342, 1343
257, 245, 749, 969, 870, 1000, 1344, 1345, 1346
258, 965, 966, 775, 938, 1347, 1348, 1340, 1349
259, 960, 781, 758, 971, 1350, 1351, 1352, 1353
260, 921, 919, 684, 679, 1309, 1354, 1355, 1333
261, 808, 682, 684, 919, 1174, 1005, 1354, 1303
262, 687, 686, 815, 688, 1356, 1357, 1358, 1359
263, 719, 724, 975, 856, 1084, 1360, 1361, 1362
264, 807, 809, 683, 682, 1363, 1364, 1002, 1177
265, 801, 806, 740, 803, 1365, 1205, 1366, 1367
266, 740, 734, 677, 803, 1038, 1368, 1369, 1366
267, 801, 803, 677, 676, 1367, 1369, 1339, 1184
268, 976, 795, 690, 846, 1370, 1371, 1372, 1373
269, 977, 978, 775, 966, 1374, 1375, 1348, 1376
270, 956, 753, 754, 776, 1377, 1378, 1379, 1380
271, 979, 980, 781, 962, 1381, 1382, 1383, 1384
272, 801, 802, 926, 948, 1187, 1385, 1282, 1386
273, 714, 846, 690, 689, 1387, 1372, 1328, 1045
274, 806, 801, 948, 805, 1365, 1386, 1335, 1388
275, 714, 704, 793, 846, 1049, 1389, 1390, 1387
276, 961, 962, 781, 960, 1391, 1383, 1350, 1392
277, 693, 692, 907, 694, 1393, 1394, 1152, 1395
278, 722, 728, 736, 729, 1324, 1275, 1396, 1271
279, 795, 976, 794, 796, 1370, 1194, 1397, 1189
280, 934, 796, 794, 957, 1398, 1397, 1319, 1399
281, 796, 934, 932, 800, 1398, 1400, 1314, 1190
282, 717, 719, 856, 848, 1081, 1362, 1401, 1402
283, 711, 717, 848, 824, 1079, 1402, 1403, 1404
284, 974, 786, 785, 916, 1405, 1197, 1180, 1406
285, 708, 711, 824, 780, 1076, 1404, 1407, 1408
286, 698, 701, 804, 827, 1070, 1409, 1410, 1411
287, 811, 810, 761, 807, 1173, 1412, 1413, 1176
288, 701, 708, 780, 804, 1073, 1408, 1414, 1409
289, 760, 761, 810, 762, 1415, 1412, 1416, 1417
290, 695, 698, 827, 840, 1067, 1411, 1418, 1419
291, 809, 807, 761, 763, 1363, 1413, 1420, 1421
292, 670, 695, 840, 853, 1063, 1419, 1422, 1423
293, 725, 857, 975, 724, 1295, 1424, 1360, 1083
294, 802, 929, 927, 926, 1313, 1425, 1283, 1385
295, 692, 869, 915, 907, 1104, 1426, 1427, 1394
296, 876, 915, 869, 871, 1428, 1426, 1113, 1429
297, 909, 873, 912, 892, 1430, 1431, 1181, 1200
298, 964, 870, 969, 963, 1432, 1345, 1433, 1434
299, 959, 764, 973, 958, 1435, 1436, 1437, 1438
300, 967, 983, 938, 937, 1439, 1440, 1343, 1441
301, 240, 241, 938, 983, 248, 1442, 1440, 1443
302, 970, 984, 960, 971, 1444, 1445, 1353, 1446
303, 246, 245, 960, 984, 253, 1447, 1445, 1448
304, 349, 350, 753, 956, 369, 1449, 1377, 1450
305, 977, 982, 923, 978, 1451, 1452, 1453, 1374
306, 965, 938, 241, 242, 1349, 1442, 249, 1454
307, 964, 244, 245, 870, 1455, 252, 1346, 1432
308, 961, 960, 245, 244, 1392, 1447, 252, 1456
309, 744, 764, 242, 241, 1457, 1458, 249, 997
310, 749, 748, 255, 968, 999, 1459, 1460, 1461
311, 937, 754, 753, 967, 1342, 1378, 1462, 1441
312, 745, 755, 968, 746, 1463, 1464, 1465, 1020
313, 967, 753, 350, 351, 1462, 1449, 370, 1466
314, 747, 746, 256, 257, 1017, 1467, 296, 1468
315, 971, 758, 757, 970, 1352, 1469, 1470, 1446
316, 291, 292, 970, 757, 331, 1471, 1470, 1472
317, 750, 759, 972, 751, 1473, 1474, 1475, 1009
318, 743, 972, 759, 744, 1476, 1474, 1477, 996
319, 203, 751, 972, 202, 1478, 1475, 1479, 222
320, 352, 14, 240, 983, 372, 247, 1443, 1480
321, 757, 758, 781, 756, 1469, 1351, 1481, 1482
322, 246, 15, 255, 748, 254, 294, 1459, 1001
323, 745, 779, 969, 755, 1099, 1483, 1484, 1463
324, 968, 755, 969, 749, 1464, 1484, 1344, 1461
325, 750, 784, 973, 759, 1012, 1485, 1486, 1473
326, 764, 744, 759, 973, 1457, 1477, 1486, 1436
327, 293, 15, 246, 984, 333, 254, 1448, 1487
328, 240, 14, 201, 743, 247, 220, 1488, 998
329, 983, 967, 351, 352, 1439, 1466, 371, 1480
330, 746, 968, 255, 256, 1465, 1460, 295, 1467
331, 984, 970, 292, 293, 1444, 1471, 332, 1487
332, 743, 201, 202, 972, 1488, 221, 1479, 1476
333, 893, 981, 219, 13, 1489, 1490, 239, 1491
334, 754, 775, 978, 776, 1341, 1375, 1492, 1379
335, 975, 876, 859, 856, 1493, 1494, 1495, 1361
336, 844, 859, 874, 860, 1496, 1497, 1121, 1498
337, 765, 952, 782, 980, 1499, 1500, 1501, 1502
338, 756, 781, 980, 782, 1481, 1382, 1501, 1503
339, 871, 874, 859, 876, 1116, 1497, 1494, 1429
340, 950, 757, 756, 951, 1504, 1482, 1505, 1506
341, 844, 818, 824, 848, 1507, 1508, 1403, 1509
342, 774, 818, 843, 819, 1510, 1511, 1127, 1512
343, 833, 747, 257, 258, 1307, 1468, 297, 1513
344, 774, 773, 804, 780, 1514, 1515, 1414, 1516
345, 751, 203, 204, 752, 1478, 223, 1517, 1006
346, 797, 773, 772, 798, 1518, 1519, 1137, 1520
347, 838, 839, 949, 842, 1136, 1290, 1286, 1521
348, 797, 826, 840, 827, 1522, 1523, 1418, 1524
349, 836, 826, 825, 837, 1525, 1526, 1143, 1527
350, 836, 852, 858, 853, 1528, 1529, 1530, 1531
351, 936, 893, 13, 334, 1323, 1491, 353, 1532
352, 854, 852, 851, 855, 1533, 1534, 1155, 1535
353, 873, 909, 217, 218, 1430, 1536, 237, 1537
354, 852, 854, 866, 858, 1533, 1538, 1539, 1529
355, 909, 908, 216, 217, 1199, 1540, 236, 1536
356, 908, 905, 215, 216, 1202, 1541, 235, 1540
357, 864, 854, 855, 865, 1542, 1535, 1158, 1543
358, 905, 904, 214, 215, 1204, 1544, 234, 1541
359, 904, 903, 213, 214, 1209, 1545, 233, 1544
360, 903, 901, 212, 213, 1211, 1546, 232, 1545
361, 901, 899, 211, 212, 1213, 1547, 231, 1546
362, 899, 898, 210, 211, 1215, 1548, 230, 1547
363, 761, 760, 829, 763, 1415, 1026, 1549, 1420
364, 898, 897, 209, 210, 1217, 1550, 229, 1548
365, 897, 895, 208, 209, 1219, 1551, 228, 1550
366, 895, 889, 207, 208, 1221, 1112, 227, 1551
367, 849, 829, 828, 838, 1552, 1025, 1133, 1553
368, 887, 770, 205, 206, 1228, 1554, 225, 1111
369, 770, 868, 204, 205, 1230, 1555, 224, 1554
370, 859, 844, 848, 856, 1496, 1509, 1401, 1495
371, 952, 693, 694, 861, 1556, 1395, 1094, 1557
372, 818, 844, 860, 843, 1507, 1498, 1124, 1511
373, 818, 774, 780, 824, 1510, 1516, 1407, 1508
374, 773, 774, 819, 772, 1514, 1512, 1130, 1519
375, 910, 726, 285, 286, 1236, 1558, 325, 1559
376, 726, 721, 284, 285, 1238, 1560, 324, 1558
377, 721, 718, 283, 284, 1240, 1561, 323, 1560
378, 718, 713, 282, 283, 1242, 1562, 322, 1561
379, 713, 710, 281, 282, 1244, 1563, 321, 1562
380, 710, 703, 280, 281, 1246, 1564, 320, 1563
381, 703, 700, 279, 280, 1251, 1565, 319, 1564
382, 700, 697, 278, 279, 1253, 1566, 318, 1565
383, 697, 672, 277, 278, 1255, 1567, 317, 1566
384, 672, 669, 276, 277, 1257, 1568, 316, 1567
385, 773, 797, 827, 804, 1518, 1524, 1410, 1515
386, 942, 665, 274, 275, 1259, 1569, 314, 1570
387, 665, 675, 273, 274, 1263, 1571, 313, 1569
388, 826, 797, 798, 825, 1522, 1520, 1140, 1526
389, 939, 707, 271, 272, 1266, 1572, 311, 1573
390, 707, 716, 270, 271, 1268, 1574, 310, 1572
391, 716, 723, 269, 270, 1270, 1575, 309, 1574
392, 723, 729, 268, 269, 1272, 1576, 308, 1575
393, 826, 836, 853, 840, 1525, 1531, 1422, 1523
394, 734, 727, 678, 677, 1042, 1327, 1337, 1368
395, 729, 736, 267, 268, 1396, 1577, 307, 1576
396, 736, 742, 266, 267, 1274, 1578, 306, 1577
397, 852, 836, 837, 851, 1528, 1527, 1146, 1534
398, 771, 845, 681, 680, 1034, 1207, 1579, 1031
399, 896, 867, 264, 265, 1279, 1580, 304, 1581
400, 867, 894, 263, 264, 1285, 1582, 303, 1580
401, 894, 949, 262, 263, 1287, 1583, 302, 1582
402, 949, 900, 261, 262, 1289, 1584, 301, 1583
403, 945, 944, 858, 866, 1585, 1586, 1539, 1587
404, 789, 788, 259, 260, 1293, 1588, 299, 1589
405, 788, 833, 258, 259, 1590, 1513, 298, 1588
406, 668, 670, 944, 666, 1064, 1591, 1592, 1057
407, 853, 858, 944, 670, 1530, 1586, 1591, 1423
408, 816, 820, 687, 688, 1163, 1593, 1359, 1594
409, 814, 882, 881, 917, 1171, 1298, 1595, 1596
410, 917, 881, 345, 346, 1595, 1597, 365, 1598
411, 881, 880, 344, 345, 1300, 1599, 364, 1597
412, 880, 920, 343, 344, 1302, 1600, 363, 1599
413, 920, 922, 342, 343, 1305, 1601, 362, 1600
414, 935, 936, 334, 335, 1321, 1532, 354, 1602
415, 922, 927, 341, 342, 1310, 1603, 361, 1601
416, 957, 935, 335, 336, 1318, 1602, 355, 1604
417, 681, 679, 684, 680, 1605, 1355, 1004, 1579
418, 934, 957, 336, 337, 1399, 1604, 356, 1606
419, 932, 934, 337, 338, 1400, 1606, 357, 1607
420, 795, 799, 678, 690, 1188, 1338, 1326, 1371
421, 927, 929, 340, 341, 1425, 1608, 360, 1603
422, 931, 932, 338, 339, 1315, 1607, 358, 1609
423, 679, 681, 806, 805, 1605, 1206, 1388, 1334
424, 929, 931, 339, 340, 1312, 1609, 359, 1608
425, 290, 291, 757, 950, 330, 1472, 1504, 1610
426, 980, 979, 766, 765, 1381, 1611, 1109, 1502
427, 762, 688, 815, 760, 1612, 1358, 1613, 1417
428, 947, 928, 974, 916, 1614, 1615, 1406, 1616
429, 893, 786, 974, 913, 1322, 1405, 1617, 1618
430, 731, 911, 910, 733, 1294, 1233, 1619, 1620
431, 733, 910, 286, 287, 1619, 1559, 326, 1621
432, 762, 813, 816, 688, 1622, 1167, 1594, 1612
433, 674, 940, 939, 675, 1232, 1264, 1623, 1262
434, 861, 986, 782, 952, 1624, 1625, 1500, 1557
435, 675, 939, 272, 273, 1623, 1573, 312, 1571
436, 914, 906, 907, 915, 1626, 1153, 1427, 1627
437, 667, 943, 942, 669, 1248, 1258, 1628, 1256
438, 669, 942, 275, 276, 1628, 1570, 315, 1568
439, 854, 864, 946, 866, 1542, 1629, 1630, 1538
440, 764, 959, 243, 242, 1435, 1631, 250, 1458
441, 925, 928, 864, 865, 1632, 1633, 1543, 1183
442, 958, 987, 243, 959, 1634, 1635, 1631, 1438
443, 977, 988, 964, 963, 1636, 1637, 1434, 1638
444, 947, 946, 864, 928, 1639, 1629, 1633, 1614
445, 244, 964, 988, 243, 1455, 1637, 1640, 251
446, 979, 962, 961, 987, 1384, 1391, 1641, 1642
447, 244, 243, 987, 961, 251, 1635, 1641, 1456
448, 977, 966, 965, 988, 1376, 1347, 1643, 1636
449, 835, 790, 789, 900, 1644, 1291, 1645, 1288
450, 242, 243, 988, 965, 250, 1640, 1643, 1454
451, 900, 789, 260, 261, 1645, 1589, 300, 1584
452, 914, 730, 737, 906, 1646, 1091, 1154, 1626
453, 692, 693, 885, 691, 1393, 1647, 1648, 1649
454, 738, 862, 986, 861, 1650, 1651, 1624, 1093
455, 687, 820, 989, 923, 1593, 1652, 1653, 1654
456, 686, 687, 954, 685, 1356, 1655, 1332, 1656
457, 956, 776, 989, 823, 1380, 1657, 1658, 1659
458, 218, 219, 981, 873, 238, 1490, 1660, 1537
459, 946, 947, 941, 662, 1639, 1661, 1662, 1663
460, 978, 923, 989, 776, 1453, 1653, 1657, 1492
461, 982, 977, 963, 985, 1451, 1638, 1664, 1665
462, 873, 981, 925, 912, 1660, 1666, 1182, 1431
463, 974, 928, 925, 913, 1615, 1632, 1667, 1617
464, 893, 913, 925, 981, 1618, 1667, 1666, 1489
465, 778, 955, 985, 779, 1330, 1668, 1669, 1101
466, 204, 868, 777, 752, 1555, 1670, 1007, 1517
467, 950, 951, 986, 862, 1506, 1671, 1651, 1672
468, 693, 952, 765, 885, 1556, 1499, 1108, 1647
469, 821, 823, 989, 820, 1673, 1658, 1652, 1166
470, 985, 955, 954, 982, 1668, 1329, 1674, 1665
471, 756, 782, 986, 951, 1503, 1625, 1671, 1505
472, 687, 923, 982, 954, 1654, 1452, 1674, 1655
473, 686, 812, 760, 815, 1021, 1027, 1613, 1357
474, 835, 828, 812, 790, 1134, 1028, 1024, 1644
475, 663, 662, 941, 673, 992, 1662, 1223, 1053
476, 947, 916, 918, 941, 1616, 1179, 1224, 1661
477, 969, 779, 985, 963, 1483, 1669, 1664, 1433
478, 987, 958, 766, 979, 1634, 1675, 1611, 1642
479, 692, 691, 953, 768, 1649, 1676, 1677, 1105
480, 683, 809, 849, 841, 1364, 1678, 1679, 1029
481, 793, 791, 976, 846, 1014, 1192, 1373, 1390
482, 662, 945, 866, 946, 1261, 1587, 1630, 1663
483, 738, 739, 990, 862, 1680, 1681, 1682, 1650
484, 944, 945, 850, 666, 1585, 1260, 1058, 1592
485, 290, 990, 739, 289, 1683, 1681, 1151, 329
486, 821, 822, 991, 823, 1684, 1685, 1686, 1673
487, 349, 991, 822, 348, 1687, 1685, 1098, 368
488, 777, 868, 768, 953, 1670, 1229, 1677, 1688
489, 783, 691, 885, 767, 1689, 1648, 1107, 1297
490, 691, 783, 777, 953, 1689, 1010, 1688, 1676
491, 686, 685, 924, 834, 1656, 1690, 1691, 1022
492, 832, 924, 685, 778, 1306, 1690, 1331, 1100
493, 788, 834, 924, 833, 1292, 1691, 1308, 1590
494, 287, 288, 902, 733, 327, 1150, 1692, 1621
495, 738, 732, 902, 739, 1092, 1693, 1149, 1680
496, 731, 733, 902, 732, 1620, 1692, 1693, 1089
497, 346, 347, 863, 917, 366, 1097, 1694, 1598
498, 821, 817, 863, 822, 1165, 1695, 1096, 1684
499, 814, 917, 863, 817, 1596, 1694, 1695, 1169
500, 742, 896, 265, 266, 1277, 1581, 305, 1578
501, 973, 784, 766, 958, 1485, 1296, 1675, 1437
502, 814, 813, 762, 810, 1168, 1622, 1416, 1172
503, 862, 990, 290, 950, 1682, 1683, 1610, 1672
504, 975, 914, 915, 876, 1696, 1627, 1428, 1493
505, 975, 857, 730, 914, 1424, 1087, 1646, 1696
506, 823, 991, 349, 956, 1686, 1687, 1450, 1659
507, 829, 849, 809, 763, 1552, 1678, 1421, 1549
508, 842, 841, 849, 838, 1119, 1679, 1553, 1521
509, 704, 847, 673, 933, 1052, 1054, 1226, 1697
510, 704, 933, 918, 793, 1697, 1225, 1178, 1389
*ELEMENT, type=S8, ELSET=Surface23
511, 1700, 1699, 1701, 1698, 3413, 3414, 3415, 3416
512, 1708, 1707, 1709, 1706, 3417, 3418, 3419, 3420
513, 1713, 1714, 1715, 1985, 3421, 3422, 3423, 3424
514, 1729, 1728, 1730, 1727, 3425, 3426, 3427, 3428
515, 1731, 1733, 1734, 1732, 3429, 3430, 3431, 3432
516, 1740, 1739, 1741, 1738, 3433, 3434, 3435, 3436
517, 1742, 1744, 1747, 1743, 3437, 3438, 3439, 3440
518, 1748, 1750, 1754, 1749, 3441, 3442, 3443, 3444
519, 1763, 1765, 1766, 1764, 3445, 3446, 3447, 3448
520, 1844, 1762, 1771, 1761, 3449, 3450, 3451, 3452
521, 1792, 1794, 1795, 1793, 3453, 3454, 3455, 3456
522, 1787, 1797, 1798, 1796, 3457, 3458, 3459, 3460
523, 1789, 1788, 1799, 1787, 3461, 3462, 3463, 3464
524, 1790, 1791, 1754, 1783, 3465, 3466, 3467, 3468
525, 1772, 1800, 1804, 1774, 3469, 3470, 3471, 3472
526, 1781, 147, 148, 1782, 3473, 187, 3474, 3475
527, 376, 1746, 1793, 1745, 3476, 3477, 3478, 3479
528, 1836, 1835, 1837, 1834, 3480, 3481, 3482, 3483
529, 1845, 1797, 1847, 1846, 3484, 3485, 3486, 3487
530, 1848, 1850, 1851, 1849, 3488, 3489, 3490, 3491
531, 1808, 1806, 139, 140, 3492, 3493, 178, 3494
532, 1841, 1843, 1870, 1842, 3495, 3496, 3497, 3498
533, 1767, 1878, 1880, 1877, 3499, 3500, 3501, 3502
534, 1885, 1887, 1888, 1886, 3503, 3504, 3505, 3506
535, 1908, 1910, 1912, 1909, 3507, 3508, 3509, 3510
536, 1913, 1915, 1919, 1914, 3511, 3512, 3513, 3514
537, 1901, 1903, 1922, 1902, 3515, 3516, 3517, 3518
538, 1894, 1893, 1924, 1892, 3519, 3520, 3521, 3522
539, 1928, 1930, 1933, 1929, 3523, 3524, 3525, 3526
540, 1881, 1949, 1950, 1883, 3527, 3528, 3529, 3530
541, 1832, 1831, 1953, 1830, 3531, 3532, 3533, 3534
542, 1859, 1858, 1956, 1857, 3535, 3536, 3537, 3538
543, 1925, 1830, 1953, 1926, 3539, 3533, 3540, 3541
544, 1811, 1810, 1967, 1809, 3542, 3543, 3544, 3545
545, 1716, 1879, 1967, 1810, 3546, 3547, 3543, 3548
546, 1971, 1970, 1936, 1969, 3549, 3550, 3551, 3552
547, 1972, 1974, 1978, 1973, 3553, 3554, 3555, 3556
548, 1983, 1985, 1839, 1984, 3557, 3558, 3559, 3560
549, 1982, 1892, 1990, 1989, 3561, 3562, 3563, 3564
550, 1992, 1991, 1847, 1799, 3565, 3566, 3567, 3568
551, 1979, 1981, 1995, 1980, 3569, 3570, 3571, 3572
552, 1854, 1997, 1998, 1996, 3573, 3574, 3575, 3576
553, 1945, 1947, 2011, 1946, 3577, 3578, 3579, 3580
554, 1981, 1979, 2015, 1756, 3569, 3581, 3582, 3583
555, 1704, 1776, 1775, 1705, 3584, 3585, 3586, 3587
556, 1720, 1865, 2028, 1864, 3588, 3589, 3590, 3591
557, 1795, 2009, 1911, 1826, 3592, 3593, 3594, 3595
558, 2042, 2044, 2046, 2043, 3596, 3597, 3598, 3599
559, 1961, 1960, 1951, 1959, 3600, 3601, 3602, 3603
560, 2051, 2053, 2054, 2052, 3604, 3605, 3606, 3607
561, 1808, 1807, 2060, 1806, 3608, 3609, 3610, 3492
562, 2055, 2057, 401, 2056, 3611, 3612, 3613, 3614
563, 2078, 2077, 2079, 2076, 3615, 3616, 3617, 3618
564, 2074, 2048, 2049, 2080, 3619, 3620, 3621, 3622
565, 2043, 2081, 2084, 2042, 3623, 3624, 3625, 3599
566, 2040, 2039, 2096, 2038, 3626, 3627, 3628, 3629
567, 1740, 2118, 2119, 2058, 3630, 3631, 3632, 3633
568, 2094, 2097, 2088, 2095, 3634, 3635, 3636, 3637
569, 2074, 2075, 1748, 2048, 3638, 3639, 3640, 3619
570, 2137, 2136, 2138, 2135, 3641, 3642, 3643, 3644
571, 2137, 1996, 1998, 2139, 3645, 3575, 3646, 3647
572, 2144, 2143, 2145, 2142, 3648, 3649, 3650, 3651
573, 2147, 2146, 2153, 2148, 3652, 3653, 3654, 3655
574, 2154, 2155, 2156, 2063, 3656, 3657, 3658, 3659
575, 2047, 2161, 2163, 2162, 3660, 3661, 3662, 3663
576, 2069, 2165, 2166, 2164, 3664, 3665, 3666, 3667
577, 1963, 2069, 2164, 1962, 3668, 3667, 3669, 3670
578, 2168, 2170, 2176, 2169, 3671, 3672, 3673, 3674
579, 2178, 3, 23, 2177, 3675, 443, 3676, 3677
580, 2180, 2179, 1772, 1773, 3678, 3679, 3680, 3681
581, 2190, 2189, 1738, 2188, 3682, 3683, 3684, 3685
582, 2200, 373, 374, 2199, 3686, 405, 3687, 3688
583, 2196, 2198, 2203, 2197, 3689, 3690, 3691, 3692
584, 2206, 2205, 1816, 2204, 3693, 3694, 3695, 3696
585, 2208, 2210, 2211, 2209, 3697, 3698, 3699, 3700
586, 1773, 2185, 2213, 2180, 3701, 3702, 3703, 3681
587, 1990, 1892, 1924, 2212, 3562, 3521, 3704, 3705
588, 2216, 2009, 1795, 2217, 3706, 3592, 3707, 3708
589, 2220, 2030, 1868, 1869, 3709, 3710, 3711, 3712
590, 2220, 1869, 2225, 2221, 3712, 3713, 3714, 3715
591, 1777, 1779, 2228, 1778, 3716, 3717, 3718, 3719
592, 2230, 2229, 2232, 2231, 3720, 3721, 3722, 3723
593, 1747, 1744, 2236, 2235, 3438, 3724, 3725, 3726
594, 2242, 2244, 2245, 2243, 3727, 3728, 3729, 3730
595, 2242, 2139, 1998, 2246, 3731, 3646, 3732, 3733
596, 2248, 2250, 2247, 2249, 3734, 3735, 3736, 3737
597, 1713, 2256, 121, 122, 3738, 3739, 160, 3740
598, 2259, 2228, 2262, 2249, 3741, 3742, 3743, 3744
599, 2261, 2260, 2262, 2228, 3745, 3746, 3742, 3747
600, 1704, 1705, 2035, 1902, 3587, 3748, 3749, 3750
601, 2126, 2031, 2269, 2268, 3751, 3752, 3753, 3754
602, 2036, 1901, 1902, 2035, 3755, 3518, 3749, 3756
603, 2189, 2190, 393, 2275, 3682, 3757, 3758, 3759
604, 2083, 2082, 2284, 2283, 3760, 3761, 3762, 3763
605, 2009, 2216, 2286, 2215, 3706, 3764, 3765, 3766
606, 2287, 2289, 2290, 2288, 3767, 3768, 3769, 3770
607, 2294, 1833, 2123, 2295, 3771, 3772, 3773, 3774
608, 2293, 2292, 2296, 2291, 3775, 3776, 3777, 3778
609, 2272, 2299, 2300, 2271, 3779, 3780, 3781, 3782
610, 1814, 2234, 2302, 2233, 3783, 3784, 3785, 3786
611, 144, 145, 2302, 2234, 183, 3787, 3784, 3788
612, 1877, 2303, 2304, 1767, 3789, 3790, 3791, 3502
613, 2287, 2301, 2305, 2289, 3792, 3793, 3794, 3767
614, 2013, 2012, 2313, 2014, 3795, 3796, 3797, 3798
615, 2318, 2317, 2319, 2214, 3799, 3800, 3801, 3802
616, 2212, 2214, 2319, 1990, 3803, 3801, 3804, 3705
617, 2189, 2191, 1740, 1738, 3805, 3806, 3436, 3683
618, 2181, 1957, 2322, 2182, 3807, 3808, 3809, 3810
619, 1958, 1798, 2322, 1957, 3811, 3812, 3808, 3813
620, 2327, 2239, 2328, 2326, 3814, 3815, 3816, 3817
621, 1732, 1993, 471, 1731, 3818, 3819, 3820, 3432
622, 2035, 2034, 2331, 2036, 3821, 3822, 3823, 3756
623, 2012, 2332, 2184, 2313, 3824, 3825, 3826, 3796
624, 2036, 2331, 2332, 2012, 3823, 3827, 3824, 3828
625, 1945, 1946, 2173, 1948, 3580, 3829, 3830, 3831
626, 1902, 1923, 2084, 1704, 3832, 3833, 3834, 3750
627, 2340, 2341, 2194, 2107, 3835, 3836, 3837, 3838
628, 2340, 2342, 2269, 2032, 3839, 3840, 3841, 3842
629, 2351, 2232, 397, 398, 3843, 3844, 429, 3845
630, 2060, 2344, 2355, 2345, 3846, 3847, 3848, 3849
631, 1787, 1796, 1952, 1789, 3460, 3850, 3851, 3464
632, 2362, 2254, 1, 2363, 3852, 3853, 3854, 3855
633, 2224, 2252, 2365, 2223, 3856, 3857, 3858, 3859
634, 2364, 2367, 2138, 2366, 3860, 3861, 3862, 3863
635, 2277, 2276, 1806, 2059, 3864, 3865, 3866, 3867
636, 2167, 2374, 2375, 2373, 3868, 3869, 3870, 3871
637, 2200, 2378, 292, 293, 3872, 3873, 332, 3874
638, 2379, 255, 256, 1718, 3875, 295, 3876, 3877
639, 2292, 1975, 1976, 2376, 3878, 3879, 3880, 3881
640, 2287, 2288, 2385, 258, 3770, 3882, 3883, 3884
641, 1809, 2387, 376, 375, 3885, 3886, 407, 3887
642, 276, 1921, 2401, 275, 3888, 3889, 3890, 315
643, 1921, 2402, 2403, 2401, 3891, 3892, 3893, 3889
644, 1717, 257, 258, 2385, 3894, 297, 3883, 3895
645, 2400, 1873, 2408, 2399, 3896, 3897, 3898, 3899
646, 1838, 2409, 3, 2178, 3900, 3901, 3675, 3902
647, 1802, 1803, 2320, 2413, 3903, 3904, 3905, 3906
648, 2409, 1838, 1715, 1724, 3900, 3907, 3908, 3909
649, 2374, 2167, 1961, 1959, 3868, 3910, 3603, 3911
650, 1735, 1737, 2309, 1736, 3912, 3913, 3914, 3915
651, 2160, 1769, 1956, 1858, 3916, 3917, 3536, 3918
652, 1921, 2380, 2045, 2402, 3919, 3920, 3921, 3891
653, 2404, 2416, 198, 199, 3922, 3923, 450, 3924
654, 127, 128, 2418, 2417, 166, 3925, 3926, 3927
655, 2421, 2420, 2424, 2419, 3928, 3929, 3930, 3931
656, 1922, 2410, 2430, 2412, 3932, 3933, 3934, 3935
657, 1920, 1808, 140, 141, 3936, 3494, 179, 3937
658, 1826, 1911, 2201, 1745, 3594, 3938, 3939, 3940
659, 2201, 1911, 1876, 2199, 3938, 3941, 3942, 3943
660, 1874, 1876, 1911, 1875, 3944, 3941, 3945, 3946
661, 1710, 1711, 26, 24, 3947, 3948, 439, 3949
662, 1961, 151, 152, 1960, 3950, 191, 3951, 3600
663, 2433, 2432, 118, 119, 3952, 3953, 157, 3954
664, 1725, 25, 3, 2409, 3955, 441, 3901, 3956
665, 2294, 2295, 2434, 2431, 3774, 3957, 3958, 3959
666, 2403, 2402, 2045, 2282, 3892, 3921, 3960, 3961
667, 1737, 2394, 2435, 2309, 3962, 3963, 3964, 3913
668, 1711, 1710, 2438, 1712, 3947, 3965, 3966, 3967
669, 2432, 2416, 2404, 118, 3968, 3922, 3969, 3953
670, 2012, 2013, 271, 2441, 3795, 3970, 3971, 3972
671, 2012, 2441, 1901, 2036, 3972, 3973, 3755, 3828
672, 119, 120, 2442, 2433, 158, 3974, 3975, 3954
673, 2088, 2087, 2443, 2095, 3976, 3977, 3978, 3636
674, 1718, 2449, 373, 2379, 3979, 3980, 3981, 3877
675, 123, 124, 1726, 1714, 162, 3982, 3983, 3984
676, 1724, 1726, 124, 1723, 3985, 3982, 3986, 3987
677, 1714, 1726, 1724, 1715, 3983, 3985, 3908, 3422
678, 1902, 1922, 2412, 1923, 3517, 3935, 3988, 3832
679, 1874, 292, 2378, 1876, 3989, 3873, 3990, 3944
680, 1718, 256, 257, 1717, 3876, 296, 3894, 3991
681, 1809, 375, 374, 1811, 3887, 406, 3992, 3545
682, 1717, 1716, 2449, 1718, 3993, 3994, 3979, 3991
683, 2453, 1827, 2455, 2454, 3995, 3996, 3997, 3998
684, 1811, 2449, 1716, 1810, 3999, 3994, 3548, 3542
685, 2433, 2440, 2457, 2432, 4000, 4001, 4002, 3952
686, 124, 125, 2438, 1723, 163, 4003, 4004, 3986
687, 376, 1745, 2201, 375, 3479, 3939, 4005, 407
688, 2450, 2452, 2458, 2451, 4006, 4007, 4008, 4009
689, 1838, 1840, 1984, 1839, 4010, 4011, 3559, 4012
690, 2067, 2219, 2461, 2066, 4013, 4014, 4015, 4016
691, 1723, 1725, 2409, 1724, 4017, 3956, 3909, 3987
692, 2200, 2199, 1876, 2378, 3688, 3942, 3990, 3872
693, 1921, 276, 277, 2380, 3888, 316, 4018, 3919
694, 2199, 374, 375, 2201, 3687, 406, 4005, 3943
695, 2234, 1812, 143, 144, 4019, 4020, 182, 3788
696, 1811, 374, 373, 2449, 3992, 405, 3980, 3999
697, 2411, 2401, 2403, 2410, 4021, 3893, 4022, 4023
698, 1739, 2016, 1889, 1741, 4024, 4025, 4026, 3434
699, 2410, 2403, 2282, 2430, 4022, 3961, 4027, 3933
700, 2327, 2326, 1963, 1763, 3817, 4028, 4029, 4030
701, 2470, 2471, 1953, 1831, 4031, 4032, 3532, 4033
702, 1716, 1717, 2385, 1879, 3993, 3895, 4034, 3546
703, 2069, 1963, 2326, 2070, 3668, 4028, 4035, 4036
704, 1879, 2385, 2288, 2290, 4034, 3882, 3769, 4037
705, 1874, 1875, 2480, 2474, 3946, 4038, 4039, 4040
706, 2472, 1926, 1953, 2473, 4041, 3540, 4042, 4043
707, 2411, 274, 275, 2401, 4044, 314, 3890, 4021
708, 1839, 1985, 1715, 1838, 3558, 3423, 3907, 4012
709, 2481, 1950, 2476, 2477, 4045, 4046, 4047, 4048
710, 373, 2200, 293, 15, 3686, 3874, 333, 404
711, 2407, 197, 195, 2439, 4049, 453, 4050, 4051
712, 1723, 2438, 1710, 1725, 4004, 3965, 4052, 4017
713, 24, 25, 1725, 1710, 440, 3955, 4052, 3949
714, 1900, 2483, 383, 382, 4053, 4054, 414, 4055
715, 255, 2379, 373, 15, 3875, 3981, 404, 294
716, 1947, 1945, 2045, 2380, 3577, 4056, 3920, 4057
717, 2486, 2485, 2487, 1989, 4058, 4059, 4060, 4061
718, 2489, 2299, 2272, 2451, 4062, 3779, 4063, 4064
719, 2158, 2130, 1955, 1991, 4065, 4066, 4067, 4068
720, 122, 123, 1714, 1713, 161, 3984, 3421, 3740
721, 1984, 2460, 2490, 1983, 4069, 4070, 4071, 3560
722, 2457, 2440, 2490, 2285, 4001, 4072, 4073, 4074
723, 2447, 2491, 267, 268, 4075, 4076, 307, 4077
724, 2011, 2172, 2173, 1946, 4078, 4079, 3829, 3579
725, 1712, 2438, 125, 126, 3966, 4003, 164, 4080
726, 2417, 1712, 126, 127, 4081, 4080, 165, 3927
727, 2406, 2407, 153, 154, 4082, 4083, 193, 4084
728, 2405, 117, 118, 2404, 4085, 156, 3969, 4086
729, 2465, 2493, 2497, 2464, 4087, 4088, 4089, 4090
730, 2503, 2502, 2505, 2501, 4091, 4092, 4093, 4094
731, 2407, 2406, 12, 197, 4082, 4095, 452, 4049
732, 154, 10, 12, 2406, 194, 4096, 4095, 4084
733, 2404, 199, 12, 2405, 3924, 451, 4097, 4086
734, 2240, 2507, 2317, 2318, 4098, 4099, 3799, 4100
735, 1775, 1776, 28, 30, 3585, 4101, 465, 4102
736, 117, 2405, 12, 10, 4085, 4097, 4096, 155
737, 2509, 2511, 2512, 2510, 4103, 4104, 4105, 4106
738, 3329, 1828, 2513, 1829, 4107, 4108, 4109, 4110
739, 1989, 1990, 2319, 2486, 3563, 3804, 4111, 4061
740, 385, 2240, 2318, 2241, 4112, 4100, 4113, 4114
741, 1955, 2130, 2525, 2129, 4066, 4115, 4116, 4117
742, 2029, 2045, 1945, 1948, 4118, 4056, 3831, 4119
743, 1931, 1932, 1859, 1857, 4120, 4121, 3538, 4122
744, 2524, 2523, 2241, 2318, 4123, 4124, 4113, 4125
745, 1700, 1698, 1889, 2016, 3416, 4126, 4025, 4127
746, 2529, 2528, 1835, 1836, 4128, 4129, 3480, 4130
747, 2112, 2111, 2531, 2110, 4131, 4132, 4133, 4134
748, 1818, 1817, 1868, 1816, 4135, 4136, 4137, 4138
749, 2066, 2461, 2532, 2119, 4015, 4139, 4140, 4141
750, 2531, 2530, 2533, 2110, 4142, 4143, 4144, 4133
751, 394, 2160, 1858, 393, 4145, 3918, 4146, 425
752, 1859, 392, 393, 1858, 4147, 424, 4146, 3535
753, 2498, 2500, 1823, 2499, 4148, 4149, 4150, 4151
754, 1777, 1778, 2227, 1780, 3719, 4152, 4153, 4154
755, 2462, 2463, 2537, 2227, 4155, 4156, 4157, 4158
756, 2176, 2170, 2231, 2175, 3672, 4159, 4160, 4161
757, 1809, 2296, 2297, 2387, 4162, 4163, 4164, 3885
758, 2552, 2554, 2555, 2553, 4165, 4166, 4167, 4168
759, 2556, 2557, 2561, 2560, 4169, 4170, 4171, 4172
760, 2443, 2456, 2080, 2095, 4173, 4174, 4175, 3978
761, 384, 383, 2483, 2507, 415, 4054, 4176, 4177
762, 394, 1770, 1769, 2160, 4178, 4179, 3916, 4145
763, 2094, 2095, 2080, 2049, 3637, 4175, 3621, 4180
764, 2066, 2068, 2321, 2067, 4181, 4182, 4183, 4016
765, 2114, 2113, 2305, 2115, 4184, 4185, 4186, 4187
766, 2522, 2319, 2317, 2482, 4188, 3800, 4189, 4190
767, 2507, 2483, 2482, 2317, 4176, 4191, 4189, 4099
768, 2209, 2211, 2216, 2217, 3699, 4192, 3708, 4193
769, 2577, 2579, 2569, 2578, 4194, 4195, 4196, 4197
770, 2216, 2211, 2580, 2286, 4192, 4198, 4199, 3764
771, 1776, 1704, 2084, 2081, 3584, 3834, 3624, 4200
772, 2574, 2573, 2194, 2572, 4201, 4202, 4203, 4204
773, 2581, 2583, 2584, 2582, 4205, 4206, 4207, 4208
774, 1993, 1732, 2586, 1994, 3818, 4209, 4210, 4211
775, 1732, 1734, 2590, 2586, 3431, 4212, 4213, 4209
776, 2597, 2596, 1968, 2595, 4214, 4215, 4216, 4217
777, 1846, 1954, 2112, 1845, 4218, 4219, 4220, 3487
778, 2360, 2361, 396, 2161, 4221, 4222, 4223, 4224
779, 2163, 2161, 396, 395, 3661, 4223, 427, 4225
780, 1778, 2228, 2259, 2226, 3718, 3741, 4226, 4227
781, 1751, 2181, 2182, 1753, 4228, 3810, 4229, 4230
782, 1739, 2017, 2599, 2016, 4231, 4232, 4233, 4024
783, 1889, 1890, 2116, 1891, 4234, 4235, 4236, 4237
784, 2570, 2571, 2395, 2396, 4238, 4239, 4240, 4241
785, 1889, 1698, 1701, 1890, 4126, 3415, 4242, 4234
786, 2479, 2603, 391, 390, 4243, 4244, 422, 4245
787, 1813, 1814, 2055, 2347, 4246, 4247, 4248, 4249
788, 2607, 2582, 2609, 2608, 4250, 4251, 4252, 4253
789, 31, 2610, 1721, 1719, 4254, 4255, 4256, 4257
790, 2531, 2111, 2619, 1917, 4132, 4258, 4259, 4260
791, 2623, 2122, 2124, 2366, 4261, 4262, 4263, 4264
792, 2616, 2618, 2366, 2124, 4265, 4266, 4263, 4267
793, 1775, 30, 6, 2625, 4102, 464, 4268, 4269
794, 1711, 1712, 2417, 2039, 3967, 4081, 4270, 4271
795, 2630, 2568, 2395, 2476, 4272, 4273, 4274, 4275
796, 2630, 1949, 2208, 2209, 4276, 4277, 3700, 4278
797, 1881, 1883, 2631, 1882, 3530, 4279, 4280, 4281
798, 2284, 2082, 2457, 2285, 3761, 4282, 4074, 4283
799, 2315, 1702, 1962, 2164, 4284, 4285, 3669, 4286
800, 2248, 2249, 2262, 2251, 3737, 3743, 4287, 4288
801, 280, 281, 1834, 2638, 320, 4289, 4290, 4291
802, 2633, 2639, 1987, 2026, 4292, 4293, 4294, 4295
803, 2519, 2520, 2647, 1709, 4296, 4297, 4298, 4299
804, 2654, 2653, 1880, 2652, 4300, 4301, 4302, 4303
805, 1791, 1790, 2659, 2197, 3465, 4304, 4305, 4306
806, 1884, 2489, 2210, 2208, 4307, 4308, 3697, 4309
807, 2625, 2649, 2559, 2656, 4310, 4311, 4312, 4313
808, 2649, 2625, 6, 2542, 4310, 4268, 4314, 4315
809, 2466, 2663, 1757, 2662, 4316, 4317, 4318, 4319
810, 1912, 2096, 2418, 2415, 4320, 4321, 4322, 4323
811, 2084, 2089, 2044, 2042, 4324, 4325, 3596, 3625
812, 2483, 1900, 1898, 2482, 4053, 4326, 4327, 4191
813, 2170, 2541, 2230, 2231, 4328, 4329, 3723, 4159
814, 2154, 1904, 1905, 2155, 4330, 4331, 4332, 3656
815, 2296, 2292, 2376, 2297, 3776, 3881, 4333, 4163
816, 2165, 2488, 2496, 2545, 4334, 4335, 4336, 4337
817, 2592, 2594, 2685, 2591, 4338, 4339, 4340, 4341
818, 2684, 2683, 2686, 2682, 4342, 4343, 4344, 4345
819, 2689, 2352, 2693, 2610, 4346, 4347, 4348, 4349
820, 1891, 2047, 1741, 1889, 4350, 4351, 4026, 4237
821, 2396, 2585, 2348, 2570, 4352, 4353, 4354, 4241
822, 1769, 2304, 1934, 1956, 4355, 4356, 4357, 3917
823, 2349, 2348, 2700, 2350, 4358, 4359, 4360, 4361
824, 2701, 2702, 2703, 1973, 4362, 4363, 4364, 4365
825, 1881, 1882, 2300, 1884, 4281, 4366, 4367, 4368
826, 2554, 2552, 17, 2714, 4165, 4369, 4370, 4371
827, 2715, 2377, 2372, 2716, 4372, 4373, 4374, 4375
828, 1892, 1982, 2427, 1894, 3561, 4376, 4377, 3522
829, 2544, 2496, 1894, 2427, 4378, 4379, 4377, 4380
830, 2721, 2720, 2723, 2722, 4381, 4382, 4383, 4384
831, 2510, 2725, 2641, 2509, 4385, 4386, 4387, 4106
832, 2679, 2590, 2252, 2224, 4388, 4389, 3856, 4390
833, 2596, 1994, 2586, 2600, 4391, 4210, 4392, 4393
834, 2141, 2218, 2055, 2056, 4394, 4395, 3614, 4396
835, 2417, 2418, 2096, 2039, 3926, 4321, 3627, 4270
836, 2061, 2062, 2730, 2728, 4397, 4398, 4399, 4400
837, 2734, 2735, 2736, 2676, 4401, 4402, 4403, 4404
838, 2678, 2677, 2734, 2676, 4405, 4406, 4404, 4407
839, 2731, 2733, 2737, 2732, 4408, 4409, 4410, 4411
840, 2391, 2328, 2239, 2237, 4412, 3815, 4413, 4414
841, 2152, 2742, 1951, 1960, 4415, 4416, 3601, 4417
842, 1748, 2429, 2050, 2048, 4418, 4419, 4420, 3640
843, 2023, 2750, 2751, 2749, 4421, 4422, 4423, 4424
844, 271, 272, 2759, 2441, 311, 4425, 4426, 3971
845, 2747, 2748, 2762, 1931, 4427, 4428, 4429, 4430
846, 2133, 2134, 2765, 2132, 4431, 4432, 4433, 4434
847, 2763, 2764, 2767, 2766, 4435, 4436, 4437, 4438
848, 2187, 2195, 2770, 2186, 4439, 4440, 4441, 4442
849, 1940, 2752, 2353, 2225, 4443, 4444, 4445, 4446
850, 2772, 2667, 2668, 2771, 4447, 4448, 4449, 4450
851, 2177, 23, 1, 2254, 3676, 442, 3853, 4451
852, 2393, 2775, 1842, 2776, 4452, 4453, 4454, 4455
853, 2392, 2157, 2775, 2393, 4456, 4457, 4452, 4458
854, 2147, 2148, 2781, 2780, 3655, 4459, 4460, 4461
855, 1771, 2606, 134, 135, 4462, 4463, 173, 4464
856, 1721, 1722, 1865, 1720, 4465, 4466, 3588, 4467
857, 2227, 2537, 2343, 1780, 4157, 4468, 4469, 4153
858, 2792, 2793, 2794, 2732, 4470, 4471, 4472, 4473
859, 2800, 2799, 2683, 2684, 4474, 4475, 4342, 4476
860, 2803, 2802, 2804, 2801, 4477, 4478, 4479, 4480
861, 2807, 2806, 2808, 2805, 4481, 4482, 4483, 4484
862, 1852, 1935, 2276, 2277, 4485, 4486, 3864, 4487
863, 2809, 2813, 2814, 2607, 4488, 4489, 4490, 4491
864, 1772, 1774, 2744, 1773, 3472, 4492, 4493, 3680
865, 2029, 2220, 2221, 2388, 4494, 3715, 4495, 4496
866, 2826, 2828, 2829, 2827, 4497, 4498, 4499, 4500
867, 2120, 2121, 2652, 1880, 4501, 4502, 4302, 4503
868, 2833, 2592, 2624, 2832, 4504, 4505, 4506, 4507
869, 1753, 2182, 2830, 2168, 4229, 4508, 4509, 4510
870, 2635, 2290, 2289, 2837, 4511, 3768, 4512, 4513
871, 2305, 2113, 2837, 2289, 4185, 4514, 4512, 3794
872, 2387, 2297, 377, 376, 4164, 4515, 408, 3886
873, 2376, 2691, 377, 2297, 4516, 4517, 4515, 4333
874, 2043, 28, 1776, 2081, 4518, 4101, 4200, 3623
875, 2717, 2822, 2758, 2719, 4519, 4520, 4521, 4522
876, 2308, 1895, 1896, 2727, 4523, 4524, 4525, 4526
877, 2839, 2444, 1937, 1938, 4527, 4528, 4529, 4530
878, 2845, 1825, 1823, 2500, 4531, 4532, 4149, 4533
879, 2847, 2846, 2849, 2848, 4534, 4535, 4536, 4537
880, 2468, 2467, 2850, 2365, 4538, 4539, 4540, 4541
881, 2183, 2447, 2852, 2448, 4542, 4543, 4544, 4545
882, 2447, 268, 269, 2852, 4077, 308, 4546, 4543
883, 2783, 2858, 2683, 2799, 4547, 4548, 4475, 4549
884, 2854, 2856, 2859, 2855, 4550, 4551, 4552, 4553
885, 2704, 2860, 2861, 2824, 4554, 4555, 4556, 4557
886, 2705, 2706, 2860, 2704, 4558, 4559, 4554, 4560
887, 1729, 2727, 1896, 1728, 4561, 4525, 4562, 3425
888, 1789, 1952, 1959, 1951, 3851, 4563, 3602, 4564
889, 1952, 1958, 2374, 1959, 4565, 4566, 3911, 4563
890, 2640, 2864, 2553, 2555, 4567, 4568, 4167, 4569
891, 1896, 1895, 2866, 1897, 4524, 4570, 4571, 4572
892, 2338, 2336, 1780, 2343, 4573, 4574, 4469, 4575
893, 2336, 2782, 1777, 1780, 4576, 4577, 4154, 4574
894, 2172, 2207, 2204, 2174, 4578, 4579, 4580, 4581
895, 2755, 2754, 2877, 2450, 4582, 4583, 4584, 4585
896, 2519, 2491, 2447, 2521, 4586, 4075, 4587, 4588
897, 2336, 2337, 2688, 2339, 4589, 4590, 4591, 4592
898, 2232, 2329, 396, 397, 4593, 4594, 428, 3844
899, 2177, 2253, 2267, 2255, 4595, 4596, 4597, 4598
900, 2329, 2882, 395, 396, 4599, 4600, 427, 4594
901, 279, 280, 2638, 2027, 319, 4291, 4601, 4602
902, 2343, 2068, 2066, 2338, 4603, 4181, 4604, 4575
903, 2528, 2529, 2884, 2883, 4128, 4605, 4606, 4607
904, 2637, 387, 386, 2886, 4608, 418, 4609, 4610
905, 2251, 2886, 2241, 2523, 4611, 4612, 4124, 4613
906, 389, 388, 2261, 2257, 420, 4614, 4615, 4616
907, 2128, 2202, 1775, 2625, 4617, 4618, 4269, 4619
908, 2536, 2534, 2894, 2565, 4620, 4621, 4622, 4623
909, 1738, 2162, 2163, 2188, 4624, 3662, 4625, 3684
910, 2047, 2162, 1738, 1741, 3663, 4624, 3435, 4351
911, 2690, 378, 377, 2691, 4626, 409, 4517, 4627
912, 1792, 1805, 2508, 2397, 4628, 4629, 4630, 4631
913, 2742, 2152, 2439, 2743, 4415, 4632, 4633, 4634
914, 2680, 2681, 2330, 2576, 4635, 4636, 4637, 4638
915, 2681, 2882, 2329, 2330, 4639, 4599, 4640, 4636
916, 2177, 2254, 2362, 2253, 4451, 3852, 4641, 4595
917, 258, 259, 2301, 2287, 298, 4642, 3792, 3884
918, 2885, 2301, 259, 260, 4643, 4642, 299, 4644
919, 2296, 1809, 1967, 2291, 4162, 3544, 4645, 3777
920, 2745, 1897, 2866, 2895, 4646, 4571, 4647, 4648
921, 2040, 26, 1711, 2039, 4649, 3948, 4271, 3626
922, 2898, 2899, 2901, 2897, 4650, 4651, 4652, 4653
923, 1735, 1736, 386, 387, 3915, 4654, 418, 4655
924, 2450, 2877, 2900, 2452, 4584, 4656, 4657, 4006
925, 1871, 1873, 2400, 1872, 4658, 3896, 4659, 4660
926, 1900, 1899, 2902, 1898, 4661, 4662, 4663, 4326
927, 2541, 2533, 2530, 2230, 4664, 4143, 4665, 4329
928, 2519, 266, 267, 2491, 4666, 306, 4076, 4586
929, 2063, 2065, 2903, 2064, 4667, 4668, 4669, 4670
930, 1805, 1746, 376, 377, 4671, 3476, 408, 4672
931, 2063, 2064, 35, 8, 4670, 4673, 457, 4674
932, 1846, 1955, 2129, 1954, 4675, 4117, 4676, 4218
933, 2112, 1954, 2129, 2111, 4219, 4676, 4677, 4131
934, 1802, 2413, 2463, 2414, 3906, 4678, 4679, 4680
935, 2433, 2442, 2490, 2440, 3975, 4681, 4072, 4000
936, 2019, 2018, 2905, 2020, 4682, 4683, 4684, 4685
937, 2348, 2585, 2508, 2700, 4353, 4686, 4687, 4359
938, 2178, 2650, 1840, 1838, 4688, 4689, 4010, 3902
939, 2397, 2508, 2585, 2396, 4630, 4686, 4352, 4690
940, 2480, 2286, 2580, 2768, 4691, 4199, 4692, 4693
941, 1866, 1867, 195, 196, 4694, 4695, 454, 4696
942, 2768, 2580, 2458, 2452, 4692, 4697, 4007, 4698
943, 2210, 2458, 2580, 2211, 4699, 4697, 4198, 3698
944, 1709, 1707, 266, 2519, 3418, 4700, 4666, 4299
945, 2019, 2020, 2910, 2907, 4685, 4701, 4702, 4703
946, 292, 1874, 2474, 291, 3989, 4040, 4704, 331
947, 1924, 2390, 2524, 2212, 4705, 4706, 4707, 3704
948, 2914, 2626, 1752, 2169, 4708, 4709, 4710, 4711
949, 2168, 2169, 1752, 1753, 3674, 4710, 4712, 4510
950, 1962, 1765, 1763, 1963, 4713, 3445, 4029, 3670
951, 120, 121, 2256, 2442, 159, 3739, 4714, 3974
952, 1984, 1840, 2651, 2917, 4011, 4715, 4716, 4717
953, 387, 2637, 2262, 2260, 4608, 4718, 3746, 4719
954, 1916, 1918, 2531, 1917, 4720, 4721, 4260, 4722
955, 2530, 2531, 1918, 2575, 4142, 4721, 4723, 4724
956, 2112, 2598, 2322, 1845, 4725, 4726, 4727, 4220
957, 2182, 2322, 2598, 2830, 3809, 4726, 4728, 4508
958, 1948, 2173, 2171, 2030, 3830, 4729, 4730, 4731
959, 2533, 2541, 2830, 2598, 4664, 4732, 4728, 4733
960, 2507, 2240, 385, 384, 4098, 4112, 416, 4177
961, 2373, 2375, 1751, 1782, 3870, 4734, 4735, 4736
962, 1778, 2226, 2462, 2227, 4227, 4737, 4158, 4152
963, 2014, 270, 271, 2013, 4738, 310, 3970, 3798
964, 2542, 2064, 2903, 2649, 4739, 4669, 4740, 4315
965, 2759, 1903, 1901, 2441, 4741, 3515, 3973, 4426
966, 2380, 277, 278, 1947, 4018, 317, 4742, 4057
967, 2919, 2918, 2921, 2865, 4743, 4744, 4745, 4746
968, 2237, 2239, 2462, 2238, 4413, 4747, 4748, 4749
969, 2626, 2423, 2922, 1752, 4750, 4751, 4752, 4709
970, 401, 402, 2423, 2626, 433, 4753, 4750, 4754
971, 2257, 2261, 2228, 1779, 4615, 3747, 3717, 4755
972, 402, 403, 2422, 2423, 434, 4756, 4757, 4753
973, 2855, 2859, 2915, 2923, 4552, 4758, 4759, 4760
974, 1948, 2030, 2220, 2029, 4731, 3709, 4494, 4119
975, 1767, 1768, 2680, 1878, 4761, 4762, 4763, 3499
976, 2890, 2891, 2930, 2893, 4764, 4765, 4766, 4767
977, 2908, 2911, 2813, 2809, 4768, 4769, 4488, 4770
978, 1797, 1845, 2322, 1798, 3484, 4727, 3812, 3458
979, 2214, 2212, 2524, 2318, 3803, 4707, 4125, 3802
980, 2169, 2176, 400, 2914, 3673, 4771, 4772, 4711
981, 2626, 2914, 400, 401, 4708, 4772, 432, 4754
982, 2301, 2885, 2115, 2305, 4643, 4773, 4186, 3793
983, 2604, 2782, 2336, 2339, 4774, 4576, 4592, 4775
984, 2354, 2221, 2225, 2353, 4776, 3714, 4445, 4777
985, 1853, 2615, 2932, 2614, 4778, 4779, 4780, 4781
986, 2259, 2238, 2462, 2226, 4782, 4748, 4737, 4226
987, 1753, 1752, 2922, 1751, 4712, 4752, 4783, 4230
988, 2936, 2935, 2937, 2934, 4784, 4785, 4786, 4787
989, 28, 2043, 2046, 29, 4518, 3598, 4788, 466
990, 2478, 2258, 2257, 1779, 4789, 4790, 4755, 4791
991, 2893, 2930, 2938, 2933, 4766, 4792, 4793, 4794
992, 2634, 2635, 2281, 2636, 4795, 4796, 4797, 4798
993, 150, 2167, 2373, 149, 4799, 3871, 4800, 189
994, 1703, 2887, 1766, 1765, 4801, 4802, 3446, 4803
995, 1721, 1720, 2939, 1719, 4467, 4804, 4805, 4256
996, 2508, 1805, 377, 378, 4629, 4672, 409, 4806
997, 2883, 2940, 1835, 2528, 4807, 4808, 4129, 4607
998, 2681, 2912, 395, 2882, 4809, 4810, 4600, 4639
999, 2576, 2941, 1878, 2680, 4811, 4812, 4763, 4638
1000, 1880, 1878, 2941, 2120, 3500, 4812, 4813, 4503
1001, 2275, 2880, 2688, 2189, 4814, 4815, 4816, 3759
1002, 2604, 2479, 2478, 2782, 4817, 4818, 4819, 4774
1003, 1779, 1777, 2782, 2478, 3716, 4577, 4819, 4791
1004, 2274, 2947, 285, 2946, 4820, 4821, 4822, 4823
1005, 2329, 2232, 2229, 2330, 4593, 3721, 4824, 4640
1006, 2576, 2330, 2229, 2575, 4637, 4824, 4825, 4826
1007, 2635, 2634, 1879, 2290, 4795, 4827, 4037, 4511
1008, 2636, 1967, 1879, 2634, 4828, 3547, 4827, 4798
1009, 2945, 2944, 2386, 2943, 4829, 4830, 4831, 4832
1010, 2951, 2950, 2952, 2949, 4833, 4834, 4835, 4836
1011, 31, 1719, 2939, 7, 4257, 4805, 4837, 463
1012, 1947, 278, 279, 2011, 4742, 318, 4838, 3578
1013, 2172, 2011, 279, 2027, 4078, 4838, 4602, 4839
1014, 2931, 2885, 260, 261, 4840, 4644, 300, 4841
1015, 2101, 2926, 2956, 2925, 4842, 4843, 4844, 4845
1016, 2331, 2726, 2184, 2332, 4846, 4847, 3825, 3827
1017, 2461, 2219, 1760, 1758, 4014, 4848, 4849, 4850
1018, 1758, 1760, 2320, 1759, 4849, 4851, 4852, 4853
1019, 2219, 2067, 2320, 1760, 4013, 4854, 4851, 4848
1020, 1995, 2020, 2905, 2953, 4855, 4684, 4856, 4857
1021, 2954, 2000, 2960, 2955, 4858, 4859, 4860, 4861
1022, 2452, 2900, 2384, 2768, 4657, 4862, 4863, 4698
1023, 2957, 2959, 2961, 2958, 4864, 4865, 4866, 4867
1024, 2415, 2418, 128, 129, 4322, 3925, 167, 4868
1025, 378, 379, 2700, 2508, 410, 4869, 4687, 4806
1026, 2954, 2807, 2805, 2964, 4870, 4484, 4871, 4872
1027, 2967, 2966, 2968, 2965, 4873, 4874, 4875, 4876
1028, 289, 2900, 2877, 288, 4877, 4656, 4878, 328
1029, 2422, 146, 147, 1781, 4879, 186, 3473, 4880
1030, 2962, 2963, 2971, 2772, 4881, 4882, 4883, 4884
1031, 2536, 2565, 2975, 2974, 4623, 4885, 4886, 4887
1032, 1969, 1936, 2976, 2972, 3551, 4888, 4889, 4890
1033, 2516, 1988, 2765, 2977, 4891, 4892, 4893, 4894
1034, 2982, 2858, 2984, 2983, 4895, 4896, 4897, 4898
1035, 2988, 2655, 2986, 2987, 4899, 4900, 4901, 4902
1036, 1805, 1792, 1793, 1746, 4628, 3456, 3477, 4671
1037, 2667, 2670, 3301, 2669, 4903, 4904, 4905, 4906
1038, 1745, 1793, 1795, 1826, 3478, 3455, 3595, 3940
1039, 2998, 2361, 2360, 2999, 4907, 4221, 4908, 4909
1040, 396, 2361, 2998, 397, 4222, 4907, 4910, 428
1041, 2285, 2145, 2143, 2284, 4911, 3649, 4912, 4283
1042, 1884, 2208, 1949, 1881, 4309, 4277, 3527, 4368
1043, 2223, 2222, 3003, 2224, 4913, 4914, 4915, 3859
1044, 2222, 3004, 2642, 3003, 4916, 4917, 4918, 4914
1045, 1759, 2320, 1803, 2778, 4852, 3904, 4919, 4920
1046, 2778, 1803, 1801, 3005, 4919, 4921, 4922, 4923
1047, 2337, 2118, 1740, 2191, 4924, 3630, 3806, 4925
1048, 2067, 2321, 2413, 2320, 4183, 4926, 3905, 4854
1049, 290, 2384, 2900, 289, 4927, 4862, 4877, 329
1050, 2479, 390, 2258, 2478, 4245, 4928, 4789, 4818
1051, 2688, 2880, 2604, 2339, 4815, 4929, 4775, 4591
1052, 2282, 2089, 2412, 2430, 4930, 4931, 3934, 4027
1053, 2479, 2604, 2880, 2603, 4817, 4929, 4932, 4243
1054, 2084, 1923, 2412, 2089, 3833, 3988, 4931, 4324
1055, 270, 2014, 2852, 269, 4738, 4933, 4546, 309
1056, 2448, 2852, 2014, 2313, 4544, 4933, 3797, 4934
1057, 1803, 1802, 2398, 1801, 3903, 4935, 4936, 4921
1058, 2180, 2213, 3019, 2951, 3703, 4937, 4938, 4939
1059, 2621, 2622, 2828, 2620, 4940, 4941, 4942, 4943
1060, 2979, 2981, 3020, 2980, 4944, 4945, 4946, 4947
1061, 2422, 1781, 2922, 2423, 4880, 4948, 4751, 4757
1062, 3023, 3024, 2864, 3005, 4949, 4950, 4951, 4952
1063, 400, 2176, 2175, 399, 4771, 4161, 4953, 431
1064, 3026, 3025, 3021, 2611, 4954, 4955, 4956, 4957
1065, 2543, 3009, 3028, 3027, 4958, 4959, 4960, 4961
1066, 3030, 3021, 3025, 3029, 4962, 4955, 4963, 4964
1067, 2931, 261, 262, 2678, 4841, 301, 4965, 4966
1068, 3039, 3041, 3042, 3040, 4967, 4968, 4969, 4970
1069, 2999, 2116, 3036, 3038, 4971, 4972, 4973, 4974
1070, 1736, 2309, 1895, 2308, 3914, 4975, 4523, 4976
1071, 1736, 2308, 385, 386, 4976, 4977, 417, 4654
1072, 1751, 2922, 1781, 1782, 4783, 4948, 3475, 4735
1073, 2956, 2926, 1933, 1930, 4843, 4978, 3524, 4979
1074, 2285, 2490, 2460, 2145, 4073, 4070, 4980, 4911
1075, 291, 2474, 2384, 290, 4704, 4981, 4927, 330
1076, 2568, 2217, 1795, 1794, 4982, 3707, 3454, 4983
1077, 3051, 3053, 2674, 3052, 4984, 4985, 4986, 4987
1078, 2235, 2205, 2206, 1747, 4988, 3693, 4989, 3726
1079, 2264, 2244, 2242, 2246, 4990, 3727, 3733, 4991
1080, 2768, 2384, 2474, 2480, 4863, 4981, 4039, 4693
1081, 2264, 2246, 1998, 2263, 4991, 3732, 4992, 4993
1082, 3034, 3050, 2346, 2073, 4994, 4995, 4996, 4997
1083, 2963, 1756, 1757, 2663, 4998, 4999, 4317, 5000
1084, 1748, 2075, 2195, 1750, 3639, 5001, 5002, 3441
1085, 1735, 2919, 2865, 1737, 5003, 4746, 5004, 3912
1086, 3066, 3065, 3067, 3064, 5005, 5006, 5007, 5008
1087, 395, 2912, 1770, 394, 4810, 5009, 4178, 426
1088, 129, 130, 3068, 2415, 168, 5010, 5011, 4868
1089, 1960, 152, 153, 2152, 3951, 192, 5012, 4417
1090, 1775, 2202, 2920, 1705, 4618, 5013, 5014, 3586
1091, 3069, 3071, 3072, 3070, 5015, 5016, 5017, 5018
1092, 2128, 2126, 2920, 2202, 5019, 5020, 5013, 4617
1093, 3069, 3074, 3075, 3073, 5021, 5022, 5023, 5024
1094, 2034, 2035, 1705, 2920, 3821, 3748, 5014, 5025
1095, 2097, 3001, 2392, 2088, 5026, 5027, 5028, 3635
1096, 2152, 153, 2407, 2439, 5012, 4083, 4051, 4632
1097, 3077, 3076, 3045, 3012, 5029, 5030, 5031, 5032
1098, 2693, 2752, 1942, 1722, 5033, 5034, 5035, 5036
1099, 3078, 2652, 2831, 3079, 5037, 5038, 5039, 5040
1100, 1957, 2181, 2374, 1958, 3807, 5041, 4566, 3813
1101, 2994, 2995, 2989, 2991, 5042, 5043, 5044, 5045
1102, 2677, 263, 264, 2879, 5046, 303, 5047, 5048
1103, 3081, 2061, 2728, 3082, 5049, 4400, 5050, 5051
1104, 2343, 2537, 2321, 2068, 4468, 5052, 4182, 4603
1105, 3083, 3074, 3084, 3059, 5053, 5054, 5055, 5056
1106, 2575, 1918, 2941, 2576, 4723, 5057, 4811, 4826
1107, 2120, 2941, 1918, 1916, 4813, 5057, 4720, 5058
1108, 2413, 2321, 2537, 2463, 4926, 5052, 4156, 4678
1109, 1813, 1815, 2459, 1812, 5059, 5060, 5061, 5062
1110, 2130, 2158, 2840, 2525, 4065, 5063, 5064, 4115
1111, 3005, 2864, 2640, 2778, 4951, 4567, 5065, 4923
1112, 2738, 3089, 3091, 2816, 5066, 5067, 5068, 5069
1113, 2131, 2132, 2692, 2942, 5070, 5071, 5072, 5073
1114, 146, 2422, 403, 16, 4879, 4756, 435, 185
1115, 1763, 1764, 3095, 2327, 3448, 5074, 5075, 4030
1116, 2682, 2925, 2956, 3040, 5076, 4844, 5077, 5078
1117, 2165, 2069, 2070, 2488, 3664, 4036, 5079, 4334
1118, 2682, 3040, 3042, 2684, 5078, 4969, 5080, 4345
1119, 1766, 2398, 3095, 1764, 5081, 5082, 5074, 3447
1120, 3014, 3045, 3096, 3043, 5083, 5084, 5085, 5086
1121, 1802, 2414, 3095, 2398, 4680, 5087, 5082, 4935
1122, 1942, 1941, 3097, 3008, 5088, 5089, 5090, 5091
1123, 2091, 3100, 3031, 3099, 5092, 5093, 5094, 5095
1124, 3103, 3041, 3104, 3013, 5096, 5097, 5098, 5099
1125, 2328, 2494, 2070, 2326, 5100, 5101, 4035, 3816
1126, 2562, 3085, 2428, 2487, 5102, 5103, 5104, 5105
1127, 1866, 196, 11, 2022, 4696, 455, 5106, 5107
1128, 3055, 3056, 3114, 3057, 5108, 5109, 5110, 5111
1129, 2709, 2710, 3113, 2560, 5112, 5113, 5114, 5115
1130, 3116, 3119, 3075, 3118, 5116, 5117, 5118, 5119
1131, 2560, 3113, 3120, 2556, 5114, 5120, 5121, 4172
1132, 2033, 2032, 2269, 2031, 5122, 3841, 3752, 5123
1133, 1771, 135, 136, 1761, 4464, 174, 5124, 3451
1134, 2639, 3123, 22, 3122, 5125, 5126, 5127, 5128
1135, 2432, 2457, 2082, 2416, 4002, 4282, 5129, 3968
1136, 2991, 2997, 3124, 2994, 5130, 5131, 5132, 5045
1137, 2083, 198, 2416, 2082, 5133, 3923, 5129, 3760
1138, 3127, 3126, 3128, 3125, 5134, 5135, 5136, 5137
1139, 3035, 2073, 2071, 2622, 5138, 5139, 5140, 5141
1140, 2345, 2355, 2357, 2389, 3848, 5142, 5143, 5144
1141, 2336, 2338, 2118, 2337, 4573, 5145, 4924, 4589
1142, 2338, 2066, 2119, 2118, 4604, 4141, 3631, 5145
1143, 3121, 3026, 2358, 2356, 5146, 5147, 5148, 5149
1144, 2953, 3129, 1980, 1995, 5150, 5151, 3571, 4857
1145, 2345, 3131, 2277, 2059, 5152, 5153, 3867, 5154
1146, 2117, 3133, 2829, 3132, 5155, 5156, 5157, 5158
1147, 2880, 392, 391, 2603, 5159, 423, 4244, 4932
1148, 2939, 3136, 34, 7, 5160, 5161, 458, 4837
1149, 2855, 2857, 3139, 2854, 5162, 5163, 5164, 4553
1150, 2366, 2138, 2136, 2623, 3862, 3642, 5165, 4264
1151, 2159, 1992, 1867, 1866, 5166, 5167, 4694, 5168
1152, 3144, 3147, 3148, 3146, 5169, 5170, 5171, 5172
1153, 2977, 3149, 3150, 2978, 5173, 5174, 5175, 5176
1154, 2898, 2897, 3151, 2896, 4653, 5177, 5178, 5179
1155, 2292, 2298, 1861, 1975, 5180, 5181, 5182, 3878
1156, 1860, 1862, 1975, 1861, 5183, 5184, 5182, 5185
1157, 1860, 1861, 2298, 1863, 5185, 5181, 5186, 5187
1158, 3151, 2719, 2840, 2896, 5188, 5189, 5190, 5178
1159, 1722, 1721, 2610, 2693, 4465, 4255, 4348, 5036
1160, 2828, 2622, 2071, 2829, 4941, 5140, 5191, 4498
1161, 2072, 2218, 3141, 2071, 5192, 5193, 5194, 5195
1162, 2740, 2739, 3152, 2738, 5196, 5197, 5198, 5199
1163, 3153, 2827, 3157, 3156, 5200, 5201, 5202, 5203
1164, 2685, 3159, 3160, 3158, 5204, 5205, 5206, 5207
1165, 2136, 2137, 2139, 3140, 3641, 3647, 5208, 5209
1166, 2097, 3000, 3134, 3001, 5210, 5211, 5212, 5026
1167, 2283, 200, 198, 2083, 5213, 449, 5133, 3763
1168, 2591, 2593, 2624, 2592, 5214, 5215, 4505, 4341
1169, 2172, 2027, 2638, 2207, 4839, 4601, 5216, 4578
1170, 1788, 1789, 1951, 2742, 3461, 4564, 4416, 5217
1171, 1834, 2876, 2207, 2638, 5218, 5219, 5216, 4290
1172, 403, 2302, 145, 16, 5220, 3787, 184, 435
1173, 2864, 3024, 475, 2553, 4950, 5221, 5222, 4568
1174, 3153, 3154, 2826, 2827, 5223, 5224, 4500, 5200
1175, 2167, 150, 151, 1961, 4799, 190, 3950, 3910
1176, 1911, 2009, 2215, 1875, 3593, 3766, 5225, 3945
1177, 2286, 2480, 1875, 2215, 4691, 4038, 5225, 3765
1178, 3161, 3163, 2808, 2806, 5226, 5227, 4482, 5228
1179, 2223, 2365, 2850, 2364, 3858, 4540, 5229, 5230
1180, 2116, 2117, 3132, 3036, 5231, 5158, 5232, 4972
1181, 2468, 2365, 2252, 2469, 4541, 3857, 5233, 5234
1182, 3043, 3096, 3061, 3101, 5085, 5235, 5236, 5237
1183, 2310, 2311, 1871, 1872, 5238, 5239, 4660, 5240
1184, 2795, 2796, 2627, 2798, 5241, 5242, 5243, 5244
1185, 2236, 2078, 2666, 2307, 5245, 5246, 5247, 5248
1186, 2656, 2559, 2558, 2127, 4312, 5249, 5250, 5251
1187, 2557, 2556, 2037, 2558, 4169, 5252, 5253, 5254
1188, 2670, 2667, 2772, 2971, 4903, 4447, 4883, 5255
1189, 3026, 2611, 2612, 2358, 4957, 5256, 5257, 5147
1190, 3154, 3153, 3031, 3155, 5223, 5258, 5259, 5260
1191, 2730, 2062, 1830, 1925, 4398, 5261, 3539, 5262
1192, 2490, 2442, 2256, 1983, 4681, 4714, 5263, 4071
1193, 1713, 1985, 1983, 2256, 3424, 3557, 5263, 3738
1194, 2364, 2850, 3169, 2367, 5229, 5264, 5265, 3860
1195, 2312, 2314, 2942, 2311, 5266, 5267, 5268, 5269
1196, 2312, 2316, 3172, 2314, 5270, 5271, 5272, 5266
1197, 2708, 2707, 2549, 2548, 5273, 5274, 5275, 5276
1198, 2963, 2663, 2670, 2971, 5000, 5277, 5255, 4882
1199, 2161, 2047, 1891, 2360, 3660, 4350, 5278, 4224
1200, 2999, 2360, 1891, 2116, 4908, 5278, 4236, 4971
1201, 1914, 2086, 2881, 2085, 5279, 5280, 5281, 5282
1202, 2779, 2085, 2881, 3180, 5283, 5281, 5284, 5285
1203, 2575, 2229, 2230, 2530, 4825, 3720, 4665, 4724
1204, 3182, 3181, 2895, 2866, 5286, 5287, 4647, 5288
1205, 2985, 3032, 3037, 3033, 5289, 5290, 5291, 5292
1206, 2607, 2608, 2909, 2809, 4253, 5293, 5294, 4491
1207, 2937, 3186, 2728, 2730, 5295, 5296, 4399, 5297
1208, 3068, 130, 131, 2890, 5010, 169, 5298, 5299
1209, 1899, 1900, 382, 381, 4661, 4055, 413, 5300
1210, 1785, 1750, 2195, 2187, 5301, 5002, 4439, 5302
1211, 2606, 1771, 1762, 2605, 4462, 3450, 5303, 5304
1212, 3194, 2644, 3004, 3193, 5305, 5306, 5307, 5308
1213, 2119, 2532, 2017, 2058, 4140, 5309, 5310, 3632
1214, 2746, 2532, 2461, 2512, 5311, 4139, 5312, 5313
1215, 3189, 2605, 1762, 3130, 5314, 5303, 5315, 5316
1216, 3196, 3190, 3198, 2844, 5317, 5318, 5319, 5320
1217, 1825, 2845, 3196, 2844, 4531, 5321, 5320, 5322
1218, 2769, 2856, 2813, 2911, 5323, 5324, 4769, 5325
1219, 2953, 3200, 3188, 3129, 5326, 5327, 5328, 5150
1220, 2788, 2186, 2770, 2787, 5329, 4441, 5330, 5331
1221, 281, 282, 1836, 1834, 321, 5332, 3483, 4289
1222, 2787, 2770, 3202, 3201, 5330, 5333, 5334, 5335
1223, 1740, 2058, 2017, 1739, 3633, 5310, 4231, 3433
1224, 3205, 3207, 2703, 3206, 5336, 5337, 5338, 5339
1225, 2842, 2503, 2501, 2658, 5340, 4094, 5341, 5342
1226, 3205, 3206, 3208, 3204, 5339, 5343, 5344, 5345
1227, 3179, 2712, 2710, 3178, 5346, 5347, 5348, 5349
1228, 1935, 1761, 136, 137, 5350, 5124, 175, 5351
1229, 1757, 1756, 2015, 1755, 4999, 3582, 5352, 5353
1230, 2605, 3189, 3129, 3188, 5314, 5354, 5328, 5355
1231, 2004, 2003, 2079, 2077, 5356, 5357, 3616, 5358
1232, 3023, 474, 475, 3024, 5359, 484, 5221, 4949
1233, 272, 273, 3210, 2759, 312, 5360, 5361, 4425
1234, 3211, 1841, 2147, 2780, 5362, 5363, 4461, 5364
1235, 3211, 3212, 1843, 1841, 5365, 5366, 3495, 5362
1236, 2620, 3121, 2356, 2359, 5367, 5149, 5368, 5369
1237, 3214, 2761, 3213, 2619, 5370, 5371, 5372, 5373
1238, 2571, 2570, 2948, 2764, 4238, 5374, 5375, 5376
1239, 2125, 1844, 1852, 2008, 5377, 5378, 5379, 5380
1240, 2064, 2542, 6, 35, 4739, 4314, 456, 4673
1241, 2141, 3216, 3141, 2218, 5381, 5382, 5193, 4394
1242, 2272, 2271, 2587, 2270, 3782, 5383, 5384, 5385
1243, 2809, 2909, 2471, 2908, 5294, 5386, 5387, 4770
1244, 2273, 2270, 2587, 2274, 5388, 5384, 5389, 5390
1245, 2270, 2273, 2755, 2272, 5388, 5391, 5392, 5385
1246, 134, 3251, 2930, 133, 5393, 5394, 5395, 172
1247, 133, 2930, 2891, 132, 5395, 4765, 5396, 171
1248, 2660, 1749, 1754, 1791, 5397, 3443, 3466, 5398
1249, 2337, 2191, 2189, 2688, 4925, 3805, 4816, 4590
1250, 2937, 2730, 1925, 2934, 5297, 5262, 5399, 4786
1251, 3224, 2993, 3225, 2872, 5400, 5401, 5402, 5403
1252, 2587, 2588, 2947, 2274, 5404, 5405, 4820, 5389
1253, 1926, 1927, 2934, 1925, 5406, 5407, 5399, 3541
1254, 2511, 3162, 2746, 2512, 5408, 5409, 5313, 4104
1255, 2532, 2746, 2599, 2017, 5311, 5410, 4232, 5309
1256, 2646, 3229, 2021, 3228, 5411, 5412, 5413, 5414
1257, 2593, 2591, 2434, 2295, 5214, 5415, 3957, 5416
1258, 2915, 2859, 2788, 2916, 4758, 5417, 5418, 5419
1259, 1909, 2893, 2933, 1908, 5420, 4794, 5421, 3510
1260, 2985, 3201, 3202, 2979, 5422, 5334, 5423, 5424
1261, 34, 3136, 1870, 3230, 5161, 5425, 5426, 5427
1262, 2939, 3135, 2776, 3136, 5428, 5429, 5430, 5160
1263, 2334, 3236, 2150, 3235, 5431, 5432, 5433, 5434
1264, 2714, 17, 468, 2699, 4370, 476, 5435, 5436
1265, 3237, 2943, 2386, 3082, 5437, 4831, 5438, 5439
1266, 1820, 1819, 3238, 1821, 5440, 5441, 5442, 5443
1267, 3238, 3239, 3240, 3046, 5444, 5445, 5446, 5447
1268, 1815, 3050, 3243, 2551, 5448, 5449, 5450, 5451
1269, 2519, 2521, 2648, 2520, 4588, 5452, 5453, 4296
1270, 2348, 3244, 2948, 2570, 5454, 5455, 5374, 4354
1271, 2052, 2054, 2369, 2745, 3606, 5456, 5457, 5458
1272, 2369, 2054, 3248, 2368, 5456, 5459, 5460, 5461
1273, 1846, 1847, 1991, 1955, 3486, 3566, 4067, 4675
1274, 1920, 2551, 1807, 1808, 5462, 5463, 3608, 3936
1275, 1829, 2513, 3167, 3247, 4109, 5464, 5465, 5466
1276, 1708, 265, 266, 1707, 5467, 305, 4700, 3417
1277, 2646, 3228, 200, 2283, 5414, 5468, 5213, 5469
1278, 2054, 2053, 2862, 3248, 3605, 5470, 5471, 5459
1279, 2188, 394, 393, 2190, 5472, 425, 3757, 3685
1280, 2053, 2863, 3253, 2862, 5473, 5474, 5475, 5470
1281, 2143, 2144, 2539, 3002, 3648, 5476, 5477, 5478
1282, 2463, 2462, 3095, 2414, 4155, 5479, 5087, 4679
1283, 1837, 1835, 2940, 1743, 3481, 4808, 5480, 5481
1284, 2132, 2131, 3250, 2133, 5070, 5482, 5483, 4434
1285, 2555, 2641, 2725, 2640, 5484, 4386, 5485, 4569
1286, 3030, 3258, 2493, 2465, 5486, 5487, 4087, 5488
1287, 2024, 3260, 3110, 3259, 5489, 5490, 5491, 5492
1288, 2030, 2171, 1816, 1868, 4730, 5493, 4137, 3710
1289, 2024, 3262, 3215, 3261, 5494, 5495, 5496, 5497
1290, 2024, 3259, 1860, 3262, 5492, 5498, 5499, 5494
1291, 1894, 2496, 2488, 2495, 4379, 4335, 5500, 5501
1292, 2494, 2495, 2488, 2070, 5502, 5500, 5079, 5101
1293, 2514, 3264, 3265, 3263, 5503, 5504, 5505, 5506
1294, 2823, 2861, 3090, 3152, 5507, 5508, 5509, 5510
1295, 3089, 2738, 3152, 3090, 5066, 5198, 5509, 5511
1296, 2473, 3267, 3268, 2472, 5512, 5513, 5514, 4043
1297, 137, 138, 2276, 1935, 176, 5515, 4486, 5351
1298, 2518, 2517, 2026, 2516, 5516, 5517, 5518, 5519
1299, 2524, 2248, 2251, 2523, 5520, 4288, 4613, 4123
1300, 2563, 2562, 2487, 2485, 5521, 5105, 4059, 5522
1301, 2563, 2485, 2486, 2564, 5522, 4058, 5523, 5524
1302, 2741, 2646, 2645, 3269, 5525, 5526, 5527, 5528
1303, 149, 2373, 1782, 148, 4800, 4736, 3474, 188
1304, 2927, 2470, 3197, 2928, 5529, 5530, 5531, 5532
1305, 2051, 3268, 3267, 3266, 5533, 5513, 5534, 5535
1306, 2853, 3038, 3036, 3216, 5536, 4973, 5537, 5538
1307, 2838, 3249, 2454, 2446, 5539, 5540, 5541, 5542
1308, 2233, 2057, 2055, 1814, 5543, 3611, 4247, 3786
1309, 1931, 2762, 3272, 1932, 4429, 5544, 5545, 4120
1310, 2663, 2466, 2464, 2670, 4316, 5546, 5547, 5277
1311, 2577, 3273, 3191, 2100, 5548, 5549, 5550, 5551
1312, 1938, 2484, 3274, 2839, 5552, 5553, 5554, 4530
1313, 2116, 1890, 3133, 2117, 4235, 5555, 5155, 5231
1314, 1890, 1701, 3157, 3133, 4242, 5556, 5557, 5555
1315, 2255, 2650, 2178, 2177, 5558, 4688, 3677, 4598
1316, 2255, 2651, 1840, 2650, 5559, 4715, 4689, 5558
1317, 1931, 1857, 1956, 1934, 4122, 3537, 4357, 5560
1318, 2560, 2561, 2263, 2709, 4171, 5561, 5562, 5115
1319, 2183, 2448, 2313, 2184, 4545, 4934, 3826, 5563
1320, 2453, 2454, 3249, 3172, 3998, 5540, 5564, 5565
1321, 2008, 1852, 2277, 3131, 5379, 4487, 5153, 5566
1322, 2810, 2811, 3277, 2736, 5567, 5568, 5569, 5570
1323, 2547, 3278, 2923, 2915, 5571, 5572, 4759, 5573
1324, 2356, 2358, 3048, 2357, 5148, 5574, 5575, 5576
1325, 2319, 2522, 2564, 2486, 4188, 5577, 5523, 4111
1326, 2389, 2357, 3048, 2010, 5143, 5575, 5578, 5579
1327, 3242, 3241, 1827, 2453, 5580, 5581, 3995, 5582
1328, 3279, 3280, 1766, 2887, 5583, 5584, 4802, 5585
1329, 3007, 3006, 2903, 2065, 5586, 5587, 4668, 5588
1330, 2625, 2656, 2127, 2128, 4313, 5251, 5589, 4619
1331, 2649, 2903, 3006, 2559, 4740, 5587, 5590, 4311
1332, 1940, 2225, 1869, 2753, 4446, 3713, 5591, 5592
1333, 1868, 1817, 2753, 1869, 4136, 5593, 5591, 3711
1334, 2307, 1818, 2235, 2236, 5594, 5595, 3725, 5248
1335, 1788, 2742, 2743, 1867, 5217, 4634, 5596, 5597
1336, 3111, 1906, 3282, 3112, 5598, 5599, 5600, 5601
1337, 2307, 2306, 1817, 1818, 5602, 5603, 4135, 5594
1338, 2023, 3209, 3085, 2025, 5604, 5605, 5606, 5607
1339, 3158, 3284, 2674, 2672, 5608, 5609, 5610, 5611
1340, 1880, 2653, 2303, 1877, 4301, 5612, 3789, 3501
1341, 2439, 195, 1867, 2743, 4050, 4695, 5596, 4633
1342, 3161, 2806, 2955, 3047, 5228, 5613, 5614, 5615
1343, 3261, 3288, 3290, 2750, 5616, 5617, 5618, 5619
1344, 3294, 3293, 3179, 3292, 5620, 5621, 5622, 5623
1345, 2541, 2170, 2168, 2830, 4328, 3671, 4509, 4732
1346, 2165, 2545, 2871, 2166, 4337, 5624, 5625, 3665
1347, 3152, 2739, 3269, 2538, 5197, 5626, 5627, 5628
1348, 1915, 2538, 3269, 2539, 5629, 5627, 5630, 5631
1349, 2955, 2806, 2807, 2954, 5613, 4481, 4870, 4861
1350, 3233, 1888, 3000, 3283, 5632, 5633, 5634, 5635
1351, 2151, 3233, 3246, 3298, 5636, 5637, 5638, 5639
1352, 2534, 2536, 2721, 2535, 4620, 5640, 5641, 5642
1353, 1836, 282, 283, 2529, 5332, 322, 5643, 4130
1354, 2453, 3172, 2316, 3242, 5565, 5271, 5644, 5582
1355, 2590, 1734, 2469, 2252, 4212, 5645, 5233, 4389
1356, 2090, 2091, 3099, 2093, 5646, 5095, 5647, 5648
1357, 3018, 3017, 2936, 3016, 5649, 5650, 5651, 5652
1358, 1862, 2515, 3109, 1977, 5653, 5654, 5655, 5656
1359, 2699, 468, 3307, 2698, 5435, 5657, 5658, 5659
1360, 1853, 1854, 1996, 1856, 5660, 3576, 5661, 5662
1361, 1850, 2696, 2698, 2697, 5663, 5664, 5665, 5666
1362, 2936, 2934, 1927, 3016, 4787, 5407, 5667, 5651
1363, 274, 2411, 3210, 273, 4044, 5668, 5360, 313
1364, 2759, 3210, 1922, 1903, 5361, 5669, 3516, 4741
1365, 2410, 1922, 3210, 2411, 3932, 5669, 5668, 4023
1366, 2108, 2107, 2194, 2106, 5670, 3837, 5671, 5672
1367, 2979, 3202, 2075, 2074, 5423, 5673, 3638, 5674
1368, 2265, 2267, 2086, 2266, 5675, 5676, 5677, 5678
1369, 2601, 2602, 2050, 2429, 5679, 5680, 4419, 5681
1370, 2253, 2881, 2086, 2267, 5682, 5280, 5676, 4596
1371, 3255, 2133, 3250, 3310, 5683, 5483, 5684, 5685
1372, 2754, 287, 288, 2877, 5686, 327, 4878, 4583
1373, 2399, 3308, 3218, 2400, 5687, 5688, 5689, 3899
1374, 2032, 2037, 2341, 2340, 5690, 5691, 3835, 3842
1375, 1976, 1975, 1862, 1977, 3879, 5184, 5656, 5692
1376, 2232, 2351, 2175, 2231, 3843, 5693, 4160, 3722
1377, 2175, 2351, 398, 399, 5693, 3845, 430, 4953
1378, 3195, 2950, 2951, 3019, 5694, 4833, 4938, 5695
1379, 2262, 2637, 2886, 2251, 4718, 4610, 4611, 4287
1380, 2909, 2473, 1953, 2471, 5696, 4042, 4032, 5386
1381, 1729, 1727, 382, 383, 3428, 5697, 414, 5698
1382, 385, 2241, 2886, 386, 4114, 4612, 4609, 417
1383, 2122, 2123, 2617, 2124, 5699, 5700, 5701, 4262
1384, 2613, 2662, 1757, 1755, 5702, 4318, 5353, 5703
1385, 2905, 2018, 3168, 2906, 4683, 5704, 5705, 5706
1386, 2224, 3003, 1964, 2679, 4915, 5707, 5708, 4390
1387, 2879, 264, 265, 1708, 5047, 304, 5467, 5709
1388, 2879, 1708, 1706, 2878, 5709, 3420, 5710, 5711
1389, 1871, 2692, 3314, 1873, 5712, 5713, 5714, 4658
1390, 3312, 2621, 2355, 2344, 5715, 5716, 3847, 5717
1391, 2641, 2555, 3315, 2661, 5484, 5718, 5719, 5720
1392, 2436, 2437, 2040, 2038, 5721, 5722, 3629, 5723
1393, 2831, 3213, 2761, 2818, 5724, 5371, 5725, 5726
1394, 1910, 1908, 3318, 3317, 3507, 5727, 5728, 5729
1395, 2132, 2765, 3314, 2692, 4433, 5730, 5713, 5071
1396, 2158, 1991, 1992, 2159, 4068, 3565, 5166, 5731
1397, 1909, 1912, 2415, 3068, 3509, 4323, 5011, 5732
1398, 3120, 2572, 2194, 2341, 5733, 4203, 3836, 5734
1399, 2265, 2892, 2917, 2651, 5735, 5736, 4716, 5737
1400, 2892, 2460, 1984, 2917, 5738, 4069, 4717, 5736
1401, 387, 2260, 2261, 388, 4719, 3745, 4614, 419
1402, 1932, 391, 392, 1859, 5739, 423, 4147, 4121
1403, 2505, 3319, 3311, 2501, 5740, 5741, 5742, 4093
1404, 2615, 2506, 3320, 2932, 5743, 5744, 5745, 4779
1405, 1728, 2368, 3248, 1730, 5746, 5460, 5747, 3426
1406, 26, 2040, 2437, 4, 4649, 5722, 5748, 438
1407, 2748, 2747, 2988, 2904, 4427, 5749, 5750, 5751
1408, 3286, 3287, 2948, 3244, 5752, 5753, 5455, 5754
1409, 2948, 3287, 2767, 2764, 5753, 5755, 4436, 5375
1410, 2939, 1720, 1864, 3135, 4804, 3591, 5756, 5428
1411, 3027, 3028, 3010, 3058, 4960, 5757, 5758, 5759
1412, 1980, 3129, 3189, 3130, 5151, 5354, 5316, 5760
1413, 2314, 3172, 3249, 3184, 5272, 5564, 5761, 5762
1414, 1743, 1747, 2206, 1837, 3439, 4989, 5763, 5481
1415, 2843, 2315, 2164, 2166, 5764, 4286, 3666, 5765
1416, 1765, 1962, 1702, 1703, 4713, 4285, 5766, 4803
1417, 2356, 2357, 2355, 2359, 5576, 5142, 5767, 5368
1418, 2620, 2359, 2355, 2621, 5369, 5767, 5716, 4943
1419, 2186, 1786, 1785, 2187, 5768, 5769, 5302, 4442
1420, 2257, 2258, 390, 389, 4790, 4928, 421, 4616
1421, 2515, 3108, 2902, 3109, 5770, 5771, 5772, 5654
1422, 1887, 1885, 3065, 3234, 3503, 5773, 5774, 5775
1423, 1785, 1786, 2913, 1784, 5769, 5776, 5777, 5778
1424, 2020, 1995, 1981, 2910, 4855, 3570, 5779, 4701
1425, 3323, 3322, 3324, 3321, 5780, 5781, 5782, 5783
1426, 2350, 2700, 379, 380, 4360, 4869, 411, 5784
1427, 2210, 2489, 2451, 2458, 4308, 4064, 4008, 4699
1428, 2206, 2876, 1834, 1837, 5785, 5218, 3482, 5763
1429, 3068, 2890, 2893, 1909, 5299, 4767, 5420, 5732
1430, 2911, 2908, 2927, 2913, 4768, 5786, 5787, 5788
1431, 2913, 2927, 2928, 1784, 5787, 5532, 5789, 5777
1432, 3123, 2363, 1, 22, 5790, 3854, 444, 5126
1433, 2910, 2963, 2962, 2907, 5791, 4881, 5792, 4702
1434, 2905, 2906, 3318, 3326, 5706, 5793, 5794, 5795
1435, 2300, 1882, 2549, 2707, 4366, 5796, 5274, 5797
1436, 2880, 2275, 393, 392, 4814, 3758, 424, 5159
1437, 2510, 2512, 2461, 1758, 4105, 5312, 4850, 5798
1438, 2842, 2843, 3327, 2503, 5799, 5800, 5801, 5340
1439, 2502, 2503, 3327, 2504, 4091, 5801, 5802, 5803
1440, 2582, 2607, 2814, 2581, 4250, 4490, 5804, 4208
1441, 2829, 3133, 3157, 2827, 5156, 5557, 5201, 4499
1442, 1797, 1787, 1799, 1847, 3457, 3463, 3567, 3485
1443, 1772, 3308, 2, 1800, 5805, 5806, 5807, 3469
1444, 2096, 1912, 1910, 2038, 4320, 3508, 5808, 3628
1445, 2436, 1774, 1804, 2437, 5809, 3471, 5810, 5721
1446, 2692, 1871, 2311, 2942, 5712, 5239, 5268, 5072
1447, 2520, 2648, 2193, 2647, 5453, 5811, 5812, 4297
1448, 2235, 1818, 1816, 2205, 5595, 4138, 3694, 4988
1449, 3232, 1829, 3247, 3231, 5813, 5466, 5814, 5815
1450, 3231, 3247, 1849, 1851, 5814, 5816, 3490, 5817
1451, 1699, 3156, 3157, 1701, 5818, 5202, 5556, 3414
1452, 2476, 2475, 2763, 2477, 5819, 5820, 5821, 4047
1453, 1864, 2028, 2087, 2041, 3590, 5822, 5823, 5824
1454, 2796, 3328, 2565, 2894, 5825, 5826, 4622, 5827
1455, 1848, 1849, 3247, 3167, 3491, 5816, 5465, 5828
1456, 1854, 1853, 2614, 1855, 5660, 4781, 5829, 5830
1457, 1994, 2596, 2597, 470, 4391, 4214, 5831, 5832
1458, 3155, 3121, 2620, 3154, 5833, 5367, 5834, 5260
1459, 2267, 2265, 2651, 2255, 5675, 5737, 5559, 4597
1460, 3154, 2620, 2828, 2826, 5834, 4942, 4497, 5224
1461, 2489, 1884, 2300, 2299, 4307, 4367, 3780, 4062
1462, 2765, 2134, 3149, 2977, 4432, 5835, 5173, 4893
1463, 2708, 2271, 2300, 2707, 5836, 3781, 5797, 5273
1464, 2091, 2090, 3164, 2092, 5646, 5837, 5838, 5839
1465, 2470, 2927, 2908, 2471, 5529, 5786, 5387, 4031
1466, 3197, 1790, 1783, 2928, 5840, 3468, 5841, 5531
1467, 2986, 2808, 3163, 2987, 5842, 5227, 5843, 4901
1468, 3252, 3251, 134, 2606, 5844, 5393, 4463, 5845
1469, 1801, 2398, 1766, 3280, 4936, 5081, 5584, 5846
1470, 3309, 2354, 2689, 2046, 5847, 5848, 5849, 5850
1471, 1769, 1770, 2912, 1768, 4179, 5009, 5851, 5852
1472, 2681, 2680, 1768, 2912, 4635, 4762, 5851, 4809
1473, 3016, 1927, 1926, 2472, 5667, 5406, 4041, 5853
1474, 2890, 131, 132, 2891, 5298, 170, 5396, 4764
1475, 2572, 2711, 2713, 2574, 5854, 5855, 5856, 4204
1476, 1828, 3329, 2455, 1827, 4107, 5857, 3996, 5858
1477, 2139, 2242, 2243, 3140, 3731, 3730, 5859, 5208
1478, 3207, 1972, 1973, 2703, 5860, 3556, 4364, 5337
1479, 3174, 2481, 2477, 3176, 5861, 4048, 5862, 5863
1480, 3174, 1883, 1950, 2481, 5864, 3529, 4045, 5861
1481, 3277, 2811, 2325, 2324, 5568, 5865, 5866, 5867
1482, 2003, 2550, 2076, 2079, 5868, 5869, 3617, 5357
1483, 3033, 2550, 2546, 3187, 5870, 5871, 5872, 5873
1484, 2221, 2354, 3309, 2388, 4776, 5847, 5874, 4495
1485, 2363, 3123, 3334, 3325, 5790, 5875, 5876, 5877
1486, 2878, 1706, 3335, 3289, 5710, 5878, 5879, 5880
1487, 1709, 2647, 3335, 1706, 4298, 5881, 5878, 3419
1488, 3188, 3252, 2606, 2605, 5882, 5845, 5304, 5355
1489, 3231, 3199, 3336, 3232, 5883, 5884, 5885, 5815
1490, 2866, 1895, 2309, 2435, 4570, 4975, 3964, 5886
1491, 1798, 1958, 1952, 1796, 3811, 4565, 3850, 3459
1492, 2566, 2569, 3336, 3199, 5887, 5888, 5884, 5889
1493, 2292, 2293, 3338, 2298, 3775, 5890, 5891, 5180
1494, 2399, 2408, 20, 21, 3898, 5892, 446, 5893
1495, 2279, 2280, 3338, 2281, 5894, 5895, 5896, 5897
1496, 1807, 2551, 3243, 3049, 5463, 5450, 5898, 5899
1497, 2271, 2708, 3339, 2587, 5836, 5900, 5901, 5383
1498, 2344, 3049, 3034, 3312, 5902, 5903, 5904, 5717
1499, 2193, 2798, 2627, 2825, 5905, 5243, 5906, 5907
1500, 1768, 1767, 2304, 1769, 4761, 3791, 4355, 5852
1501, 2089, 2282, 3340, 2044, 4930, 5908, 5909, 4325
1502, 2045, 2029, 3340, 2282, 4118, 5910, 5908, 3960
1503, 2293, 2291, 1967, 2636, 3778, 4645, 4828, 5911
1504, 3286, 3285, 3248, 2862, 5912, 5913, 5471, 5914
1505, 1813, 2347, 2072, 2346, 4249, 5915, 5916, 5917
1506, 2582, 2584, 3253, 2609, 4207, 5918, 5919, 4251
1507, 2566, 2567, 2578, 2569, 5920, 5921, 4196, 5887
1508, 2007, 2006, 2125, 2008, 5922, 5923, 5380, 5924
1509, 2769, 2911, 2913, 1786, 5325, 5788, 5776, 5925
1510, 1815, 1813, 2346, 3050, 5059, 5917, 4995, 5448
1511, 285, 2947, 2884, 284, 4821, 5926, 5927, 324
1512, 2588, 2883, 2884, 2947, 5928, 4606, 5926, 5405
1513, 2529, 283, 284, 2884, 5643, 323, 5927, 4605
1514, 2778, 2640, 2725, 1759, 5065, 5485, 5929, 4920
1515, 2553, 475, 17, 2552, 5222, 485, 4369, 4168
1516, 2510, 1758, 1759, 2725, 5798, 4853, 5929, 4385
1517, 2071, 2073, 2346, 2072, 5139, 4996, 5916, 5195
1518, 2937, 2935, 2847, 3219, 4785, 5930, 5931, 5932
1519, 2026, 2517, 2961, 2633, 5517, 5933, 5934, 4295
1520, 2885, 2931, 2675, 2115, 4840, 5935, 5936, 4773
1521, 2518, 2543, 2961, 2517, 5937, 5938, 5933, 5516
1522, 2678, 2676, 2675, 2931, 4407, 5939, 5935, 4966
1523, 3081, 2383, 2335, 3341, 5940, 5941, 5942, 5943
1524, 3277, 2114, 2115, 2675, 5944, 4187, 5936, 5945
1525, 1744, 1742, 2004, 2077, 3437, 5946, 5358, 5947
1526, 2341, 2037, 2556, 3120, 5691, 5252, 5121, 5734
1527, 2895, 3018, 2052, 2745, 5948, 5949, 5458, 4648
1528, 2930, 3251, 3200, 2938, 5394, 5950, 5951, 4792
1529, 2933, 2938, 3200, 3326, 4793, 5951, 5952, 5953
1530, 3326, 3200, 2953, 2905, 5952, 5326, 4856, 5795
1531, 1813, 1812, 2234, 1814, 5062, 4019, 3783, 4246
1532, 1864, 2041, 2392, 2393, 5824, 5954, 4458, 5955
1533, 2087, 2088, 2392, 2041, 3976, 5028, 5954, 5823
1534, 1867, 1992, 1799, 1788, 5167, 3568, 3462, 5597
1535, 3037, 3032, 2980, 2760, 5290, 5956, 5957, 5958
1536, 2979, 2980, 3032, 2985, 4947, 5956, 5289, 5424
1537, 2223, 2618, 2616, 2222, 5959, 4265, 5960, 4913
1538, 3145, 3345, 2729, 3344, 5961, 5962, 5963, 5964
1539, 2021, 11, 200, 3228, 5965, 448, 5468, 5413
1540, 3305, 3304, 2103, 3306, 5966, 5967, 5968, 5969
1541, 2104, 2105, 3306, 2103, 5970, 5971, 5968, 5972
1542, 2642, 2643, 3346, 1966, 5973, 5974, 5975, 5976
1543, 2460, 2892, 2142, 2145, 5738, 5977, 3650, 4980
1544, 2265, 2266, 2142, 2892, 5678, 5978, 5977, 5735
1545, 2133, 3255, 3149, 2134, 5683, 5979, 5835, 4431
1546, 3085, 2562, 3260, 2025, 5102, 5980, 5981, 5606
1547, 2023, 2025, 3260, 2024, 5607, 5981, 5489, 5982
1548, 2185, 2906, 3168, 2213, 5983, 5705, 5984, 3702
1549, 2990, 2989, 2737, 2733, 5985, 5986, 4409, 5987
1550, 3343, 3105, 1822, 3342, 5988, 5989, 5990, 5991
1551, 1754, 1750, 1785, 1783, 3442, 5301, 5992, 3467
1552, 3244, 2348, 2349, 3245, 5454, 4358, 5993, 5994
1553, 3193, 3004, 2222, 2616, 5307, 4916, 5960, 5995
1554, 2056, 2140, 3347, 2141, 5996, 5997, 5998, 4396
1555, 3242, 3299, 2668, 3241, 5999, 6000, 6001, 5580
1556, 3296, 3295, 3293, 3294, 6002, 6003, 5620, 6004
1557, 2050, 2889, 2097, 2094, 6005, 6006, 3634, 6007
1558, 472, 473, 2887, 1703, 482, 6008, 4801, 6009
1559, 3253, 2584, 2767, 3287, 5918, 6010, 5755, 6011
1560, 3242, 2316, 2952, 3299, 5644, 6012, 6013, 5999
1561, 2172, 2174, 2171, 2173, 4581, 6014, 4729, 4079
1562, 2623, 2624, 2593, 2122, 6015, 5215, 6016, 4261
1563, 2295, 2123, 2122, 2593, 3773, 5699, 6016, 5416
1564, 3167, 3263, 3265, 3349, 6017, 5505, 6018, 6019
1565, 2513, 2514, 3263, 3167, 6020, 5506, 6017, 5464
1566, 3350, 3329, 1829, 3232, 6021, 4110, 5813, 6022
1567, 2740, 2741, 3269, 2739, 6023, 5528, 5626, 5196
1568, 2696, 1850, 1848, 3165, 5663, 3488, 6024, 6025
1569, 2904, 2377, 3351, 2748, 6026, 6027, 6028, 5751
1570, 2144, 1919, 1915, 2539, 6029, 3512, 5631, 5476
1571, 2592, 2833, 1905, 2594, 4504, 6030, 6031, 4338
1572, 1906, 1907, 2594, 1905, 6032, 6033, 6031, 6034
1573, 2467, 2632, 3169, 2850, 6035, 6036, 5264, 4539
1574, 2472, 3268, 3018, 3016, 5514, 6037, 5652, 5853
1575, 1815, 2551, 1920, 2459, 5451, 5462, 6038, 5060
1576, 3161, 3240, 2966, 2967, 6039, 6040, 4873, 6041
1577, 2106, 2192, 2798, 2193, 6042, 6043, 5905, 6044
1578, 2223, 2364, 2366, 2618, 5230, 3863, 4266, 5959
1579, 3108, 2515, 3259, 3110, 5770, 6045, 5491, 6046
1580, 1862, 1860, 3259, 2515, 5183, 5498, 6045, 5653
1581, 2555, 2554, 2836, 3315, 4166, 6047, 6048, 5718
1582, 2661, 3315, 2836, 2834, 5719, 6048, 6049, 6050
1583, 2243, 2245, 2833, 2832, 3729, 6051, 4507, 6052
1584, 2243, 2832, 2624, 3140, 6052, 4506, 6053, 5859
1585, 3318, 2906, 2185, 3317, 5793, 5983, 6054, 5728
1586, 1773, 2744, 3317, 2185, 4493, 6055, 6054, 3701
1587, 2869, 3353, 2791, 3352, 6056, 6057, 6058, 6059
1588, 3336, 3337, 3350, 3232, 6060, 6061, 6022, 5885
1589, 3110, 2563, 2564, 3108, 6062, 5524, 6063, 6046
1590, 3260, 2562, 2563, 3110, 5980, 5521, 6062, 5490
1591, 2274, 2946, 3354, 2273, 4823, 6064, 6065, 5390
1592, 3336, 2569, 2579, 3337, 5888, 4195, 6066, 6060
1593, 3338, 2280, 1863, 2298, 5895, 6067, 5186, 5891
1594, 285, 286, 3354, 2946, 325, 6068, 6064, 4822
1595, 2279, 2278, 1863, 2280, 6069, 6070, 6067, 5894
1596, 2628, 2629, 2736, 2735, 6071, 6072, 4402, 6073
1597, 2496, 2544, 3356, 2545, 4378, 6074, 6075, 4336
1598, 1744, 2077, 2078, 2236, 5947, 3615, 5245, 3724
1599, 2545, 3356, 2870, 2871, 6075, 6076, 6077, 5624
1600, 3338, 2293, 2636, 2281, 5890, 5911, 4797, 5896
1601, 3244, 3245, 3285, 3286, 5994, 6078, 5912, 5754
1602, 3326, 3318, 1908, 2933, 5794, 5727, 5421, 5953
1603, 1743, 2940, 2589, 1742, 5480, 6079, 6080, 3440
1604, 3252, 3188, 3200, 3251, 5882, 5327, 5950, 5844
1605, 2106, 2194, 2573, 2192, 5671, 4202, 6081, 6042
1606, 2588, 2589, 2940, 2883, 6082, 6079, 4807, 5928
1607, 1941, 1940, 2753, 1939, 6083, 5592, 6084, 6085
1608, 1941, 1942, 2752, 1940, 5088, 5034, 4443, 6083
1609, 2791, 2790, 3297, 2789, 6086, 6087, 6088, 6089
1610, 2798, 2192, 2573, 2795, 6043, 6081, 6090, 5244
1611, 1806, 2276, 138, 139, 3865, 5515, 177, 3493
1612, 2007, 1979, 1980, 2006, 6091, 3572, 6092, 5922
1613, 2179, 2180, 2951, 3357, 3678, 4939, 6093, 6094
1614, 2071, 3141, 3132, 2829, 5194, 6095, 5157, 5191
1615, 2073, 3035, 3312, 3034, 5138, 6096, 5904, 4997
1616, 2302, 403, 402, 2233, 5220, 434, 6097, 3785
1617, 2072, 2347, 2055, 2218, 5915, 4248, 4395, 5192
1618, 2374, 2181, 1751, 2375, 5041, 4228, 4734, 3869
1619, 2272, 2755, 2450, 2451, 5392, 4585, 4009, 4063
1620, 2646, 2283, 2284, 2645, 5469, 3762, 6098, 5526
1621, 2142, 2266, 1919, 2144, 5978, 6099, 6029, 3651
1622, 2710, 2709, 1997, 3178, 5112, 6100, 6101, 5348
1623, 2865, 2921, 3351, 2924, 4745, 6102, 6103, 6104
1624, 2377, 2715, 2924, 3351, 4372, 6105, 6103, 6027
1625, 2776, 3135, 1864, 2393, 5429, 5756, 5955, 4455
1626, 2263, 1998, 1997, 2709, 4992, 3574, 6100, 5562
1627, 2018, 3019, 2213, 3168, 6106, 4937, 5984, 5704
1628, 2125, 3130, 1762, 1844, 6107, 5315, 3449, 5377
1629, 2107, 2108, 3359, 2109, 5670, 6108, 6109, 6110
1630, 395, 394, 2188, 2163, 426, 5472, 4625, 4225
1631, 1785, 1784, 2928, 1783, 5778, 5789, 5841, 5992
1632, 2268, 2269, 2342, 2726, 3753, 3840, 6111, 6112
1633, 2107, 2109, 2342, 2340, 6110, 6113, 3839, 3838
1634, 2621, 3312, 3035, 2622, 5715, 6096, 5141, 4940
1635, 141, 142, 2459, 1920, 180, 6114, 6038, 3937
1636, 1812, 2459, 142, 143, 5061, 6114, 181, 4020
1637, 2962, 2774, 2950, 3195, 6115, 6116, 5694, 6117
1638, 2511, 3164, 2090, 3162, 6118, 5837, 6119, 5408
1639, 3249, 2838, 3310, 3250, 5539, 6120, 5684, 6121
1640, 2444, 2839, 3310, 2838, 4527, 6122, 6120, 6123
1641, 1848, 3167, 3349, 3166, 5828, 6019, 6124, 6125
1642, 1774, 2436, 3317, 2744, 5809, 6126, 6055, 4492
1643, 1848, 3166, 2835, 3165, 6125, 6127, 6128, 6024
1644, 3289, 2735, 2734, 2878, 6129, 4401, 6130, 5880
1645, 2237, 2250, 2390, 2391, 6131, 6132, 6133, 4414
1646, 2524, 2390, 2250, 2248, 4706, 6132, 3734, 5520
1647, 3023, 3005, 1801, 3280, 4952, 4922, 5846, 6134
1648, 2963, 2910, 1981, 1756, 5791, 5779, 3583, 4998
1649, 2591, 2685, 3158, 2434, 4340, 5207, 6135, 5415
1650, 2207, 2876, 2206, 2204, 5219, 5785, 3696, 4579
1651, 2171, 2174, 2204, 1816, 6014, 4580, 3695, 5493
1652, 1965, 1968, 2679, 1964, 6136, 6137, 5708, 6138
1653, 3007, 2561, 2557, 3006, 6139, 4170, 6140, 5586
1654, 2558, 2559, 3006, 2557, 5249, 5590, 6140, 5254
1655, 1910, 3317, 2436, 2038, 5729, 6126, 5723, 5808
1656, 2007, 2008, 3131, 2010, 5924, 5566, 6141, 6142
1657, 2736, 2629, 3361, 2810, 6072, 6143, 6144, 5570
1658, 2462, 2239, 2327, 3095, 4747, 3814, 5075, 5479
1659, 2763, 2475, 2571, 2764, 5820, 6145, 5376, 4435
1660, 2628, 2627, 3361, 2629, 6146, 6147, 6143, 6071
1661, 3266, 2863, 2053, 2051, 6148, 5473, 3604, 5535
1662, 2745, 2369, 1896, 1897, 5457, 6149, 4572, 4646
1663, 2534, 2810, 3361, 2894, 6150, 6144, 6151, 4621
1664, 2098, 2099, 3362, 2101, 6152, 6153, 6154, 6155
1665, 2098, 2100, 3191, 2099, 6156, 5550, 6157, 6152
1666, 2853, 2998, 2999, 3038, 6158, 4909, 4974, 5536
1667, 3363, 2751, 2750, 3290, 6159, 4422, 5618, 6160
1668, 2853, 398, 397, 2998, 6161, 429, 4910, 6158
1669, 2539, 3269, 2645, 3002, 5630, 5527, 6162, 5477
1670, 2143, 3002, 2645, 2284, 5478, 6162, 6098, 4912
1671, 2717, 2719, 3151, 2718, 4522, 5188, 6163, 6164
1672, 2307, 2666, 2665, 2306, 5247, 6165, 6166, 5602
1673, 2664, 1939, 2753, 2665, 6167, 6084, 6168, 6169
1674, 1817, 2306, 2665, 2753, 5603, 6166, 6168, 5593
1675, 2147, 1841, 1842, 2775, 5363, 3498, 4453, 6170
1676, 2919, 1735, 387, 388, 5003, 4655, 419, 6171
1677, 3308, 2399, 21, 2, 5687, 5893, 447, 5806
1678, 2445, 2446, 2454, 2455, 6172, 5541, 3997, 6173
1679, 2146, 2147, 2775, 2157, 3652, 6170, 4457, 6174
1680, 2314, 3184, 2131, 2942, 5762, 6175, 5073, 5267
1681, 2609, 3266, 3267, 2608, 6176, 5534, 6177, 4252
1682, 3249, 3250, 2131, 3184, 6121, 5482, 6175, 5761
1683, 2371, 2370, 2973, 2372, 6178, 6179, 6180, 6181
1684, 2353, 2752, 2693, 2352, 4444, 5033, 4347, 6182
1685, 1905, 2833, 2245, 2155, 6030, 6051, 6183, 4332
1686, 2244, 2156, 2155, 2245, 6184, 3657, 6183, 3728
1687, 2249, 2247, 2238, 2259, 3736, 6185, 4782, 3744
1688, 2866, 2435, 2851, 3182, 5886, 6186, 6187, 5288
1689, 2097, 2889, 3283, 3000, 6006, 6188, 5634, 5210
1690, 2558, 2033, 2031, 2127, 6189, 5123, 6190, 5250
1691, 2032, 2033, 2558, 2037, 5122, 6189, 5253, 5690
1692, 3310, 2839, 3274, 3255, 6122, 5554, 6191, 5685
1693, 1994, 470, 471, 1993, 5832, 479, 3819, 4211
1694, 2198, 2333, 3365, 2334, 6192, 6193, 6194, 6195
1695, 2690, 2691, 2376, 1976, 4627, 4516, 3880, 6196
1696, 1866, 2898, 2896, 2159, 6197, 5179, 6198, 5168
1697, 2159, 2896, 2840, 2158, 6198, 5190, 5063, 5731
1698, 2050, 2602, 3283, 2889, 5680, 6199, 6188, 6005
1699, 1997, 1854, 1855, 3178, 3573, 5830, 6200, 6101
1700, 2253, 2362, 3180, 2881, 4641, 6201, 5284, 5682
1701, 2363, 3325, 3180, 2362, 5877, 6202, 6201, 3855
1702, 3272, 390, 391, 1932, 6203, 422, 5739, 5545
1703, 2263, 2561, 3007, 2264, 5561, 6139, 6204, 4993
1704, 3248, 3285, 3355, 1730, 5913, 6205, 6206, 5747
1705, 2217, 2568, 2630, 2209, 4982, 4272, 4278, 4193
1706, 2909, 2608, 3267, 2473, 5293, 6177, 5512, 5696
1707, 1996, 2137, 2135, 1856, 3645, 3644, 6207, 5661
1708, 2367, 3169, 2135, 2138, 5265, 6208, 3643, 3861
1709, 2571, 2475, 2476, 2395, 6145, 5819, 4274, 4239
1710, 2632, 1856, 2135, 3169, 6209, 6207, 6208, 6036
1711, 1949, 2630, 2476, 1950, 4276, 4275, 4046, 3528
1712, 2238, 2247, 2250, 2237, 6185, 3735, 6131, 4749
1713, 2879, 2878, 2734, 2677, 5711, 6130, 4406, 5048
1714, 2678, 262, 263, 2677, 4965, 302, 5046, 4405
1715, 33, 2154, 2063, 8, 6210, 3659, 4674, 461
1716, 2029, 2388, 3309, 3340, 4496, 5874, 6211, 5910
1717, 1786, 2186, 2788, 2769, 5768, 5329, 6212, 5925
1718, 2596, 2600, 2679, 1968, 4393, 6213, 6137, 4215
1719, 2590, 2679, 2600, 2586, 4388, 6213, 4392, 4213
1720, 1807, 3049, 2344, 2060, 5899, 5902, 3846, 3609
1721, 3018, 3268, 2051, 2052, 6037, 5533, 3607, 5949
1722, 3136, 2776, 1842, 1870, 5430, 4454, 3497, 5425
1723, 3285, 3245, 2349, 3355, 6078, 5993, 6214, 6205
1724, 3108, 2564, 1898, 2902, 6063, 6215, 4663, 5771
1725, 381, 382, 3355, 2349, 413, 6216, 6214, 6217
1726, 2482, 1898, 2564, 2522, 4327, 6215, 5577, 4190
1727, 2324, 2279, 2281, 2323, 6218, 5897, 6219, 6220
1728, 2712, 2711, 3113, 2710, 6221, 6222, 5113, 5347
1729, 2324, 2325, 2278, 2279, 5866, 6223, 6069, 6218
1730, 2572, 3120, 3113, 2711, 5733, 5120, 6222, 5854
1731, 2425, 2426, 2487, 2428, 6224, 6225, 5104, 6226
1732, 2425, 2427, 1982, 2426, 6227, 4376, 6228, 6224
1733, 3048, 2358, 2612, 3063, 5574, 5257, 6229, 6230
1734, 1755, 2015, 3063, 2612, 5352, 6231, 6229, 6232
1735, 1989, 2487, 2426, 1982, 4060, 6225, 6228, 3564
1736, 2087, 2028, 3097, 2443, 5822, 6233, 6234, 3977
1737, 384, 385, 2308, 2727, 416, 4977, 4526, 6235
1738, 2264, 3007, 2156, 2244, 6204, 6236, 6184, 4990
1739, 2063, 2156, 3007, 2065, 3658, 6236, 5588, 4667
1740, 2112, 2110, 2533, 2598, 4134, 4144, 4733, 4725
1741, 3051, 3183, 3313, 3142, 6237, 6238, 6239, 6240
1742, 3049, 3243, 3050, 3034, 5898, 5449, 4994, 5903
1743, 3137, 3227, 3367, 3226, 6241, 6242, 6243, 6244
1744, 1972, 3207, 3367, 3227, 5860, 6245, 6242, 6246
1745, 398, 2853, 3347, 399, 6161, 6247, 6248, 430
1746, 2731, 2757, 2758, 2822, 6249, 6250, 4520, 6251
1747, 2128, 2127, 2031, 2126, 5589, 6190, 3751, 5019
1748, 2731, 2818, 2761, 2757, 6252, 5725, 6253, 6249
1749, 2141, 3347, 2853, 3216, 5998, 6247, 5538, 5381
1750, 3280, 3279, 474, 3023, 5583, 6254, 5359, 6134
1751, 2887, 473, 474, 3279, 6008, 483, 6254, 5585
1752, 1852, 1844, 1761, 1935, 5378, 3452, 5350, 4485
1753, 401, 2057, 2233, 402, 3612, 5543, 6097, 433
1754, 2723, 2724, 2105, 2722, 6255, 6256, 6257, 4383
1755, 2669, 3301, 3264, 3302, 4905, 6258, 6259, 6260
1756, 3266, 2609, 3253, 2863, 6176, 5919, 5474, 6148
1757, 2920, 2126, 2268, 2034, 5020, 3754, 6261, 5025
1758, 2345, 2389, 2010, 3131, 5144, 5579, 6141, 5152
1759, 3218, 3308, 1772, 2179, 5688, 5805, 3679, 6262
1760, 2108, 2106, 2193, 2648, 5672, 6044, 5811, 6263
1761, 2726, 2331, 2034, 2268, 4846, 3822, 6261, 6112
1762, 1942, 3008, 1865, 1722, 5091, 6264, 4466, 5035
1763, 2092, 3300, 3100, 2091, 6265, 6266, 5092, 5839
1764, 2124, 2617, 3193, 2616, 5701, 6267, 5995, 4267
1765, 3031, 3100, 3300, 3029, 5093, 6266, 6268, 6269
1766, 1824, 1833, 2294, 1823, 6270, 3771, 6271, 6272
1767, 2085, 2777, 1913, 1914, 6273, 6274, 3514, 5282
1768, 2447, 2183, 3359, 2521, 4542, 6275, 6276, 4587
1769, 2108, 2648, 2521, 3359, 6263, 5452, 6276, 6108
1770, 2184, 2109, 3359, 2183, 6277, 6109, 6275, 5563
1771, 3218, 2179, 3357, 2310, 6262, 6094, 6278, 6279
1772, 2114, 2323, 2837, 2113, 6280, 6281, 4514, 4184
1773, 2635, 2837, 2323, 2281, 4513, 6281, 6219, 4796
1774, 2310, 3357, 2951, 2949, 6278, 6093, 4836, 6282
1775, 2811, 2812, 3291, 2325, 6283, 6284, 6285, 5865
1776, 2735, 3289, 3335, 2628, 6129, 5879, 6286, 6073
1777, 2989, 2990, 2997, 2991, 5985, 6287, 5130, 5044
1778, 2136, 3140, 2624, 2623, 5209, 6053, 6015, 5165
1779, 2193, 2825, 3335, 2647, 5907, 6288, 5881, 5812
1780, 2627, 2628, 3335, 2825, 6146, 6286, 6288, 5906
1781, 3329, 3350, 2445, 2455, 6021, 6289, 6173, 5857
1782, 2151, 3298, 3235, 2150, 5639, 6290, 5433, 6291
1783, 3350, 1937, 2444, 2445, 6292, 4528, 6293, 6289
1784, 2466, 2662, 2613, 3177, 4319, 5702, 6294, 6295
1785, 1863, 2278, 3368, 3215, 6070, 6296, 6297, 6298
1786, 2278, 2325, 3291, 3368, 6223, 6285, 6299, 6296
1787, 2979, 2074, 3369, 2981, 5674, 6300, 6301, 4944
1788, 2845, 2500, 2498, 2527, 4533, 4148, 6302, 6303
1789, 2445, 2444, 2838, 2446, 6293, 6123, 5542, 6172
1790, 2120, 1916, 1917, 2121, 5058, 4722, 6304, 4501
1791, 3106, 3105, 3343, 3107, 6305, 5988, 6306, 6307
1792, 2698, 3307, 2419, 2697, 5658, 6308, 6309, 5665
1793, 2511, 2509, 3370, 3164, 4103, 6310, 6311, 6118
1794, 2834, 3364, 3370, 2661, 6312, 6313, 6314, 6050
1795, 2641, 2661, 3370, 2509, 5720, 6314, 6310, 4387
1796, 3217, 2690, 1976, 1977, 6315, 6196, 5692, 6316
1797, 2092, 3164, 3370, 3364, 5838, 6311, 6313, 6317
1798, 2675, 2676, 2736, 3277, 5939, 4403, 5569, 5945
1799, 2323, 2114, 3277, 2324, 6280, 5944, 5867, 6220
1800, 2538, 1915, 2803, 2540, 5629, 6318, 6319, 6320
1801, 3117, 3107, 3343, 3116, 6321, 6306, 6322, 6323
1802, 1914, 1919, 2266, 2086, 3513, 6099, 5677, 5279
1803, 3057, 3114, 2804, 2802, 5110, 6324, 4478, 6325
1804, 2342, 2109, 2184, 2726, 6113, 6277, 4847, 6111
1805, 2972, 2100, 2098, 1969, 6326, 6156, 6327, 4890
1806, 2925, 2929, 2098, 2101, 6328, 6329, 6155, 4845
1807, 378, 2690, 3217, 379, 4626, 6315, 6330, 410
1808, 3356, 2544, 3372, 2870, 6074, 6331, 6332, 6076
1809, 3305, 2870, 3372, 3304, 6333, 6332, 6334, 5966
1810, 2694, 2497, 2493, 2695, 6335, 4088, 6336, 6337
1811, 2771, 2774, 2962, 2772, 6338, 6115, 4884, 4450
1812, 2992, 1974, 3225, 2993, 6339, 6340, 5401, 6341
1813, 2419, 2424, 3371, 2697, 3930, 6342, 6343, 6309
1814, 2602, 2601, 3373, 3246, 5679, 6344, 6345, 6346
1815, 3261, 3215, 3368, 3288, 5496, 6297, 6347, 5616
1816, 3290, 3288, 3368, 3291, 5617, 6347, 6299, 6348
1817, 3150, 3271, 2983, 2984, 6349, 6350, 4897, 6351
1818, 2456, 3369, 2074, 2080, 6352, 6300, 3622, 4174
1819, 3161, 3047, 3046, 3240, 5615, 6353, 5446, 6039
1820, 2856, 2769, 2788, 2859, 5323, 6212, 5417, 4551
1821, 1944, 18, 472, 1943, 6354, 481, 6355, 6356
1822, 1931, 1934, 3374, 2747, 5560, 6357, 6358, 4430
1823, 3223, 1822, 1820, 3125, 6359, 6360, 6361, 6362
1824, 2653, 2655, 3374, 2303, 6363, 6364, 6365, 5612
1825, 2304, 2303, 3374, 1934, 3790, 6365, 6357, 4356
1826, 1821, 3127, 3125, 1820, 6366, 5137, 6361, 5443
1827, 2428, 2102, 3372, 2425, 6367, 6368, 6369, 6226
1828, 2103, 3304, 3372, 2102, 5967, 6334, 6368, 6370
1829, 1702, 1943, 472, 1703, 6371, 6355, 6009, 5766
1830, 3097, 1941, 1939, 3098, 5089, 6085, 6372, 6373
1831, 2125, 2006, 1980, 3130, 5923, 6092, 5760, 6107
1832, 2664, 3022, 3098, 1939, 6374, 6375, 6372, 6167
1833, 3223, 3125, 3128, 3224, 6362, 5136, 6376, 6377
1834, 2858, 2783, 2785, 2984, 4547, 6378, 6379, 4896
1835, 2594, 1907, 3159, 2685, 6033, 6380, 5204, 4339
1836, 3078, 3079, 2964, 2805, 5040, 6381, 4871, 6382
1837, 1728, 1896, 2369, 2368, 4562, 6149, 5461, 5746
1838, 2818, 2794, 3079, 2831, 6383, 6384, 5039, 5726
1839, 1806, 2060, 2345, 2059, 3610, 3849, 5154, 3866
1840, 2757, 2761, 3214, 2756, 6253, 5370, 6385, 6386
1841, 2111, 2129, 3214, 2619, 4677, 6387, 5373, 4258
1842, 2746, 3162, 3378, 2599, 5409, 6388, 6389, 5410
1843, 1928, 3275, 3379, 3276, 6390, 6391, 6392, 6393
1844, 1906, 3111, 3159, 1907, 5598, 6394, 6380, 6032
1845, 2093, 3378, 3162, 2090, 6395, 6388, 6119, 5648
1846, 1928, 2526, 2773, 3275, 6396, 6397, 6398, 6390
1847, 22, 20, 3380, 3122, 445, 6399, 6400, 5127
1848, 3349, 3265, 2497, 2694, 6018, 6401, 6335, 6402
1849, 1999, 2000, 2954, 2002, 6403, 4858, 6404, 6405
1850, 1821, 2960, 2000, 2001, 6406, 4859, 6407, 6408
1851, 3174, 3173, 2857, 3175, 6409, 6410, 6411, 6412
1852, 2390, 1924, 1893, 2391, 4705, 3520, 6413, 6133
1853, 2443, 3097, 3098, 2456, 6234, 6373, 6414, 4173
1854, 3231, 1851, 3371, 3199, 5817, 6415, 6416, 5883
1855, 2424, 2566, 3199, 3371, 6417, 5889, 6416, 6342
1856, 1850, 2697, 3371, 1851, 5666, 6343, 6415, 3489
1857, 3011, 3010, 3028, 3009, 6418, 5757, 4959, 6419
1858, 3011, 2821, 2819, 3010, 6420, 6421, 6422, 6418
1859, 3150, 3149, 3255, 3271, 5174, 5979, 6423, 6349
1860, 2983, 3271, 3255, 3274, 6350, 6423, 6191, 6424
1861, 2505, 2502, 3320, 2506, 4092, 6425, 5744, 6426
1862, 2495, 2494, 1893, 1894, 5502, 6427, 3519, 5501
1863, 3021, 3030, 2465, 3177, 4962, 5488, 6428, 6429
1864, 2061, 1832, 1830, 2062, 6430, 3534, 5261, 4397
1865, 3372, 2544, 2427, 2425, 6331, 4380, 6227, 6369
1866, 3122, 3380, 1987, 2639, 6400, 6431, 4293, 5128
1867, 2970, 2965, 2968, 2969, 6432, 4875, 6433, 6434
1868, 1988, 1987, 3380, 1986, 6435, 6431, 6436, 6437
1869, 3114, 3115, 2841, 2804, 6438, 6439, 6440, 6324
1870, 2075, 3202, 2770, 2195, 5673, 5333, 4440, 5001
1871, 3303, 3116, 3118, 3222, 6441, 5119, 6442, 6443
1872, 3221, 3118, 3075, 3220, 6444, 5118, 6445, 6446
1873, 2811, 2810, 2534, 2812, 5567, 6150, 6447, 6283
1874, 2098, 2929, 1971, 1969, 6329, 6448, 3552, 6327
1875, 2670, 2464, 2497, 3301, 5547, 4089, 6449, 4904
1876, 3033, 3037, 2076, 2550, 5291, 6450, 5869, 5870
1877, 2078, 2076, 3037, 2760, 3618, 6450, 5958, 6451
1878, 3141, 3216, 3036, 3132, 5382, 5537, 5232, 6095
1879, 2046, 2689, 5, 29, 5849, 6452, 467, 4788
1880, 2353, 2352, 2689, 2354, 6182, 4346, 5848, 4777
1881, 2103, 2102, 3209, 2104, 6370, 6453, 6454, 5972
1882, 2722, 2105, 2104, 2749, 6257, 5970, 6455, 6456
1883, 2023, 2749, 2104, 3209, 4424, 6455, 6454, 5604
1884, 2611, 3021, 3177, 2613, 4956, 6429, 6294, 6457
1885, 2861, 2860, 3124, 3090, 4555, 6458, 6459, 5508
1886, 2470, 1831, 3360, 3197, 4033, 6460, 6461, 5530
1887, 2967, 2370, 3163, 3161, 6462, 6463, 5226, 6041
1888, 3234, 3065, 3066, 2781, 5774, 5005, 6464, 6465
1889, 2611, 2613, 1755, 2612, 6457, 5703, 6232, 5256
1890, 2464, 2466, 3177, 2465, 5546, 6295, 6428, 4090
1891, 3074, 3083, 3220, 3075, 5053, 6466, 6445, 5022
1892, 2526, 2729, 3345, 2773, 6467, 5962, 6468, 6397
1893, 2795, 2797, 3328, 2796, 6469, 6470, 5825, 5241
1894, 3360, 1831, 1832, 3341, 6460, 3531, 6471, 6472
1895, 2749, 2751, 2721, 2722, 4423, 6473, 4384, 6456
1896, 2695, 2868, 3385, 2694, 6474, 6475, 6476, 6337
1897, 3142, 3143, 3345, 3145, 6477, 6478, 5961, 6479
1898, 3349, 2694, 3385, 3166, 6402, 6476, 6480, 6124
1899, 3043, 3044, 3015, 3014, 6481, 6482, 6483, 5086
1900, 3181, 2846, 2847, 2935, 6484, 4534, 5930, 6485
1901, 3058, 3054, 2958, 3027, 6486, 6487, 6488, 5759
1902, 3013, 3012, 3045, 3014, 6489, 5031, 5083, 6490
1903, 3010, 2819, 3204, 3058, 6422, 6491, 6492, 5758
1904, 2766, 3176, 2477, 2763, 6493, 5862, 5821, 4438
1905, 381, 380, 3386, 1899, 412, 6494, 6495, 5300
1906, 1977, 3109, 3386, 3217, 5655, 6496, 6497, 6316
1907, 2902, 1899, 3386, 3109, 4662, 6495, 6496, 5772
1908, 379, 3217, 3386, 380, 6330, 6497, 6494, 411
1909, 3029, 3025, 3155, 3031, 4963, 6498, 5259, 6269
1910, 2817, 2816, 3091, 2815, 6499, 5068, 6500, 6501
1911, 3121, 3155, 3025, 3026, 5833, 6498, 4954, 5146
1912, 3159, 3111, 3212, 3160, 6394, 6502, 6503, 5205
1913, 2817, 2740, 2738, 2816, 6504, 5199, 5069, 6499
1914, 2546, 2547, 2915, 3187, 6505, 5573, 6506, 5872
1915, 3322, 3323, 3191, 3273, 5780, 6507, 5549, 6508
1916, 3112, 1843, 3212, 3111, 6509, 5366, 6502, 5601
1917, 3330, 2715, 2716, 2849, 6510, 4375, 6511, 6512
1918, 3071, 3138, 2873, 2874, 6513, 6514, 6515, 6516
1919, 2872, 2873, 3387, 2875, 6517, 6518, 6519, 6520
1920, 3098, 3022, 3369, 2456, 6375, 6521, 6352, 6414
1921, 1856, 2632, 3388, 1853, 6209, 6522, 6523, 5662
1922, 3101, 3102, 3044, 3043, 6524, 6525, 6481, 5237
1923, 2467, 3319, 3388, 2632, 6526, 6527, 6522, 6035
1924, 3020, 2981, 3369, 3022, 4945, 6301, 6521, 6528
1925, 2146, 2157, 2392, 3001, 6174, 4456, 5027, 6529
1926, 3080, 2792, 2732, 2737, 6530, 4473, 4410, 6531
1927, 2383, 2386, 2944, 2382, 6532, 4830, 6533, 6534
1928, 3112, 3282, 33, 32, 5600, 6535, 460, 6536
1929, 1905, 1904, 3282, 1906, 4331, 6537, 5599, 6034
1930, 2154, 33, 3282, 1904, 6210, 6535, 6537, 4330
1931, 2978, 3150, 2984, 2785, 5175, 6351, 6379, 6538
1932, 2954, 2964, 2793, 2002, 4872, 6539, 6540, 6404
1933, 3079, 2794, 2793, 2964, 6384, 4471, 6539, 6381
1934, 2987, 3163, 2370, 2371, 5843, 6463, 6178, 6541
1935, 1832, 2061, 3081, 3341, 6430, 5049, 5943, 6471
1936, 1999, 2002, 2793, 2792, 6405, 6540, 4470, 6542
1937, 2573, 2574, 3390, 2795, 4201, 6543, 6544, 6090
1938, 3257, 3042, 3041, 3103, 6545, 4968, 5096, 6546
1939, 3092, 3093, 3220, 3062, 6547, 6548, 6549, 6550
1940, 3054, 3055, 2957, 2958, 6551, 6552, 4867, 6487
1941, 2965, 2970, 3391, 2973, 6432, 6553, 6554, 6555
1942, 1791, 2197, 2203, 2660, 4306, 3691, 6556, 5398
1943, 3391, 2970, 2969, 3219, 6553, 6434, 6557, 6558
1944, 2048, 2050, 2094, 2049, 4420, 6007, 4180, 3620
1945, 2548, 2549, 3278, 2547, 5275, 6559, 5571, 6560
1946, 2668, 3299, 2952, 2771, 6000, 6013, 6561, 4449
1947, 2962, 3195, 2019, 2907, 6117, 6562, 4703, 5792
1948, 2719, 2758, 2525, 2840, 4521, 6563, 5064, 5189
1949, 2929, 2925, 2682, 2687, 6328, 5076, 6564, 6565
1950, 3128, 3126, 3393, 2996, 5135, 6566, 6567, 6568
1951, 2554, 2714, 3170, 2836, 4371, 6569, 6570, 6047
1952, 2994, 2996, 3393, 2995, 6571, 6567, 6572, 5042
1953, 3127, 3383, 3393, 3126, 6573, 6574, 6566, 5134
1954, 3328, 2797, 2975, 2565, 6470, 6575, 4885, 5826
1955, 2151, 2150, 3092, 2149, 6291, 6576, 6577, 6578
1956, 1823, 2673, 2671, 2499, 6579, 6580, 6581, 4150
1957, 2526, 2498, 2499, 2729, 6582, 4151, 6583, 6467
1958, 2484, 1970, 1971, 2492, 6584, 3549, 6585, 6586
1959, 2484, 1938, 1936, 1970, 5552, 6587, 3550, 6584
1960, 3088, 3389, 3366, 3086, 6588, 6589, 6590, 6591
1961, 3165, 2835, 2836, 3170, 6128, 6592, 6570, 6593
1962, 2771, 2952, 2950, 2774, 6561, 4834, 6116, 6338
1963, 2655, 2988, 2747, 3374, 4899, 5749, 6358, 6364
1964, 2959, 2957, 2779, 3348, 4864, 6594, 6595, 6596
1965, 2959, 3348, 3325, 3334, 6596, 6597, 5876, 6598
1966, 2093, 3099, 3156, 1699, 5647, 6599, 5818, 6600
1967, 3180, 3325, 3348, 2779, 6202, 6597, 6595, 5285
1968, 2800, 3257, 3375, 2784, 6601, 6602, 6603, 6604
1969, 1853, 3388, 2506, 2615, 6523, 6605, 5743, 4778
1970, 2741, 2740, 2817, 2901, 6023, 6504, 6606, 6607
1971, 2815, 2897, 2901, 2817, 6608, 4652, 6606, 6501
1972, 3103, 3256, 3375, 3257, 6609, 6610, 6602, 6546
1973, 2140, 2056, 401, 400, 5996, 3613, 432, 6611
1974, 1730, 3355, 382, 1727, 6206, 6216, 5697, 3427
1975, 3014, 3015, 3103, 3013, 6483, 6612, 5099, 6490
1976, 3257, 2800, 2684, 3042, 6601, 4476, 5080, 6545
1977, 1860, 1863, 3215, 3262, 5187, 6298, 5495, 5499
1978, 2349, 2350, 380, 381, 4361, 5784, 412, 6217
1979, 2985, 3033, 3187, 3394, 5292, 5873, 6613, 6614
1980, 2505, 2506, 3388, 3319, 6426, 6605, 6527, 5740
1981, 3264, 3301, 2497, 3265, 6258, 6449, 6401, 5504
1982, 2016, 2599, 3378, 1700, 4233, 6389, 6615, 4127
1983, 3082, 2386, 2383, 3081, 5438, 6532, 5940, 5051
1984, 2382, 2381, 2335, 2383, 6616, 6617, 5941, 6534
1985, 2783, 2799, 2800, 2784, 4549, 4474, 6604, 6618
1986, 3138, 3073, 3075, 3119, 6619, 5023, 5117, 6620
1987, 3142, 3144, 3377, 3143, 6621, 6622, 6623, 6477
1988, 2711, 2712, 3392, 2713, 6221, 6624, 6625, 5855
1989, 1699, 1700, 3378, 2093, 3413, 6615, 6395, 6600
1990, 3345, 3143, 3377, 2773, 6478, 6623, 6626, 6468
1991, 1928, 3276, 3039, 1930, 6393, 6627, 6628, 3523
1992, 3078, 2805, 2808, 2986, 6382, 4483, 5842, 6629
1993, 3040, 2956, 1930, 3039, 5077, 4979, 6628, 4970
1994, 3320, 2502, 2504, 3381, 6425, 5803, 6630, 6631
1995, 3320, 3381, 2791, 2789, 6631, 6632, 6089, 6633
1996, 2965, 2973, 2370, 2967, 6555, 6179, 6462, 4876
1997, 3298, 3246, 3373, 3235, 5638, 6345, 6634, 6290
1998, 2015, 1979, 2007, 3063, 3581, 6091, 6635, 6231
1999, 3235, 3373, 2660, 2203, 6634, 6636, 6556, 6637
2000, 2727, 1729, 383, 384, 4561, 5698, 415, 6235
2001, 3055, 3254, 2779, 2957, 6638, 6639, 6594, 6552
2002, 3055, 3057, 2777, 3254, 5111, 6640, 6641, 6638
2003, 3142, 3145, 3053, 3051, 6479, 6642, 4984, 6240
2004, 2672, 2674, 3053, 2671, 5610, 4985, 6643, 6644
2005, 2708, 2548, 3398, 2005, 5276, 6645, 6646, 6647
2006, 2550, 2003, 3398, 2546, 5868, 6648, 6649, 5871
2007, 2646, 2741, 2901, 3229, 5525, 6607, 6650, 5411
2008, 2547, 2546, 3398, 2548, 6505, 6649, 6645, 6560
2009, 2004, 2005, 3398, 2003, 6651, 6646, 6648, 5356
2010, 2717, 2733, 2731, 2822, 6652, 4408, 6251, 4519
2011, 1823, 1825, 3194, 1824, 4532, 6653, 6654, 6272
2012, 2643, 3198, 3190, 3346, 6655, 5318, 6656, 5974
2013, 2123, 1833, 1824, 2617, 3772, 6270, 6657, 5700
2014, 3191, 3323, 3346, 3190, 6507, 6658, 6656, 6659
2015, 3029, 3300, 3258, 3030, 6268, 6660, 5486, 4964
2016, 2695, 2493, 3258, 2867, 6336, 5487, 6661, 6662
2017, 2018, 2019, 3195, 3019, 4682, 6562, 5695, 6106
2018, 2092, 2867, 3258, 3300, 6663, 6661, 6660, 6265
2019, 2977, 2978, 2518, 2516, 5176, 6664, 5519, 4894
2020, 2328, 2391, 1893, 2494, 4412, 6413, 6427, 5100
2021, 3193, 2617, 1824, 3194, 6267, 6657, 6654, 5308
2022, 3009, 2543, 2518, 3270, 4958, 5937, 6665, 6666
2023, 3283, 2602, 3246, 3233, 6199, 6346, 5637, 5635
2024, 471, 18, 1944, 1731, 480, 6354, 6667, 3820
2025, 2085, 2779, 3254, 2777, 5283, 6639, 6641, 6273
2026, 2652, 2121, 3213, 2831, 4502, 6668, 5724, 5038
2027, 2619, 3213, 2121, 1917, 5372, 6668, 6304, 4259
2028, 3092, 2150, 3236, 3093, 6576, 5432, 6669, 6547
2029, 1733, 1731, 1944, 2657, 3429, 6667, 6670, 6671
2030, 1822, 3223, 2875, 3342, 6359, 6672, 6673, 5990
2031, 3186, 2969, 2968, 3237, 6674, 6433, 6675, 6676
2032, 2841, 3382, 2704, 2824, 6677, 6678, 4557, 6679
2033, 2705, 2704, 3382, 2701, 4560, 6678, 6680, 6681
2034, 2435, 2394, 3330, 2851, 3963, 6682, 6683, 6186
2035, 2841, 2824, 2801, 2804, 6679, 6684, 4479, 6440
2036, 1737, 2865, 3330, 2394, 5004, 6685, 6682, 3962
2037, 3092, 3094, 3067, 2149, 6686, 6687, 6688, 6577
2038, 2823, 2540, 2803, 2801, 6689, 6319, 4480, 6690
2039, 3065, 1885, 2149, 3067, 5773, 6691, 6688, 5006
2040, 3198, 3194, 1825, 2844, 6692, 6653, 5322, 5319
2041, 3018, 2895, 3181, 3017, 5948, 5287, 6693, 5649
2042, 2715, 3330, 2865, 2924, 6510, 6685, 6104, 6105
2043, 2846, 2851, 3330, 2849, 6694, 6683, 6512, 4535
2044, 3223, 3224, 2872, 2875, 6377, 5403, 6520, 6672
2045, 2712, 3179, 3293, 3392, 5346, 5621, 6695, 6624
2046, 3295, 3331, 3392, 3293, 6696, 6697, 6695, 6003
2047, 2333, 2198, 2196, 2335, 6192, 3689, 6698, 6699
2048, 3235, 2203, 2198, 2334, 6637, 3690, 6195, 5434
2049, 2873, 2872, 3225, 2874, 6517, 5402, 6700, 6515
2050, 2732, 2794, 2818, 2731, 4472, 6383, 6252, 4411
2051, 2815, 3091, 2990, 2718, 6500, 6701, 6702, 6703
2052, 2717, 2718, 2990, 2733, 6164, 6702, 5987, 6652
2053, 3158, 2672, 2431, 2434, 5611, 6704, 3958, 6135
2054, 1823, 2294, 2431, 2673, 6271, 3959, 6705, 6579
2055, 3059, 3061, 3148, 3060, 6706, 6707, 6708, 6709
2056, 2671, 2673, 2431, 2672, 6580, 6705, 6704, 6644
2057, 3365, 2333, 3303, 3222, 6193, 6710, 6443, 6711
2058, 3367, 3366, 3389, 3226, 6712, 6589, 6713, 6243
2059, 3047, 2955, 2960, 3046, 5614, 4860, 6714, 6353
2060, 3052, 2674, 3284, 3397, 4986, 5609, 6715, 6716
2061, 3137, 3226, 3389, 3072, 6244, 6713, 6717, 6718
2062, 3116, 3303, 2381, 3117, 6441, 6719, 6720, 6323
2063, 2847, 2848, 3391, 3219, 4537, 6721, 6558, 5931
2064, 2372, 2973, 3391, 2716, 6180, 6554, 6722, 4374
2065, 2518, 2978, 2785, 3270, 6664, 6538, 6723, 6665
2066, 2783, 2786, 3270, 2785, 6724, 6725, 6723, 6378
2067, 3332, 3331, 3295, 3333, 6726, 6696, 6727, 6728
2068, 2777, 3057, 2802, 1913, 6640, 6325, 6729, 6274
2069, 1915, 1913, 2802, 2803, 3511, 6729, 4477, 6318
2070, 1968, 1965, 3402, 2595, 6136, 6730, 6731, 4216
2071, 2657, 2658, 3404, 1733, 6732, 6733, 6734, 6671
2072, 2797, 3405, 3331, 3332, 6735, 6736, 6726, 6737
2073, 3333, 2975, 2797, 3332, 6738, 6575, 6737, 6728
2074, 2534, 2535, 3363, 2812, 5642, 6739, 6740, 6447
2075, 3290, 3291, 2812, 3363, 6348, 6284, 6740, 6160
2076, 2721, 2751, 3363, 2535, 6473, 6159, 6739, 5641
2077, 1734, 1733, 3404, 2469, 3430, 6734, 6741, 5645
2078, 2501, 3311, 3404, 2658, 5742, 6742, 6733, 5341
2079, 2929, 2687, 2492, 1971, 6565, 6743, 6585, 6448
2080, 3324, 2567, 2420, 3402, 6744, 6745, 6746, 6747
2081, 2698, 2696, 3171, 2699, 5664, 6748, 6749, 5659
2082, 3170, 2714, 2699, 3171, 6569, 5436, 6749, 6750
2083, 3170, 3171, 2696, 3165, 6750, 6748, 6025, 6593
2084, 2566, 2424, 2420, 2567, 6417, 3929, 6745, 5920
2085, 2421, 2595, 3402, 2420, 6751, 6731, 6746, 3928
2086, 3316, 2760, 2980, 3020, 6752, 5957, 4946, 6753
2087, 3360, 3341, 2335, 2196, 6472, 5942, 6698, 6754
2088, 1973, 1978, 2705, 2701, 3555, 6755, 6681, 4365
2089, 1978, 3376, 2706, 2705, 6756, 6757, 4558, 6755
2090, 3395, 3239, 3401, 2945, 6758, 6759, 6760, 6761
2091, 2666, 2078, 2760, 3316, 5246, 6451, 6752, 6762
2092, 2665, 2666, 3316, 2664, 6165, 6762, 6763, 6169
2093, 3316, 3020, 3022, 2664, 6753, 6528, 6374, 6763
2094, 3211, 2780, 3185, 3396, 5364, 6764, 6765, 6766
2095, 3066, 3183, 3396, 3185, 6767, 6768, 6765, 6769
2096, 3066, 3185, 2780, 2781, 6769, 6764, 4460, 6464
2097, 3175, 2631, 1883, 3174, 6770, 4279, 5864, 6412
2098, 3347, 2140, 400, 399, 5997, 6611, 431, 6248
2099, 3361, 2627, 2796, 2894, 6147, 5242, 5827, 6151
2100, 2396, 2395, 3407, 2397, 4240, 6771, 6772, 4690
2101, 20, 2408, 1986, 3380, 5892, 6773, 6436, 6399
2102, 3076, 3077, 3379, 3377, 5029, 6774, 6775, 6776
2103, 3104, 3276, 3379, 3077, 6777, 6392, 6774, 6778
2104, 2986, 2654, 2652, 3078, 6779, 4303, 5037, 6629
2105, 3275, 2773, 3377, 3379, 6398, 6626, 6775, 6391
2106, 3055, 3054, 3208, 3056, 6551, 6780, 6781, 5108
2107, 3114, 3056, 3208, 3115, 5109, 6781, 6782, 6438
2108, 3297, 2790, 2723, 3399, 6087, 6783, 6784, 6785
2109, 2100, 2972, 2579, 2577, 6326, 6786, 4194, 5551
2110, 2765, 1988, 1986, 3314, 4892, 6437, 6787, 5730
2111, 1873, 3314, 1986, 2408, 5714, 6787, 6773, 3897
2112, 3101, 3061, 3059, 3084, 5236, 6706, 5055, 6788
2113, 1792, 2397, 3407, 1794, 4631, 6772, 6789, 3453
2114, 3220, 3083, 3059, 3062, 6466, 5056, 6790, 6549
2115, 2695, 2867, 2092, 2868, 6662, 6663, 6791, 6474
2116, 1794, 3407, 2395, 2568, 6789, 6771, 4273, 4983
2117, 2708, 2005, 2004, 3339, 6647, 6651, 6792, 5900
2118, 2588, 2587, 3339, 2589, 5404, 5901, 6793, 6082
2119, 1742, 2589, 3339, 2004, 6080, 6793, 6792, 5946
2120, 2718, 3151, 2897, 2815, 6163, 5177, 6608, 6703
2121, 1933, 2926, 2101, 3362, 4978, 4842, 6154, 6794
2122, 3118, 3221, 3365, 3222, 6444, 6795, 6711, 6442
2123, 2311, 2310, 2949, 2312, 5238, 6282, 6796, 5269
2124, 2316, 2312, 2949, 2952, 5270, 6796, 4835, 6012
2125, 3220, 3093, 3236, 3221, 6548, 6669, 6797, 6446
2126, 2010, 3048, 3063, 2007, 5578, 6230, 6635, 6142
2127, 3376, 2996, 2994, 2706, 6798, 6571, 6799, 6757
2128, 2860, 2706, 2994, 3124, 4559, 6799, 5132, 6458
2129, 3334, 2633, 2961, 2959, 6800, 5934, 4865, 6598
2130, 2334, 3365, 3221, 3236, 6194, 6795, 6797, 5431
2131, 3181, 3182, 2851, 2846, 5286, 6187, 6694, 6484
2132, 1804, 1800, 2, 27, 3470, 5807, 436, 6801
2133, 3367, 3207, 3205, 3366, 6245, 5336, 6802, 6712
2134, 3311, 2468, 2469, 3404, 6803, 5234, 6741, 6742
2135, 1987, 1988, 2516, 2026, 6435, 4891, 5518, 4294
2136, 2643, 2644, 3194, 3198, 6804, 5305, 6692, 6655
2137, 3286, 2862, 3253, 3287, 5914, 5475, 6011, 5752
2138, 1974, 1972, 3227, 3225, 3553, 6246, 6805, 6340
2139, 470, 2597, 3408, 469, 5831, 6806, 6807, 478
2140, 2721, 2536, 2974, 2720, 5640, 4887, 6808, 4381
2141, 2723, 2720, 2974, 3399, 4382, 6808, 6809, 6784
2142, 3156, 3099, 3031, 3153, 6599, 5094, 5258, 5203
2143, 2419, 3307, 3408, 2421, 6308, 6810, 6811, 3931
2144, 2701, 3382, 3409, 2702, 6680, 6812, 6813, 4362
2145, 2437, 1804, 27, 4, 5810, 6801, 437, 5748
2146, 3281, 2888, 3364, 2834, 6814, 6815, 6312, 6816
2147, 2092, 3364, 2888, 2868, 6317, 6815, 6817, 6791
2148, 3181, 2935, 2936, 3017, 6485, 4784, 5650, 6693
2149, 2870, 2869, 3327, 2871, 6818, 6819, 6820, 6077
2150, 3273, 2577, 2578, 3322, 5548, 4197, 6821, 6508
2151, 2166, 2871, 3327, 2843, 5625, 6820, 5800, 5765
2152, 2567, 3324, 3322, 2578, 6744, 5781, 6821, 5921
2153, 3350, 3337, 2976, 1937, 6061, 6822, 6823, 6292
2154, 3013, 3104, 3077, 3012, 5098, 6778, 5032, 6489
2155, 1938, 1937, 2976, 1936, 4529, 6823, 4888, 6587
2156, 2972, 2976, 3337, 2579, 4889, 6822, 6066, 6786
2157, 2583, 3358, 3176, 2766, 6824, 6825, 6493, 6826
2158, 2857, 3173, 3358, 3139, 6410, 6827, 6828, 5163
2159, 3174, 3176, 3358, 3173, 5863, 6825, 6827, 6409
2160, 2498, 1929, 1933, 2527, 6829, 3525, 6830, 6302
2161, 3142, 3313, 3147, 3144, 6239, 6831, 5169, 6621
2162, 2754, 2755, 2273, 3354, 4582, 5391, 6065, 6832
2163, 2498, 2526, 1928, 1929, 6582, 6396, 3526, 6829
2164, 3148, 3147, 3313, 3400, 5170, 6831, 6833, 6834
2165, 3204, 3208, 3054, 3058, 5344, 6780, 6486, 6492
2166, 2000, 1999, 3383, 2001, 6403, 6835, 6836, 6407
2167, 2792, 3080, 3383, 1999, 6530, 6837, 6835, 6542
2168, 3393, 3383, 3080, 2995, 6574, 6837, 6838, 6572
2169, 2689, 2610, 31, 5, 4349, 4254, 462, 6452
2170, 3392, 3331, 3405, 2713, 6697, 6736, 6839, 6625
2171, 2795, 3390, 3405, 2797, 6544, 6840, 6735, 6469
2172, 2595, 2421, 3408, 2597, 6751, 6811, 6806, 4217
2173, 2574, 2713, 3405, 3390, 5856, 6839, 6840, 6543
2174, 3061, 3096, 3146, 3148, 5235, 6841, 5171, 6707
2175, 3076, 3146, 3096, 3045, 6842, 6841, 5084, 5030
2176, 2988, 2987, 2371, 2904, 4902, 6541, 6843, 5750
2177, 2372, 2377, 2904, 2371, 4373, 6026, 6843, 6181
2178, 2499, 2671, 3344, 2729, 6581, 6844, 5963, 6583
2179, 2671, 3053, 3145, 3344, 6643, 6642, 5964, 6844
2180, 468, 469, 3408, 3307, 477, 6807, 6810, 5657
2181, 2153, 3234, 2781, 2148, 6845, 6465, 4459, 3654
2182, 3295, 3296, 2789, 3297, 6002, 6846, 6088, 6847
2183, 2614, 2932, 3296, 3294, 4780, 6848, 6004, 6849
2184, 2543, 3027, 2958, 2961, 4961, 6488, 4866, 5938
2185, 3320, 2789, 3296, 2932, 6633, 6846, 6848, 5745
2186, 3270, 2786, 3011, 3009, 6725, 6850, 6419, 6666
2187, 1866, 2022, 2899, 2898, 5107, 6851, 4650, 6197
2188, 3229, 2901, 2899, 2021, 6650, 4651, 6852, 5412
2189, 11, 2021, 2899, 2022, 5965, 6852, 6851, 5106
2190, 3375, 2821, 3011, 2784, 6853, 6420, 6854, 6603
2191, 2996, 3376, 2992, 3128, 6798, 6855, 6856, 6568
2192, 2783, 2784, 3011, 2786, 6618, 6854, 6850, 6724
2193, 1974, 2992, 3376, 1978, 6339, 6855, 6756, 3554
2194, 3224, 3128, 2992, 2993, 6376, 6856, 6341, 5400
2195, 1748, 1749, 2601, 2429, 3444, 6857, 5681, 4418
2196, 1964, 1966, 3321, 1965, 6858, 6859, 6860, 6138
2197, 3059, 3060, 3410, 3062, 6709, 6861, 6862, 6790
2198, 1790, 3197, 3360, 2659, 5840, 6461, 6863, 4304
2199, 2197, 2659, 3360, 2196, 4305, 6863, 6754, 3692
2200, 2874, 3225, 3227, 3137, 6700, 6805, 6241, 6864
2201, 3406, 3094, 3410, 3400, 6865, 6866, 6867, 6868
2202, 3148, 3400, 3410, 3060, 6834, 6867, 6861, 6708
2203, 3092, 3062, 3410, 3094, 6550, 6862, 6866, 6686
2204, 2527, 1933, 3362, 3192, 6830, 6794, 6869, 6870
2205, 2099, 3191, 3192, 3362, 6157, 6871, 6869, 6153
2206, 2945, 2943, 3237, 2968, 4832, 5437, 6675, 6872
2207, 3209, 2102, 2428, 3085, 6453, 6367, 5103, 5605
2208, 3346, 3323, 3321, 1966, 6658, 5783, 6859, 5975
2209, 3402, 1965, 3321, 3324, 6730, 6860, 5782, 6747
2210, 2801, 2824, 2861, 2823, 6684, 4556, 5507, 6690
2211, 2538, 2540, 2823, 3152, 6320, 6689, 5510, 5628
2212, 3212, 3211, 3397, 3160, 5365, 6873, 6874, 6503
2213, 3052, 3397, 3211, 3396, 6716, 6873, 6766, 6875
2214, 3183, 3066, 3064, 3313, 6767, 5008, 6876, 6238
2215, 3191, 3190, 3196, 3192, 6659, 5317, 6877, 6871
2216, 2845, 2527, 3192, 3196, 6303, 6870, 6877, 5321
2217, 3094, 3406, 3064, 3067, 6865, 6878, 5007, 6687
2218, 2468, 3311, 3319, 2467, 6803, 5741, 6526, 4538
2219, 3400, 3313, 3064, 3406, 6833, 6876, 6878, 6868
2220, 287, 2754, 3354, 286, 5686, 6832, 6068, 326
2221, 3158, 3160, 3397, 3284, 5206, 6874, 6715, 5608
2222, 2668, 3302, 3411, 3241, 6879, 6880, 6881, 6001
2223, 3041, 3039, 3276, 3104, 4967, 6627, 6777, 5097
2224, 2633, 3334, 3123, 2639, 6800, 5875, 5125, 4292
2225, 3044, 3102, 3389, 3088, 6525, 6882, 6588, 6883
2226, 2820, 3403, 3088, 3086, 6884, 6885, 6591, 6886
2227, 2819, 2820, 3086, 3087, 6887, 6886, 6888, 6889
2228, 1702, 2315, 3412, 1943, 4284, 6890, 6891, 6371
2229, 2658, 2657, 3412, 2842, 6732, 6892, 6893, 5342
2230, 1944, 1943, 3412, 2657, 6356, 6891, 6892, 6670
2231, 2843, 2842, 3412, 2315, 5799, 6893, 6890, 5764
2232, 3214, 2129, 2525, 2756, 6387, 4116, 6894, 6385
2233, 2757, 2756, 2525, 2758, 6386, 6894, 6563, 6250
2234, 3403, 3015, 3044, 3088, 6895, 6482, 6883, 6885
2235, 3373, 2601, 1749, 2660, 6344, 6857, 5397, 6636
2236, 2682, 2686, 2492, 2687, 4344, 6896, 6743, 6564
2237, 2858, 2982, 2686, 2683, 4895, 6897, 4343, 4548
2238, 1821, 3238, 3046, 2960, 5442, 5447, 6714, 6406
2239, 3295, 3297, 3399, 3333, 6847, 6785, 6898, 6727
2240, 2974, 2975, 3333, 3399, 4886, 6738, 6898, 6809
2241, 2513, 1828, 3411, 2514, 4108, 6899, 6900, 6020
2242, 3303, 2333, 2335, 2381, 6710, 6699, 6617, 6719
2243, 3264, 2514, 3411, 3302, 5503, 6900, 6880, 6259
2244, 3201, 2985, 3394, 2787, 5422, 6614, 6901, 5335
2245, 2915, 2916, 3394, 3187, 5419, 6902, 6613, 6506
2246, 2788, 2787, 3394, 2916, 5331, 6901, 6902, 5418
2247, 1821, 2001, 3383, 3127, 6408, 6836, 6573, 6366
2248, 2750, 2023, 2024, 3261, 4421, 5982, 5497, 5619
2249, 3358, 2583, 2581, 3139, 6824, 4205, 6903, 6828
2250, 2310, 1872, 2400, 3218, 5240, 4659, 5689, 6279
2251, 2584, 2583, 2766, 2767, 4206, 6826, 4437, 6010
2252, 1827, 3241, 3411, 1828, 5581, 6881, 6899, 5858
2253, 3234, 2153, 3134, 1887, 6845, 6904, 6905, 5775
2254, 1885, 1886, 2151, 2149, 3506, 6906, 6578, 6691
2255, 3233, 2151, 1886, 1888, 5636, 6906, 3505, 5632
2256, 3001, 3134, 2153, 2146, 5212, 6904, 3653, 6529
2257, 1888, 1887, 3134, 3000, 3504, 6905, 5211, 5633
2258, 2918, 3272, 2762, 2921, 6907, 5544, 6908, 4744
2259, 2918, 389, 390, 3272, 6909, 421, 6203, 6907
2260, 2046, 2044, 3340, 3309, 3597, 5909, 6211, 5850
2261, 3178, 1855, 3292, 3179, 6200, 6910, 5622, 5349
2262, 1855, 2614, 3294, 3292, 5829, 6849, 5623, 6910
2263, 2653, 2654, 2986, 2655, 4300, 6779, 4900, 6363
2264, 2504, 3352, 2791, 3381, 6911, 6058, 6632, 6630
2265, 3327, 2869, 3352, 2504, 6819, 6059, 6911, 5802
2266, 2969, 3186, 2937, 3219, 6674, 5295, 5932, 6557
2267, 3082, 2728, 3186, 3237, 5050, 5296, 6676, 5439
2268, 2888, 3281, 3385, 2868, 6814, 6912, 6475, 6817
2269, 2105, 2724, 3384, 3306, 6256, 6913, 6914, 5971
2270, 2836, 2835, 3281, 2834, 6592, 6915, 6816, 6049
2271, 3166, 3385, 3281, 2835, 6480, 6912, 6915, 6127
2272, 3076, 3377, 3144, 3146, 6776, 6622, 5172, 6842
2273, 2997, 3089, 3090, 3124, 6916, 5511, 6459, 5131
2274, 3353, 3384, 2790, 2791, 6917, 6918, 6086, 6057
2275, 2723, 2790, 3384, 2724, 6783, 6918, 6913, 6255
2276, 2990, 3091, 3089, 2997, 6701, 5067, 6916, 6287
2277, 2686, 2982, 2484, 2492, 6897, 6919, 6586, 6896
2278, 3112, 3230, 1870, 1843, 6920, 5426, 3496, 6509
2279, 3097, 2028, 1865, 3008, 6233, 3589, 6264, 5090
2280, 3112, 32, 34, 3230, 6536, 459, 5427, 6920
2281, 2813, 2856, 2854, 2814, 5324, 4550, 6921, 4489
2282, 2874, 3137, 3072, 3071, 6864, 6718, 5016, 6516
2283, 3116, 3343, 3387, 3119, 6322, 6922, 6923, 5116
2284, 3351, 2921, 2762, 2748, 6102, 6908, 4428, 6028
2285, 3073, 3138, 3071, 3069, 6619, 6513, 5015, 5024
2286, 2873, 3138, 3119, 3387, 6514, 6620, 6923, 6518
2287, 3342, 2875, 3387, 3343, 6673, 6519, 6922, 5991
2288, 2983, 3274, 2484, 2982, 6424, 5553, 6919, 4898
2289, 2581, 2814, 2854, 3139, 5804, 6921, 5164, 6903
2290, 3391, 2848, 2849, 2716, 6721, 4536, 6511, 6722
2291, 2382, 2944, 3106, 3107, 6533, 6924, 6307, 6925
2292, 2918, 2919, 388, 389, 4743, 6171, 420, 6909
2293, 1820, 1822, 3105, 1819, 6360, 5989, 6926, 5440
2294, 3239, 3238, 1819, 3401, 5444, 5441, 6927, 6759
2295, 3106, 3401, 1819, 3105, 6928, 6927, 6926, 6305
2296, 2945, 3401, 3106, 2944, 6760, 6928, 6924, 4829
2297, 3101, 3084, 3070, 3102, 6788, 6929, 6930, 6524
2298, 3074, 3069, 3070, 3084, 5021, 5018, 6929, 5054
2299, 3052, 3396, 3183, 3051, 6875, 6768, 6237, 4987
2300, 3403, 3256, 3103, 3015, 6931, 6609, 6612, 6895
2301, 3389, 3102, 3070, 3072, 6882, 6930, 5017, 6717
2302, 2382, 3107, 3117, 2381, 6925, 6321, 6720, 6616
2303, 2995, 3080, 2737, 2989, 6838, 6531, 5986, 5043
2304, 3384, 3353, 3305, 3306, 6917, 6932, 5969, 6914
2305, 2870, 3305, 3353, 2869, 6333, 6932, 6056, 6818
2306, 3175, 2857, 2855, 2923, 6411, 5162, 4760, 6933
2307, 3003, 2642, 1966, 1964, 4918, 5976, 6858, 5707
2308, 2841, 3115, 3409, 3382, 6439, 6934, 6812, 6677
2309, 2643, 2642, 3004, 2644, 5973, 4917, 5306, 6804
2310, 3086, 3366, 3203, 3087, 6590, 6935, 6936, 6888
2311, 3204, 2819, 3087, 3203, 6491, 6889, 6936, 6937
2312, 2667, 2669, 3302, 2668, 4906, 6260, 6879, 4448
2313, 3204, 3203, 3366, 3205, 6937, 6935, 6802, 5345
2314, 2819, 2821, 3375, 2820, 6421, 6853, 6938, 6887
2315, 2923, 3278, 2631, 3175, 5572, 6939, 6770, 6933
2316, 1882, 2631, 3278, 2549, 4280, 6939, 6559, 5796
2317, 3403, 2820, 3375, 3256, 6884, 6938, 6610, 6931
2318, 3239, 3395, 2966, 3240, 6758, 6940, 6040, 5445
2319, 2702, 3409, 3206, 2703, 6813, 6941, 5338, 4363
2320, 2945, 2968, 2966, 3395, 6872, 4874, 6940, 6761
2321, 3115, 3208, 3206, 3409, 6782, 5343, 6941, 6934
*ELSET,ELSET=base_plate_center_YFIX
41, 42, 43, 44, 45, 46, 47, 48, 49, 50, 
51, 52, 
*ELSET,ELSET=skir_sless_top_LOAD
1, 2, 3, 4, 5, 6, 7, 8, 9, 10, 
11, 12, 13, 14, 15, 16, 17, 18, 19, 20, 
21, 22, 23, 24, 25, 26, 27, 28, 29, 30, 
31, 32, 33, 34, 35, 36, 37, 38, 39, 40, 
*ELSET,ELSET=skir_sless
134, 135, 136, 137, 138, 139, 140, 141, 142, 143, 
144, 145, 146, 147, 148, 149, 150, 151, 152, 153, 
154, 155, 156, 157, 158, 159, 160, 161, 162, 163, 
164, 165, 166, 167, 168, 169, 170, 171, 172, 173, 
174, 175, 176, 177, 178, 179, 180, 181, 182, 183, 
184, 185, 186, 187, 188, 189, 190, 191, 192, 193, 
194, 195, 196, 197, 198, 199, 200, 201, 202, 203, 
204, 205, 206, 207, 208, 209, 210, 211, 212, 213, 
214, 215, 216, 217, 218, 219, 220, 221, 222, 223, 
224, 225, 226, 227, 228, 229, 230, 231, 232, 233, 
234, 235, 236, 237, 238, 239, 240, 241, 242, 243, 
244, 245, 246, 247, 248, 249, 250, 251, 252, 253, 
254, 255, 256, 257, 258, 259, 260, 261, 262, 263, 
264, 265, 266, 267, 268, 269, 270, 271, 272, 273, 
274, 275, 276, 277, 278, 279, 280, 281, 282, 283, 
284, 285, 286, 287, 288, 289, 290, 291, 292, 293, 
294, 295, 296, 297, 298, 299, 300, 301, 302, 303, 
304, 305, 306, 307, 308, 309, 310, 311, 312, 313, 
314, 315, 316, 317, 318, 319, 320, 321, 322, 323, 
324, 325, 326, 327, 328, 329, 330, 331, 332, 333, 
334, 335, 336, 337, 338, 339, 340, 341, 342, 343, 
344, 345, 346, 347, 348, 349, 350, 351, 352, 353, 
354, 355, 356, 357, 358, 359, 360, 361, 362, 363, 
364, 365, 366, 367, 368, 369, 370, 371, 372, 373, 
374, 375, 376, 377, 378, 379, 380, 381, 382, 383, 
384, 385, 386, 387, 388, 389, 390, 391, 392, 393, 
394, 395, 396, 397, 398, 399, 400, 401, 402, 403, 
404, 405, 406, 407, 408, 409, 410, 411, 412, 413, 
414, 415, 416, 417, 418, 419, 420, 421, 422, 423, 
424, 425, 426, 427, 428, 429, 430, 431, 432, 433, 
434, 435, 436, 437, 438, 439, 440, 441, 442, 443, 
444, 445, 446, 447, 448, 449, 450, 451, 452, 453, 
454, 455, 456, 457, 458, 459, 460, 461, 462, 463, 
464, 465, 466, 467, 468, 469, 470, 471, 472, 473, 
474, 475, 476, 477, 478, 479, 480, 481, 482, 483, 
484, 485, 486, 487, 488, 489, 490, 491, 492, 493, 
494, 495, 496, 497, 498, 499, 500, 501, 502, 503, 
504, 505, 506, 507, 508, 509, 510, 
*ELSET,ELSET=skir_carbo_mid
511, 512, 513, 514, 515, 516, 517, 518, 519, 520, 
521, 522, 523, 524, 525, 526, 527, 528, 529, 530, 
531, 532, 533, 534, 535, 536, 537, 538, 539, 540, 
541, 542, 543, 544, 545, 546, 547, 548, 549, 550, 
551, 552, 553, 554, 555, 556, 557, 558, 559, 560, 
561, 562, 563, 564, 565, 566, 567, 568, 569, 570, 
571, 572, 573, 574, 575, 576, 577, 578, 579, 580, 
581, 582, 583, 584, 585, 586, 587, 588, 589, 590, 
591, 592, 593, 594, 595, 596, 597, 598, 599, 600, 
601, 602, 603, 604, 605, 606, 607, 608, 609, 610, 
611, 612, 613, 614, 615, 616, 617, 618, 619, 620, 
621, 622, 623, 624, 625, 626, 627, 628, 629, 630, 
631, 632, 633, 634, 635, 636, 637, 638, 639, 640, 
641, 642, 643, 644, 645, 646, 647, 648, 649, 650, 
651, 652, 653, 654, 655, 656, 657, 658, 659, 660, 
661, 662, 663, 664, 665, 666, 667, 668, 669, 670, 
671, 672, 673, 674, 675, 676, 677, 678, 679, 680, 
681, 682, 683, 684, 685, 686, 687, 688, 689, 690, 
691, 692, 693, 694, 695, 696, 697, 698, 699, 700, 
701, 702, 703, 704, 705, 706, 707, 708, 709, 710, 
711, 712, 713, 714, 715, 716, 717, 718, 719, 720, 
721, 722, 723, 724, 725, 726, 727, 728, 729, 730, 
731, 732, 733, 734, 735, 736, 737, 738, 739, 740, 
741, 742, 743, 744, 745, 746, 747, 748, 749, 750, 
751, 752, 753, 754, 755, 756, 757, 758, 759, 760, 
761, 762, 763, 764, 765, 766, 767, 768, 769, 770, 
771, 772, 773, 774, 775, 776, 777, 778, 779, 780, 
781, 782, 783, 784, 785, 786, 787, 788, 789, 790, 
791, 792, 793, 794, 795, 796, 797, 798, 799, 800, 
801, 802, 803, 804, 805, 806, 807, 808, 809, 810, 
811, 812, 813, 814, 815, 816, 817, 818, 819, 820, 
821, 822, 823, 824, 825, 826, 827, 828, 829, 830, 
831, 832, 833, 834, 835, 836, 837, 838, 839, 840, 
841, 842, 843, 844, 845, 846, 847, 848, 849, 850, 
851, 852, 853, 854, 855, 856, 857, 858, 859, 860, 
861, 862, 863, 864, 865, 866, 867, 868, 869, 870, 
871, 872, 873, 874, 875, 876, 877, 878, 879, 880, 
881, 882, 883, 884, 885, 886, 887, 888, 889, 890, 
891, 892, 893, 894, 895, 896, 897, 898, 899, 900, 
901, 902, 903, 904, 905, 906, 907, 908, 909, 910, 
911, 912, 913, 914, 915, 916, 917, 918, 919, 920, 
921, 922, 923, 924, 925, 926, 927, 928, 929, 930, 
931, 932, 933, 934, 935, 936, 937, 938, 939, 940, 
941, 942, 943, 944, 945, 946, 947, 948, 949, 950, 
951, 952, 953, 954, 955, 956, 957, 958, 959, 960, 
961, 962, 963, 964, 965, 966, 967, 968, 969, 970, 
971, 972, 973, 974, 975, 976, 977, 978, 979, 980, 
981, 982, 983, 984, 985, 986, 987, 988, 989, 990, 
991, 992, 993, 994, 995, 996, 997, 998, 999, 1000, 
1001, 1002, 1003, 1004, 1005, 1006, 1007, 1008, 1009, 1010, 
1011, 1012, 1013, 1014, 1015, 1016, 1017, 1018, 1019, 1020, 
1021, 1022, 1023, 1024, 1025, 1026, 1027, 1028, 1029, 1030, 
1031, 1032, 1033, 1034, 1035, 1036, 1037, 1038, 1039, 1040, 
1041, 1042, 1043, 1044, 1045, 1046, 1047, 1048, 1049, 1050, 
1051, 1052, 1053, 1054, 1055, 1056, 1057, 1058, 1059, 1060, 
1061, 1062, 1063, 1064, 1065, 1066, 1067, 1068, 1069, 1070, 
1071, 1072, 1073, 1074, 1075, 1076, 1077, 1078, 1079, 1080, 
1081, 1082, 1083, 1084, 1085, 1086, 1087, 1088, 1089, 1090, 
1091, 1092, 1093, 1094, 1095, 1096, 1097, 1098, 1099, 1100, 
1101, 1102, 1103, 1104, 1105, 1106, 1107, 1108, 1109, 1110, 
1111, 1112, 1113, 1114, 1115, 1116, 1117, 1118, 1119, 1120, 
1121, 1122, 1123, 1124, 1125, 1126, 1127, 1128, 1129, 1130, 
1131, 1132, 1133, 1134, 1135, 1136, 1137, 1138, 1139, 1140, 
1141, 1142, 1143, 1144, 1145, 1146, 1147, 1148, 1149, 1150, 
1151, 1152, 1153, 1154, 1155, 1156, 1157, 1158, 1159, 1160, 
1161, 1162, 1163, 1164, 1165, 1166, 1167, 1168, 1169, 1170, 
1171, 1172, 1173, 1174, 1175, 1176, 1177, 1178, 1179, 1180, 
1181, 1182, 1183, 1184, 1185, 1186, 1187, 1188, 1189, 1190, 
1191, 1192, 1193, 1194, 1195, 1196, 1197, 1198, 1199, 1200, 
1201, 1202, 1203, 1204, 1205, 1206, 1207, 1208, 1209, 1210, 
1211, 1212, 1213, 1214, 1215, 1216, 1217, 1218, 1219, 1220, 
1221, 1222, 1223, 1224, 1225, 1226, 1227, 1228, 1229, 1230, 
1231, 1232, 1233, 1234, 1235, 1236, 1237, 1238, 1239, 1240, 
1241, 1242, 1243, 1244, 1245, 1246, 1247, 1248, 1249, 1250, 
1251, 1252, 1253, 1254, 1255, 1256, 1257, 1258, 1259, 1260, 
1261, 1262, 1263, 1264, 1265, 1266, 1267, 1268, 1269, 1270, 
1271, 1272, 1273, 1274, 1275, 1276, 1277, 1278, 1279, 1280, 
1281, 1282, 1283, 1284, 1285, 1286, 1287, 1288, 1289, 1290, 
1291, 1292, 1293, 1294, 1295, 1296, 1297, 1298, 1299, 1300, 
1301, 1302, 1303, 1304, 1305, 1306, 1307, 1308, 1309, 1310, 
1311, 1312, 1313, 1314, 1315, 1316, 1317, 1318, 1319, 1320, 
1321, 1322, 1323, 1324, 1325, 1326, 1327, 1328, 1329, 1330, 
1331, 1332, 1333, 1334, 1335, 1336, 1337, 1338, 1339, 1340, 
1341, 1342, 1343, 1344, 1345, 1346, 1347, 1348, 1349, 1350, 
1351, 1352, 1353, 1354, 1355, 1356, 1357, 1358, 1359, 1360, 
1361, 1362, 1363, 1364, 1365, 1366, 1367, 1368, 1369, 1370, 
1371, 1372, 1373, 1374, 1375, 1376, 1377, 1378, 1379, 1380, 
1381, 1382, 1383, 1384, 1385, 1386, 1387, 1388, 1389, 1390, 
1391, 1392, 1393, 1394, 1395, 1396, 1397, 1398, 1399, 1400, 
1401, 1402, 1403, 1404, 1405, 1406, 1407, 1408, 1409, 1410, 
1411, 1412, 1413, 1414, 1415, 1416, 1417, 1418, 1419, 1420, 
1421, 1422, 1423, 1424, 1425, 1426, 1427, 1428, 1429, 1430, 
1431, 1432, 1433, 1434, 1435, 1436, 1437, 1438, 1439, 1440, 
1441, 1442, 1443, 1444, 1445, 1446, 1447, 1448, 1449, 1450, 
1451, 1452, 1453, 1454, 1455, 1456, 1457, 1458, 1459, 1460, 
1461, 1462, 1463, 1464, 1465, 1466, 1467, 1468, 1469, 1470, 
1471, 1472, 1473, 1474, 1475, 1476, 1477, 1478, 1479, 1480, 
1481, 1482, 1483, 1484, 1485, 1486, 1487, 1488, 1489, 1490, 
1491, 1492, 1493, 1494, 1495, 1496, 1497, 1498, 1499, 1500, 
1501, 1502, 1503, 1504, 1505, 1506, 1507, 1508, 1509, 1510, 
1511, 1512, 1513, 1514, 1515, 1516, 1517, 1518, 1519, 1520, 
1521, 1522, 1523, 1524, 1525, 1526, 1527, 1528, 1529, 1530, 
1531, 1532, 1533, 1534, 1535, 1536, 1537, 1538, 1539, 1540, 
1541, 1542, 1543, 1544, 1545, 1546, 1547, 1548, 1549, 1550, 
1551, 1552, 1553, 1554, 1555, 1556, 1557, 1558, 1559, 1560, 
1561, 1562, 1563, 1564, 1565, 1566, 1567, 1568, 1569, 1570, 
1571, 1572, 1573, 1574, 1575, 1576, 1577, 1578, 1579, 1580, 
1581, 1582, 1583, 1584, 1585, 1586, 1587, 1588, 1589, 1590, 
1591, 1592, 1593, 1594, 1595, 1596, 1597, 1598, 1599, 1600, 
1601, 1602, 1603, 1604, 1605, 1606, 1607, 1608, 1609, 1610, 
1611, 1612, 1613, 1614, 1615, 1616, 1617, 1618, 1619, 1620, 
1621, 1622, 1623, 1624, 1625, 1626, 1627, 1628, 1629, 1630, 
1631, 1632, 1633, 1634, 1635, 1636, 1637, 1638, 1639, 1640, 
1641, 1642, 1643, 1644, 1645, 1646, 1647, 1648, 1649, 1650, 
1651, 1652, 1653, 1654, 1655, 1656, 1657, 1658, 1659, 1660, 
1661, 1662, 1663, 1664, 1665, 1666, 1667, 1668, 1669, 1670, 
1671, 1672, 1673, 1674, 1675, 1676, 1677, 1678, 1679, 1680, 
1681, 1682, 1683, 1684, 1685, 1686, 1687, 1688, 1689, 1690, 
1691, 1692, 1693, 1694, 1695, 1696, 1697, 1698, 1699, 1700, 
1701, 1702, 1703, 1704, 1705, 1706, 1707, 1708, 1709, 1710, 
1711, 1712, 1713, 1714, 1715, 1716, 1717, 1718, 1719, 1720, 
1721, 1722, 1723, 1724, 1725, 1726, 1727, 1728, 1729, 1730, 
1731, 1732, 1733, 1734, 1735, 1736, 1737, 1738, 1739, 1740, 
1741, 1742, 1743, 1744, 1745, 1746, 1747, 1748, 1749, 1750, 
1751, 1752, 1753, 1754, 1755, 1756, 1757, 1758, 1759, 1760, 
1761, 1762, 1763, 1764, 1765, 1766, 1767, 1768, 1769, 1770, 
1771, 1772, 1773, 1774, 1775, 1776, 1777, 1778, 1779, 1780, 
1781, 1782, 1783, 1784, 1785, 1786, 1787, 1788, 1789, 1790, 
1791, 1792, 1793, 1794, 1795, 1796, 1797, 1798, 1799, 1800, 
1801, 1802, 1803, 1804, 1805, 1806, 1807, 1808, 1809, 1810, 
1811, 1812, 1813, 1814, 1815, 1816, 1817, 1818, 1819, 1820, 
1821, 1822, 1823, 1824, 1825, 1826, 1827, 1828, 1829, 1830, 
1831, 1832, 1833, 1834, 1835, 1836, 1837, 1838, 1839, 1840, 
1841, 1842, 1843, 1844, 1845, 1846, 1847, 1848, 1849, 1850, 
1851, 1852, 1853, 1854, 1855, 1856, 1857, 1858, 1859, 1860, 
1861, 1862, 1863, 1864, 1865, 1866, 1867, 1868, 1869, 1870, 
1871, 1872, 1873, 1874, 1875, 1876, 1877, 1878, 1879, 1880, 
1881, 1882, 1883, 1884, 1885, 1886, 1887, 1888, 1889, 1890, 
1891, 1892, 1893, 1894, 1895, 1896, 1897, 1898, 1899, 1900, 
1901, 1902, 1903, 1904, 1905, 1906, 1907, 1908, 1909, 1910, 
1911, 1912, 1913, 1914, 1915, 1916, 1917, 1918, 1919, 1920, 
1921, 1922, 1923, 1924, 1925, 1926, 1927, 1928, 1929, 1930, 
1931, 1932, 1933, 1934, 1935, 1936, 1937, 1938, 1939, 1940, 
1941, 1942, 1943, 1944, 1945, 1946, 1947, 1948, 1949, 1950, 
1951, 1952, 1953, 1954, 1955, 1956, 1957, 1958, 1959, 1960, 
1961, 1962, 1963, 1964, 1965, 1966, 1967, 1968, 1969, 1970, 
1971, 1972, 1973, 1974, 1975, 1976, 1977, 1978, 1979, 1980, 
1981, 1982, 1983, 1984, 1985, 1986, 1987, 1988, 1989, 1990, 
1991, 1992, 1993, 1994, 1995, 1996, 1997, 1998, 1999, 2000, 
2001, 2002, 2003, 2004, 2005, 2006, 2007, 2008, 2009, 2010, 
2011, 2012, 2013, 2014, 2015, 2016, 2017, 2018, 2019, 2020, 
2021, 2022, 2023, 2024, 2025, 2026, 2027, 2028, 2029, 2030, 
2031, 2032, 2033, 2034, 2035, 2036, 2037, 2038, 2039, 2040, 
2041, 2042, 2043, 2044, 2045, 2046, 2047, 2048, 2049, 2050, 
2051, 2052, 2053, 2054, 2055, 2056, 2057, 2058, 2059, 2060, 
2061, 2062, 2063, 2064, 2065, 2066, 2067, 2068, 2069, 2070, 
2071, 2072, 2073, 2074, 2075, 2076, 2077, 2078, 2079, 2080, 
2081, 2082, 2083, 2084, 2085, 2086, 2087, 2088, 2089, 2090, 
2091, 2092, 2093, 2094, 2095, 2096, 2097, 2098, 2099, 2100, 
2101, 2102, 2103, 2104, 2105, 2106, 2107, 2108, 2109, 2110, 
2111, 2112, 2113, 2114, 2115, 2116, 2117, 2118, 2119, 2120, 
2121, 2122, 2123, 2124, 2125, 2126, 2127, 2128, 2129, 2130, 
2131, 2132, 2133, 2134, 2135, 2136, 2137, 2138, 2139, 2140, 
2141, 2142, 2143, 2144, 2145, 2146, 2147, 2148, 2149, 2150, 
2151, 2152, 2153, 2154, 2155, 2156, 2157, 2158, 2159, 2160, 
2161, 2162, 2163, 2164, 2165, 2166, 2167, 2168, 2169, 2170, 
2171, 2172, 2173, 2174, 2175, 2176, 2177, 2178, 2179, 2180, 
2181, 2182, 2183, 2184, 2185, 2186, 2187, 2188, 2189, 2190, 
2191, 2192, 2193, 2194, 2195, 2196, 2197, 2198, 2199, 2200, 
2201, 2202, 2203, 2204, 2205, 2206, 2207, 2208, 2209, 2210, 
2211, 2212, 2213, 2214, 2215, 2216, 2217, 2218, 2219, 2220, 
2221, 2222, 2223, 2224, 2225, 2226, 2227, 2228, 2229, 2230, 
2231, 2232, 2233, 2234, 2235, 2236, 2237, 2238, 2239, 2240, 
2241, 2242, 2243, 2244, 2245, 2246, 2247, 2248, 2249, 2250, 
2251, 2252, 2253, 2254, 2255, 2256, 2257, 2258, 2259, 2260, 
2261, 2262, 2263, 2264, 2265, 2266, 2267, 2268, 2269, 2270, 
2271, 2272, 2273, 2274, 2275, 2276, 2277, 2278, 2279, 2280, 
2281, 2282, 2283, 2284, 2285, 2286, 2287, 2288, 2289, 2290, 
2291, 2292, 2293, 2294, 2295, 2296, 2297, 2298, 2299, 2300, 
2301, 2302, 2303, 2304, 2305, 2306, 2307, 2308, 2309, 2310, 
2311, 2312, 2313, 2314, 2315, 2316, 2317, 2318, 2319, 2320, 
2321, 
*ELSET,ELSET=skir_carbo_und
53, 54, 55, 56, 57, 58, 59, 60, 61, 62, 
63, 64, 65, 66, 67, 68, 69, 70, 71, 72, 
73, 74, 75, 76, 77, 78, 79, 80, 81, 82, 
83, 84, 85, 86, 87, 88, 89, 90, 91, 92, 
93, 94, 95, 96, 97, 98, 99, 100, 101, 102, 
103, 104, 105, 106, 107, 108, 109, 110, 111, 112, 
113, 114, 115, 116, 117, 118, 119, 120, 121, 122, 
123, 124, 125, 126, 127, 128, 129, 130, 131, 132, 
133, 
*NSET,NSET=base_plate_center_YFIX
9, 19, 40, 45, 50, 59, 64, 69, 486, 487, 
488, 489, 490, 491, 492, 493, 494, 495, 496, 497, 
498, 499, 500, 501, 
*NSET,NSET=skir_sless_top_LOAD
13, 14, 201, 202, 203, 204, 205, 206, 207, 208, 
209, 210, 211, 212, 213, 214, 215, 216, 217, 218, 
219, 220, 221, 222, 223, 224, 225, 226, 227, 228, 
229, 230, 231, 232, 233, 234, 235, 236, 237, 238, 
239, 334, 335, 336, 337, 338, 339, 340, 341, 342, 
343, 344, 345, 346, 347, 348, 349, 350, 351, 352, 
353, 354, 355, 356, 357, 358, 359, 360, 361, 362, 
363, 364, 365, 366, 367, 368, 369, 370, 371, 372, 
*NSET,NSET=skir_sless
13, 14, 15, 201, 202, 203, 204, 205, 206, 207, 
208, 209, 210, 211, 212, 213, 214, 215, 216, 217, 
218, 219, 220, 221, 222, 223, 224, 225, 226, 227, 
228, 229, 230, 231, 232, 233, 234, 235, 236, 237, 
238, 239, 240, 241, 242, 243, 244, 245, 246, 247, 
248, 249, 250, 251, 252, 253, 254, 255, 256, 257, 
258, 259, 260, 261, 262, 263, 264, 265, 266, 267, 
268, 269, 270, 271, 272, 273, 274, 275, 276, 277, 
278, 279, 280, 281, 282, 283, 284, 285, 286, 287, 
288, 289, 290, 291, 292, 293, 294, 295, 296, 297, 
298, 299, 300, 301, 302, 303, 304, 305, 306, 307, 
308, 309, 310, 311, 312, 313, 314, 315, 316, 317, 
318, 319, 320, 321, 322, 323, 324, 325, 326, 327, 
328, 329, 330, 331, 332, 333, 334, 335, 336, 337, 
338, 339, 340, 341, 342, 343, 344, 345, 346, 347, 
348, 349, 350, 351, 352, 353, 354, 355, 356, 357, 
358, 359, 360, 361, 362, 363, 364, 365, 366, 367, 
368, 369, 370, 371, 372, 662, 663, 664, 665, 666, 
667, 668, 669, 670, 671, 672, 673, 674, 675, 676, 
677, 678, 679, 680, 681, 682, 683, 684, 685, 686, 
687, 688, 689, 690, 691, 692, 693, 694, 695, 696, 
697, 698, 699, 700, 701, 702, 703, 704, 705, 706, 
707, 708, 709, 710, 711, 712, 713, 714, 715, 716, 
717, 718, 719, 720, 721, 722, 723, 724, 725, 726, 
727, 728, 729, 730, 731, 732, 733, 734, 735, 736, 
737, 738, 739, 740, 741, 742, 743, 744, 745, 746, 
747, 748, 749, 750, 751, 752, 753, 754, 755, 756, 
757, 758, 759, 760, 761, 762, 763, 764, 765, 766, 
767, 768, 769, 770, 771, 772, 773, 774, 775, 776, 
777, 778, 779, 780, 781, 782, 783, 784, 785, 786, 
787, 788, 789, 790, 791, 792, 793, 794, 795, 796, 
797, 798, 799, 800, 801, 802, 803, 804, 805, 806, 
807, 808, 809, 810, 811, 812, 813, 814, 815, 816, 
817, 818, 819, 820, 821, 822, 823, 824, 825, 826, 
827, 828, 829, 830, 831, 832, 833, 834, 835, 836, 
837, 838, 839, 840, 841, 842, 843, 844, 845, 846, 
847, 848, 849, 850, 851, 852, 853, 854, 855, 856, 
857, 858, 859, 860, 861, 862, 863, 864, 865, 866, 
867, 868, 869, 870, 871, 872, 873, 874, 875, 876, 
877, 878, 879, 880, 881, 882, 883, 884, 885, 886, 
887, 888, 889, 890, 891, 892, 893, 894, 895, 896, 
897, 898, 899, 900, 901, 902, 903, 904, 905, 906, 
907, 908, 909, 910, 911, 912, 913, 914, 915, 916, 
917, 918, 919, 920, 921, 922, 923, 924, 925, 926, 
927, 928, 929, 930, 931, 932, 933, 934, 935, 936, 
937, 938, 939, 940, 941, 942, 943, 944, 945, 946, 
947, 948, 949, 950, 951, 952, 953, 954, 955, 956, 
957, 958, 959, 960, 961, 962, 963, 964, 965, 966, 
967, 968, 969, 970, 971, 972, 973, 974, 975, 976, 
977, 978, 979, 980, 981, 982, 983, 984, 985, 986, 
987, 988, 989, 990, 991, 992, 993, 994, 995, 996, 
997, 998, 999, 1000, 1001, 1002, 1003, 1004, 1005, 1006, 
1007, 1008, 1009, 1010, 1011, 1012, 1013, 1014, 1015, 1016, 
1017, 1018, 1019, 1020, 1021, 1022, 1023, 1024, 1025, 1026, 
1027, 1028, 1029, 1030, 1031, 1032, 1033, 1034, 1035, 1036, 
1037, 1038, 1039, 1040, 1041, 1042, 1043, 1044, 1045, 1046, 
1047, 1048, 1049, 1050, 1051, 1052, 1053, 1054, 1055, 1056, 
1057, 1058, 1059, 1060, 1061, 1062, 1063, 1064, 1065, 1066, 
1067, 1068, 1069, 1070, 1071, 1072, 1073, 1074, 1075, 1076, 
1077, 1078, 1079, 1080, 1081, 1082, 1083, 1084, 1085, 1086, 
1087, 1088, 1089, 1090, 1091, 1092, 1093, 1094, 1095, 1096, 
1097, 1098, 1099, 1100, 1101, 1102, 1103, 1104, 1105, 1106, 
1107, 1108, 1109, 1110, 1111, 1112, 1113, 1114, 1115, 1116, 
1117, 1118, 1119, 1120, 1121, 1122, 1123, 1124, 1125, 1126, 
1127, 1128, 1129, 1130, 1131, 1132, 1133, 1134, 1135, 1136, 
1137, 1138, 1139, 1140, 1141, 1142, 1143, 1144, 1145, 1146, 
1147, 1148, 1149, 1150, 1151, 1152, 1153, 1154, 1155, 1156, 
1157, 1158, 1159, 1160, 1161, 1162, 1163, 1164, 1165, 1166, 
1167, 1168, 1169, 1170, 1171, 1172, 1173, 1174, 1175, 1176, 
1177, 1178, 1179, 1180, 1181, 1182, 1183, 1184, 1185, 1186, 
1187, 1188, 1189, 1190, 1191, 1192, 1193, 1194, 1195, 1196, 
1197, 1198, 1199, 1200, 1201, 1202, 1203, 1204, 1205, 1206, 
1207, 1208, 1209, 1210, 1211, 1212, 1213, 1214, 1215, 1216, 
1217, 1218, 1219, 1220, 1221, 1222, 1223, 1224, 1225, 1226, 
1227, 1228, 1229, 1230, 1231, 1232, 1233, 1234, 1235, 1236, 
1237, 1238, 1239, 1240, 1241, 1242, 1243, 1244, 1245, 1246, 
1247, 1248, 1249, 1250, 1251, 1252, 1253, 1254, 1255, 1256, 
1257, 1258, 1259, 1260, 1261, 1262, 1263, 1264, 1265, 1266, 
1267, 1268, 1269, 1270, 1271, 1272, 1273, 1274, 1275, 1276, 
1277, 1278, 1279, 1280, 1281, 1282, 1283, 1284, 1285, 1286, 
1287, 1288, 1289, 1290, 1291, 1292, 1293, 1294, 1295, 1296, 
1297, 1298, 1299, 1300, 1301, 1302, 1303, 1304, 1305, 1306, 
1307, 1308, 1309, 1310, 1311, 1312, 1313, 1314, 1315, 1316, 
1317, 1318, 1319, 1320, 1321, 1322, 1323, 1324, 1325, 1326, 
1327, 1328, 1329, 1330, 1331, 1332, 1333, 1334, 1335, 1336, 
1337, 1338, 1339, 1340, 1341, 1342, 1343, 1344, 1345, 1346, 
1347, 1348, 1349, 1350, 1351, 1352, 1353, 1354, 1355, 1356, 
1357, 1358, 1359, 1360, 1361, 1362, 1363, 1364, 1365, 1366, 
1367, 1368, 1369, 1370, 1371, 1372, 1373, 1374, 1375, 1376, 
1377, 1378, 1379, 1380, 1381, 1382, 1383, 1384, 1385, 1386, 
1387, 1388, 1389, 1390, 1391, 1392, 1393, 1394, 1395, 1396, 
1397, 1398, 1399, 1400, 1401, 1402, 1403, 1404, 1405, 1406, 
1407, 1408, 1409, 1410, 1411, 1412, 1413, 1414, 1415, 1416, 
1417, 1418, 1419, 1420, 1421, 1422, 1423, 1424, 1425, 1426, 
1427, 1428, 1429, 1430, 1431, 1432, 1433, 1434, 1435, 1436, 
1437, 1438, 1439, 1440, 1441, 1442, 1443, 1444, 1445, 1446, 
1447, 1448, 1449, 1450, 1451, 1452, 1453, 1454, 1455, 1456, 
1457, 1458, 1459, 1460, 1461, 1462, 1463, 1464, 1465, 1466, 
1467, 1468, 1469, 1470, 1471, 1472, 1473, 1474, 1475, 1476, 
1477, 1478, 1479, 1480, 1481, 1482, 1483, 1484, 1485, 1486, 
1487, 1488, 1489, 1490, 1491, 1492, 1493, 1494, 1495, 1496, 
1497, 1498, 1499, 1500, 1501, 1502, 1503, 1504, 1505, 1506, 
1507, 1508, 1509, 1510, 1511, 1512, 1513, 1514, 1515, 1516, 
1517, 1518, 1519, 1520, 1521, 1522, 1523, 1524, 1525, 1526, 
1527, 1528, 1529, 1530, 1531, 1532, 1533, 1534, 1535, 1536, 
1537, 1538, 1539, 1540, 1541, 1542, 1543, 1544, 1545, 1546, 
1547, 1548, 1549, 1550, 1551, 1552, 1553, 1554, 1555, 1556, 
1557, 1558, 1559, 1560, 1561, 1562, 1563, 1564, 1565, 1566, 
1567, 1568, 1569, 1570, 1571, 1572, 1573, 1574, 1575, 1576, 
1577, 1578, 1579, 1580, 1581, 1582, 1583, 1584, 1585, 1586, 
1587, 1588, 1589, 1590, 1591, 1592, 1593, 1594, 1595, 1596, 
1597, 1598, 1599, 1600, 1601, 1602, 1603, 1604, 1605, 1606, 
1607, 1608, 1609, 1610, 1611, 1612, 1613, 1614, 1615, 1616, 
1617, 1618, 1619, 1620, 1621, 1622, 1623, 1624, 1625, 1626, 
1627, 1628, 1629, 1630, 1631, 1632, 1633, 1634, 1635, 1636, 
1637, 1638, 1639, 1640, 1641, 1642, 1643, 1644, 1645, 1646, 
1647, 1648, 1649, 1650, 1651, 1652, 1653, 1654, 1655, 1656, 
1657, 1658, 1659, 1660, 1661, 1662, 1663, 1664, 1665, 1666, 
1667, 1668, 1669, 1670, 1671, 1672, 1673, 1674, 1675, 1676, 
1677, 1678, 1679, 1680, 1681, 1682, 1683, 1684, 1685, 1686, 
1687, 1688, 1689, 1690, 1691, 1692, 1693, 1694, 1695, 1696, 
1697, 
*NSET,NSET=skir_carbo_mid
1, 2, 3, 4, 5, 6, 7, 8, 10, 11, 
12, 15, 16, 17, 18, 20, 21, 22, 23, 24, 
25, 26, 27, 28, 29, 30, 31, 32, 33, 34, 
35, 117, 118, 119, 120, 121, 122, 123, 124, 125, 
126, 127, 128, 129, 130, 131, 132, 133, 134, 135, 
136, 137, 138, 139, 140, 141, 142, 143, 144, 145, 
146, 147, 148, 149, 150, 151, 152, 153, 154, 155, 
156, 157, 158, 159, 160, 161, 162, 163, 164, 165, 
166, 167, 168, 169, 170, 171, 172, 173, 174, 175, 
176, 177, 178, 179, 180, 181, 182, 183, 184, 185, 
186, 187, 188, 189, 190, 191, 192, 193, 194, 195, 
196, 197, 198, 199, 200, 255, 256, 257, 258, 259, 
260, 261, 262, 263, 264, 265, 266, 267, 268, 269, 
270, 271, 272, 273, 274, 275, 276, 277, 278, 279, 
280, 281, 282, 283, 284, 285, 286, 287, 288, 289, 
290, 291, 292, 293, 294, 295, 296, 297, 298, 299, 
300, 301, 302, 303, 304, 305, 306, 307, 308, 309, 
310, 311, 312, 313, 314, 315, 316, 317, 318, 319, 
320, 321, 322, 323, 324, 325, 326, 327, 328, 329, 
330, 331, 332, 333, 373, 374, 375, 376, 377, 378, 
379, 380, 381, 382, 383, 384, 385, 386, 387, 388, 
389, 390, 391, 392, 393, 394, 395, 396, 397, 398, 
399, 400, 401, 402, 403, 404, 405, 406, 407, 408, 
409, 410, 411, 412, 413, 414, 415, 416, 417, 418, 
419, 420, 421, 422, 423, 424, 425, 426, 427, 428, 
429, 430, 431, 432, 433, 434, 435, 436, 437, 438, 
439, 440, 441, 442, 443, 444, 445, 446, 447, 448, 
449, 450, 451, 452, 453, 454, 455, 456, 457, 458, 
459, 460, 461, 462, 463, 464, 465, 466, 467, 468, 
469, 470, 471, 472, 473, 474, 475, 476, 477, 478, 
479, 480, 481, 482, 483, 484, 485, 1698, 1699, 1700, 
1701, 1702, 1703, 1704, 1705, 1706, 1707, 1708, 1709, 1710, 
1711, 1712, 1713, 1714, 1715, 1716, 1717, 1718, 1719, 1720, 
1721, 1722, 1723, 1724, 1725, 1726, 1727, 1728, 1729, 1730, 
1731, 1732, 1733, 1734, 1735, 1736, 1737, 1738, 1739, 1740, 
1741, 1742, 1743, 1744, 1745, 1746, 1747, 1748, 1749, 1750, 
1751, 1752, 1753, 1754, 1755, 1756, 1757, 1758, 1759, 1760, 
1761, 1762, 1763, 1764, 1765, 1766, 1767, 1768, 1769, 1770, 
1771, 1772, 1773, 1774, 1775, 1776, 1777, 1778, 1779, 1780, 
1781, 1782, 1783, 1784, 1785, 1786, 1787, 1788, 1789, 1790, 
1791, 1792, 1793, 1794, 1795, 1796, 1797, 1798, 1799, 1800, 
1801, 1802, 1803, 1804, 1805, 1806, 1807, 1808, 1809, 1810, 
1811, 1812, 1813, 1814, 1815, 1816, 1817, 1818, 1819, 1820, 
1821, 1822, 1823, 1824, 1825, 1826, 1827, 1828, 1829, 1830, 
1831, 1832, 1833, 1834, 1835, 1836, 1837, 1838, 1839, 1840, 
1841, 1842, 1843, 1844, 1845, 1846, 1847, 1848, 1849, 1850, 
1851, 1852, 1853, 1854, 1855, 1856, 1857, 1858, 1859, 1860, 
1861, 1862, 1863, 1864, 1865, 1866, 1867, 1868, 1869, 1870, 
1871, 1872, 1873, 1874, 1875, 1876, 1877, 1878, 1879, 1880, 
1881, 1882, 1883, 1884, 1885, 1886, 1887, 1888, 1889, 1890, 
1891, 1892, 1893, 1894, 1895, 1896, 1897, 1898, 1899, 1900, 
1901, 1902, 1903, 1904, 1905, 1906, 1907, 1908, 1909, 1910, 
1911, 1912, 1913, 1914, 1915, 1916, 1917, 1918, 1919, 1920, 
1921, 1922, 1923, 1924, 1925, 1926, 1927, 1928, 1929, 1930, 
1931, 1932, 1933, 1934, 1935, 1936, 1937, 1938, 1939, 1940, 
1941, 1942, 1943, 1944, 1945, 1946, 1947, 1948, 1949, 1950, 
1951, 1952, 1953, 1954, 1955, 1956, 1957, 1958, 1959, 1960, 
1961, 1962, 1963, 1964, 1965, 1966, 1967, 1968, 1969, 1970, 
1971, 1972, 1973, 1974, 1975, 1976, 1977, 1978, 1979, 1980, 
1981, 1982, 1983, 1984, 1985, 1986, 1987, 1988, 1989, 1990, 
1991, 1992, 1993, 1994, 1995, 1996, 1997, 1998, 1999, 2000, 
2001, 2002, 2003, 2004, 2005, 2006, 2007, 2008, 2009, 2010, 
2011, 2012, 2013, 2014, 2015, 2016, 2017, 2018, 2019, 2020, 
2021, 2022, 2023, 2024, 2025, 2026, 2027, 2028, 2029, 2030, 
2031, 2032, 2033, 2034, 2035, 2036, 2037, 2038, 2039, 2040, 
2041, 2042, 2043, 2044, 2045, 2046, 2047, 2048, 2049, 2050, 
2051, 2052, 2053, 2054, 2055, 2056, 2057, 2058, 2059, 2060, 
2061, 2062, 2063, 2064, 2065, 2066, 2067, 2068, 2069, 2070, 
2071, 2072, 2073, 2074, 2075, 2076, 2077, 2078, 2079, 2080, 
2081, 2082, 2083, 2084, 2085, 2086, 2087, 2088, 2089, 2090, 
2091, 2092, 2093, 2094, 2095, 2096, 2097, 2098, 2099, 2100, 
2101, 2102, 2103, 2104, 2105, 2106, 2107, 2108, 2109, 2110, 
2111, 2112, 2113, 2114, 2115, 2116, 2117, 2118, 2119, 2120, 
2121, 2122, 2123, 2124, 2125, 2126, 2127, 2128, 2129, 2130, 
2131, 2132, 2133, 2134, 2135, 2136, 2137, 2138, 2139, 2140, 
2141, 2142, 2143, 2144, 2145, 2146, 2147, 2148, 2149, 2150, 
2151, 2152, 2153, 2154, 2155, 2156, 2157, 2158, 2159, 2160, 
2161, 2162, 2163, 2164, 2165, 2166, 2167, 2168, 2169, 2170, 
2171, 2172, 2173, 2174, 2175, 2176, 2177, 2178, 2179, 2180, 
2181, 2182, 2183, 2184, 2185, 2186, 2187, 2188, 2189, 2190, 
2191, 2192, 2193, 2194, 2195, 2196, 2197, 2198, 2199, 2200, 
2201, 2202, 2203, 2204, 2205, 2206, 2207, 2208, 2209, 2210, 
2211, 2212, 2213, 2214, 2215, 2216, 2217, 2218, 2219, 2220, 
2221, 2222, 2223, 2224, 2225, 2226, 2227, 2228, 2229, 2230, 
2231, 2232, 2233, 2234, 2235, 2236, 2237, 2238, 2239, 2240, 
2241, 2242, 2243, 2244, 2245, 2246, 2247, 2248, 2249, 2250, 
2251, 2252, 2253, 2254, 2255, 2256, 2257, 2258, 2259, 2260, 
2261, 2262, 2263, 2264, 2265, 2266, 2267, 2268, 2269, 2270, 
2271, 2272, 2273, 2274, 2275, 2276, 2277, 2278, 2279, 2280, 
2281, 2282, 2283, 2284, 2285, 2286, 2287, 2288, 2289, 2290, 
2291, 2292, 2293, 2294, 2295, 2296, 2297, 2298, 2299, 2300, 
2301, 2302, 2303, 2304, 2305, 2306, 2307, 2308, 2309, 2310, 
2311, 2312, 2313, 2314, 2315, 2316, 2317, 2318, 2319, 2320, 
2321, 2322, 2323, 2324, 2325, 2326, 2327, 2328, 2329, 2330, 
2331, 2332, 2333, 2334, 2335, 2336, 2337, 2338, 2339, 2340, 
2341, 2342, 2343, 2344, 2345, 2346, 2347, 2348, 2349, 2350, 
2351, 2352, 2353, 2354, 2355, 2356, 2357, 2358, 2359, 2360, 
2361, 2362, 2363, 2364, 2365, 2366, 2367, 2368, 2369, 2370, 
2371, 2372, 2373, 2374, 2375, 2376, 2377, 2378, 2379, 2380, 
2381, 2382, 2383, 2384, 2385, 2386, 2387, 2388, 2389, 2390, 
2391, 2392, 2393, 2394, 2395, 2396, 2397, 2398, 2399, 2400, 
2401, 2402, 2403, 2404, 2405, 2406, 2407, 2408, 2409, 2410, 
2411, 2412, 2413, 2414, 2415, 2416, 2417, 2418, 2419, 2420, 
2421, 2422, 2423, 2424, 2425, 2426, 2427, 2428, 2429, 2430, 
2431, 2432, 2433, 2434, 2435, 2436, 2437, 2438, 2439, 2440, 
2441, 2442, 2443, 2444, 2445, 2446, 2447, 2448, 2449, 2450, 
2451, 2452, 2453, 2454, 2455, 2456, 2457, 2458, 2459, 2460, 
2461, 2462, 2463, 2464, 2465, 2466, 2467, 2468, 2469, 2470, 
2471, 2472, 2473, 2474, 2475, 2476, 2477, 2478, 2479, 2480, 
2481, 2482, 2483, 2484, 2485, 2486, 2487, 2488, 2489, 2490, 
2491, 2492, 2493, 2494, 2495, 2496, 2497, 2498, 2499, 2500, 
2501, 2502, 2503, 2504, 2505, 2506, 2507, 2508, 2509, 2510, 
2511, 2512, 2513, 2514, 2515, 2516, 2517, 2518, 2519, 2520, 
2521, 2522, 2523, 2524, 2525, 2526, 2527, 2528, 2529, 2530, 
2531, 2532, 2533, 2534, 2535, 2536, 2537, 2538, 2539, 2540, 
2541, 2542, 2543, 2544, 2545, 2546, 2547, 2548, 2549, 2550, 
2551, 2552, 2553, 2554, 2555, 2556, 2557, 2558, 2559, 2560, 
2561, 2562, 2563, 2564, 2565, 2566, 2567, 2568, 2569, 2570, 
2571, 2572, 2573, 2574, 2575, 2576, 2577, 2578, 2579, 2580, 
2581, 2582, 2583, 2584, 2585, 2586, 2587, 2588, 2589, 2590, 
2591, 2592, 2593, 2594, 2595, 2596, 2597, 2598, 2599, 2600, 
2601, 2602, 2603, 2604, 2605, 2606, 2607, 2608, 2609, 2610, 
2611, 2612, 2613, 2614, 2615, 2616, 2617, 2618, 2619, 2620, 
2621, 2622, 2623, 2624, 2625, 2626, 2627, 2628, 2629, 2630, 
2631, 2632, 2633, 2634, 2635, 2636, 2637, 2638, 2639, 2640, 
2641, 2642, 2643, 2644, 2645, 2646, 2647, 2648, 2649, 2650, 
2651, 2652, 2653, 2654, 2655, 2656, 2657, 2658, 2659, 2660, 
2661, 2662, 2663, 2664, 2665, 2666, 2667, 2668, 2669, 2670, 
2671, 2672, 2673, 2674, 2675, 2676, 2677, 2678, 2679, 2680, 
2681, 2682, 2683, 2684, 2685, 2686, 2687, 2688, 2689, 2690, 
2691, 2692, 2693, 2694, 2695, 2696, 2697, 2698, 2699, 2700, 
2701, 2702, 2703, 2704, 2705, 2706, 2707, 2708, 2709, 2710, 
2711, 2712, 2713, 2714, 2715, 2716, 2717, 2718, 2719, 2720, 
2721, 2722, 2723, 2724, 2725, 2726, 2727, 2728, 2729, 2730, 
2731, 2732, 2733, 2734, 2735, 2736, 2737, 2738, 2739, 2740, 
2741, 2742, 2743, 2744, 2745, 2746, 2747, 2748, 2749, 2750, 
2751, 2752, 2753, 2754, 2755, 2756, 2757, 2758, 2759, 2760, 
2761, 2762, 2763, 2764, 2765, 2766, 2767, 2768, 2769, 2770, 
2771, 2772, 2773, 2774, 2775, 2776, 2777, 2778, 2779, 2780, 
2781, 2782, 2783, 2784, 2785, 2786, 2787, 2788, 2789, 2790, 
2791, 2792, 2793, 2794, 2795, 2796, 2797, 2798, 2799, 2800, 
2801, 2802, 2803, 2804, 2805, 2806, 2807, 2808, 2809, 2810, 
2811, 2812, 2813, 2814, 2815, 2816, 2817, 2818, 2819, 2820, 
2821, 2822, 2823, 2824, 2825, 2826, 2827, 2828, 2829, 2830, 
2831, 2832, 2833, 2834, 2835, 2836, 2837, 2838, 2839, 2840, 
2841, 2842, 2843, 2844, 2845, 2846, 2847, 2848, 2849, 2850, 
2851, 2852, 2853, 2854, 2855, 2856, 2857, 2858, 2859, 2860, 
2861, 2862, 2863, 2864, 2865, 2866, 2867, 2868, 2869, 2870, 
2871, 2872, 2873, 2874, 2875, 2876, 2877, 2878, 2879, 2880, 
2881, 2882, 2883, 2884, 2885, 2886, 2887, 2888, 2889, 2890, 
2891, 2892, 2893, 2894, 2895, 2896, 2897, 2898, 2899, 2900, 
2901, 2902, 2903, 2904, 2905, 2906, 2907, 2908, 2909, 2910, 
2911, 2912, 2913, 2914, 2915, 2916, 2917, 2918, 2919, 2920, 
2921, 2922, 2923, 2924, 2925, 2926, 2927, 2928, 2929, 2930, 
2931, 2932, 2933, 2934, 2935, 2936, 2937, 2938, 2939, 2940, 
2941, 2942, 2943, 2944, 2945, 2946, 2947, 2948, 2949, 2950, 
2951, 2952, 2953, 2954, 2955, 2956, 2957, 2958, 2959, 2960, 
2961, 2962, 2963, 2964, 2965, 2966, 2967, 2968, 2969, 2970, 
2971, 2972, 2973, 2974, 2975, 2976, 2977, 2978, 2979, 2980, 
2981, 2982, 2983, 2984, 2985, 2986, 2987, 2988, 2989, 2990, 
2991, 2992, 2993, 2994, 2995, 2996, 2997, 2998, 2999, 3000, 
3001, 3002, 3003, 3004, 3005, 3006, 3007, 3008, 3009, 3010, 
3011, 3012, 3013, 3014, 3015, 3016, 3017, 3018, 3019, 3020, 
3021, 3022, 3023, 3024, 3025, 3026, 3027, 3028, 3029, 3030, 
3031, 3032, 3033, 3034, 3035, 3036, 3037, 3038, 3039, 3040, 
3041, 3042, 3043, 3044, 3045, 3046, 3047, 3048, 3049, 3050, 
3051, 3052, 3053, 3054, 3055, 3056, 3057, 3058, 3059, 3060, 
3061, 3062, 3063, 3064, 3065, 3066, 3067, 3068, 3069, 3070, 
3071, 3072, 3073, 3074, 3075, 3076, 3077, 3078, 3079, 3080, 
3081, 3082, 3083, 3084, 3085, 3086, 3087, 3088, 3089, 3090, 
3091, 3092, 3093, 3094, 3095, 3096, 3097, 3098, 3099, 3100, 
3101, 3102, 3103, 3104, 3105, 3106, 3107, 3108, 3109, 3110, 
3111, 3112, 3113, 3114, 3115, 3116, 3117, 3118, 3119, 3120, 
3121, 3122, 3123, 3124, 3125, 3126, 3127, 3128, 3129, 3130, 
3131, 3132, 3133, 3134, 3135, 3136, 3137, 3138, 3139, 3140, 
3141, 3142, 3143, 3144, 3145, 3146, 3147, 3148, 3149, 3150, 
3151, 3152, 3153, 3154, 3155, 3156, 3157, 3158, 3159, 3160, 
3161, 3162, 3163, 3164, 3165, 3166, 3167, 3168, 3169, 3170, 
3171, 3172, 3173, 3174, 3175, 3176, 3177, 3178, 3179, 3180, 
3181, 3182, 3183, 3184, 3185, 3186, 3187, 3188, 3189, 3190, 
3191, 3192, 3193, 3194, 3195, 3196, 3197, 3198, 3199, 3200, 
3201, 3202, 3203, 3204, 3205, 3206, 3207, 3208, 3209, 3210, 
3211, 3212, 3213, 3214, 3215, 3216, 3217, 3218, 3219, 3220, 
3221, 3222, 3223, 3224, 3225, 3226, 3227, 3228, 3229, 3230, 
3231, 3232, 3233, 3234, 3235, 3236, 3237, 3238, 3239, 3240, 
3241, 3242, 3243, 3244, 3245, 3246, 3247, 3248, 3249, 3250, 
3251, 3252, 3253, 3254, 3255, 3256, 3257, 3258, 3259, 3260, 
3261, 3262, 3263, 3264, 3265, 3266, 3267, 3268, 3269, 3270, 
3271, 3272, 3273, 3274, 3275, 3276, 3277, 3278, 3279, 3280, 
3281, 3282, 3283, 3284, 3285, 3286, 3287, 3288, 3289, 3290, 
3291, 3292, 3293, 3294, 3295, 3296, 3297, 3298, 3299, 3300, 
3301, 3302, 3303, 3304, 3305, 3306, 3307, 3308, 3309, 3310, 
3311, 3312, 3313, 3314, 3315, 3316, 3317, 3318, 3319, 3320, 
3321, 3322, 3323, 3324, 3325, 3326, 3327, 3328, 3329, 3330, 
3331, 3332, 3333, 3334, 3335, 3336, 3337, 3338, 3339, 3340, 
3341, 3342, 3343, 3344, 3345, 3346, 3347, 3348, 3349, 3350, 
3351, 3352, 3353, 3354, 3355, 3356, 3357, 3358, 3359, 3360, 
3361, 3362, 3363, 3364, 3365, 3366, 3367, 3368, 3369, 3370, 
3371, 3372, 3373, 3374, 3375, 3376, 3377, 3378, 3379, 3380, 
3381, 3382, 3383, 3384, 3385, 3386, 3387, 3388, 3389, 3390, 
3391, 3392, 3393, 3394, 3395, 3396, 3397, 3398, 3399, 3400, 
3401, 3402, 3403, 3404, 3405, 3406, 3407, 3408, 3409, 3410, 
3411, 3412, 3413, 3414, 3415, 3416, 3417, 3418, 3419, 3420, 
3421, 3422, 3423, 3424, 3425, 3426, 3427, 3428, 3429, 3430, 
3431, 3432, 3433, 3434, 3435, 3436, 3437, 3438, 3439, 3440, 
3441, 3442, 3443, 3444, 3445, 3446, 3447, 3448, 3449, 3450, 
3451, 3452, 3453, 3454, 3455, 3456, 3457, 3458, 3459, 3460, 
3461, 3462, 3463, 3464, 3465, 3466, 3467, 3468, 3469, 3470, 
3471, 3472, 3473, 3474, 3475, 3476, 3477, 3478, 3479, 3480, 
3481, 3482, 3483, 3484, 3485, 3486, 3487, 3488, 3489, 3490, 
3491, 3492, 3493, 3494, 3495, 3496, 3497, 3498, 3499, 3500, 
3501, 3502, 3503, 3504, 3505, 3506, 3507, 3508, 3509, 3510, 
3511, 3512, 3513, 3514, 3515, 3516, 3517, 3518, 3519, 3520, 
3521, 3522, 3523, 3524, 3525, 3526, 3527, 3528, 3529, 3530, 
3531, 3532, 3533, 3534, 3535, 3536, 3537, 3538, 3539, 3540, 
3541, 3542, 3543, 3544, 3545, 3546, 3547, 3548, 3549, 3550, 
3551, 3552, 3553, 3554, 3555, 3556, 3557, 3558, 3559, 3560, 
3561, 3562, 3563, 3564, 3565, 3566, 3567, 3568, 3569, 3570, 
3571, 3572, 3573, 3574, 3575, 3576, 3577, 3578, 3579, 3580, 
3581, 3582, 3583, 3584, 3585, 3586, 3587, 3588, 3589, 3590, 
3591, 3592, 3593, 3594, 3595, 3596, 3597, 3598, 3599, 3600, 
3601, 3602, 3603, 3604, 3605, 3606, 3607, 3608, 3609, 3610, 
3611, 3612, 3613, 3614, 3615, 3616, 3617, 3618, 3619, 3620, 
3621, 3622, 3623, 3624, 3625, 3626, 3627, 3628, 3629, 3630, 
3631, 3632, 3633, 3634, 3635, 3636, 3637, 3638, 3639, 3640, 
3641, 3642, 3643, 3644, 3645, 3646, 3647, 3648, 3649, 3650, 
3651, 3652, 3653, 3654, 3655, 3656, 3657, 3658, 3659, 3660, 
3661, 3662, 3663, 3664, 3665, 3666, 3667, 3668, 3669, 3670, 
3671, 3672, 3673, 3674, 3675, 3676, 3677, 3678, 3679, 3680, 
3681, 3682, 3683, 3684, 3685, 3686, 3687, 3688, 3689, 3690, 
3691, 3692, 3693, 3694, 3695, 3696, 3697, 3698, 3699, 3700, 
3701, 3702, 3703, 3704, 3705, 3706, 3707, 3708, 3709, 3710, 
3711, 3712, 3713, 3714, 3715, 3716, 3717, 3718, 3719, 3720, 
3721, 3722, 3723, 3724, 3725, 3726, 3727, 3728, 3729, 3730, 
3731, 3732, 3733, 3734, 3735, 3736, 3737, 3738, 3739, 3740, 
3741, 3742, 3743, 3744, 3745, 3746, 3747, 3748, 3749, 3750, 
3751, 3752, 3753, 3754, 3755, 3756, 3757, 3758, 3759, 3760, 
3761, 3762, 3763, 3764, 3765, 3766, 3767, 3768, 3769, 3770, 
3771, 3772, 3773, 3774, 3775, 3776, 3777, 3778, 3779, 3780, 
3781, 3782, 3783, 3784, 3785, 3786, 3787, 3788, 3789, 3790, 
3791, 3792, 3793, 3794, 3795, 3796, 3797, 3798, 3799, 3800, 
3801, 3802, 3803, 3804, 3805, 3806, 3807, 3808, 3809, 3810, 
3811, 3812, 3813, 3814, 3815, 3816, 3817, 3818, 3819, 3820, 
3821, 3822, 3823, 3824, 3825, 3826, 3827, 3828, 3829, 3830, 
3831, 3832, 3833, 3834, 3835, 3836, 3837, 3838, 3839, 3840, 
3841, 3842, 3843, 3844, 3845, 3846, 3847, 3848, 3849, 3850, 
3851, 3852, 3853, 3854, 3855, 3856, 3857, 3858, 3859, 3860, 
3861, 3862, 3863, 3864, 3865, 3866, 3867, 3868, 3869, 3870, 
3871, 3872, 3873, 3874, 3875, 3876, 3877, 3878, 3879, 3880, 
3881, 3882, 3883, 3884, 3885, 3886, 3887, 3888, 3889, 3890, 
3891, 3892, 3893, 3894, 3895, 3896, 3897, 3898, 3899, 3900, 
3901, 3902, 3903, 3904, 3905, 3906, 3907, 3908, 3909, 3910, 
3911, 3912, 3913, 3914, 3915, 3916, 3917, 3918, 3919, 3920, 
3921, 3922, 3923, 3924, 3925, 3926, 3927, 3928, 3929, 3930, 
3931, 3932, 3933, 3934, 3935, 3936, 3937, 3938, 3939, 3940, 
3941, 3942, 3943, 3944, 3945, 3946, 3947, 3948, 3949, 3950, 
3951, 3952, 3953, 3954, 3955, 3956, 3957, 3958, 3959, 3960, 
3961, 3962, 3963, 3964, 3965, 3966, 3967, 3968, 3969, 3970, 
3971, 3972, 3973, 3974, 3975, 3976, 3977, 3978, 3979, 3980, 
3981, 3982, 3983, 3984, 3985, 3986, 3987, 3988, 3989, 3990, 
3991, 3992, 3993, 3994, 3995, 3996, 3997, 3998, 3999, 4000, 
4001, 4002, 4003, 4004, 4005, 4006, 4007, 4008, 4009, 4010, 
4011, 4012, 4013, 4014, 4015, 4016, 4017, 4018, 4019, 4020, 
4021, 4022, 4023, 4024, 4025, 4026, 4027, 4028, 4029, 4030, 
4031, 4032, 4033, 4034, 4035, 4036, 4037, 4038, 4039, 4040, 
4041, 4042, 4043, 4044, 4045, 4046, 4047, 4048, 4049, 4050, 
4051, 4052, 4053, 4054, 4055, 4056, 4057, 4058, 4059, 4060, 
4061, 4062, 4063, 4064, 4065, 4066, 4067, 4068, 4069, 4070, 
4071, 4072, 4073, 4074, 4075, 4076, 4077, 4078, 4079, 4080, 
4081, 4082, 4083, 4084, 4085, 4086, 4087, 4088, 4089, 4090, 
4091, 4092, 4093, 4094, 4095, 4096, 4097, 4098, 4099, 4100, 
4101, 4102, 4103, 4104, 4105, 4106, 4107, 4108, 4109, 4110, 
4111, 4112, 4113, 4114, 4115, 4116, 4117, 4118, 4119, 4120, 
4121, 4122, 4123, 4124, 4125, 4126, 4127, 4128, 4129, 4130, 
4131, 4132, 4133, 4134, 4135, 4136, 4137, 4138, 4139, 4140, 
4141, 4142, 4143, 4144, 4145, 4146, 4147, 4148, 4149, 4150, 
4151, 4152, 4153, 4154, 4155, 4156, 4157, 4158, 4159, 4160, 
4161, 4162, 4163, 4164, 4165, 4166, 4167, 4168, 4169, 4170, 
4171, 4172, 4173, 4174, 4175, 4176, 4177, 4178, 4179, 4180, 
4181, 4182, 4183, 4184, 4185, 4186, 4187, 4188, 4189, 4190, 
4191, 4192, 4193, 4194, 4195, 4196, 4197, 4198, 4199, 4200, 
4201, 4202, 4203, 4204, 4205, 4206, 4207, 4208, 4209, 4210, 
4211, 4212, 4213, 4214, 4215, 4216, 4217, 4218, 4219, 4220, 
4221, 4222, 4223, 4224, 4225, 4226, 4227, 4228, 4229, 4230, 
4231, 4232, 4233, 4234, 4235, 4236, 4237, 4238, 4239, 4240, 
4241, 4242, 4243, 4244, 4245, 4246, 4247, 4248, 4249, 4250, 
4251, 4252, 4253, 4254, 4255, 4256, 4257, 4258, 4259, 4260, 
4261, 4262, 4263, 4264, 4265, 4266, 4267, 4268, 4269, 4270, 
4271, 4272, 4273, 4274, 4275, 4276, 4277, 4278, 4279, 4280, 
4281, 4282, 4283, 4284, 4285, 4286, 4287, 4288, 4289, 4290, 
4291, 4292, 4293, 4294, 4295, 4296, 4297, 4298, 4299, 4300, 
4301, 4302, 4303, 4304, 4305, 4306, 4307, 4308, 4309, 4310, 
4311, 4312, 4313, 4314, 4315, 4316, 4317, 4318, 4319, 4320, 
4321, 4322, 4323, 4324, 4325, 4326, 4327, 4328, 4329, 4330, 
4331, 4332, 4333, 4334, 4335, 4336, 4337, 4338, 4339, 4340, 
4341, 4342, 4343, 4344, 4345, 4346, 4347, 4348, 4349, 4350, 
4351, 4352, 4353, 4354, 4355, 4356, 4357, 4358, 4359, 4360, 
4361, 4362, 4363, 4364, 4365, 4366, 4367, 4368, 4369, 4370, 
4371, 4372, 4373, 4374, 4375, 4376, 4377, 4378, 4379, 4380, 
4381, 4382, 4383, 4384, 4385, 4386, 4387, 4388, 4389, 4390, 
4391, 4392, 4393, 4394, 4395, 4396, 4397, 4398, 4399, 4400, 
4401, 4402, 4403, 4404, 4405, 4406, 4407, 4408, 4409, 4410, 
4411, 4412, 4413, 4414, 4415, 4416, 4417, 4418, 4419, 4420, 
4421, 4422, 4423, 4424, 4425, 4426, 4427, 4428, 4429, 4430, 
4431, 4432, 4433, 4434, 4435, 4436, 4437, 4438, 4439, 4440, 
4441, 4442, 4443, 4444, 4445, 4446, 4447, 4448, 4449, 4450, 
4451, 4452, 4453, 4454, 4455, 4456, 4457, 4458, 4459, 4460, 
4461, 4462, 4463, 4464, 4465, 4466, 4467, 4468, 4469, 4470, 
4471, 4472, 4473, 4474, 4475, 4476, 4477, 4478, 4479, 4480, 
4481, 4482, 4483, 4484, 4485, 4486, 4487, 4488, 4489, 4490, 
4491, 4492, 4493, 4494, 4495, 4496, 4497, 4498, 4499, 4500, 
4501, 4502, 4503, 4504, 4505, 4506, 4507, 4508, 4509, 4510, 
4511, 4512, 4513, 4514, 4515, 4516, 4517, 4518, 4519, 4520, 
4521, 4522, 4523, 4524, 4525, 4526, 4527, 4528, 4529, 4530, 
4531, 4532, 4533, 4534, 4535, 4536, 4537, 4538, 4539, 4540, 
4541, 4542, 4543, 4544, 4545, 4546, 4547, 4548, 4549, 4550, 
4551, 4552, 4553, 4554, 4555, 4556, 4557, 4558, 4559, 4560, 
4561, 4562, 4563, 4564, 4565, 4566, 4567, 4568, 4569, 4570, 
4571, 4572, 4573, 4574, 4575, 4576, 4577, 4578, 4579, 4580, 
4581, 4582, 4583, 4584, 4585, 4586, 4587, 4588, 4589, 4590, 
4591, 4592, 4593, 4594, 4595, 4596, 4597, 4598, 4599, 4600, 
4601, 4602, 4603, 4604, 4605, 4606, 4607, 4608, 4609, 4610, 
4611, 4612, 4613, 4614, 4615, 4616, 4617, 4618, 4619, 4620, 
4621, 4622, 4623, 4624, 4625, 4626, 4627, 4628, 4629, 4630, 
4631, 4632, 4633, 4634, 4635, 4636, 4637, 4638, 4639, 4640, 
4641, 4642, 4643, 4644, 4645, 4646, 4647, 4648, 4649, 4650, 
4651, 4652, 4653, 4654, 4655, 4656, 4657, 4658, 4659, 4660, 
4661, 4662, 4663, 4664, 4665, 4666, 4667, 4668, 4669, 4670, 
4671, 4672, 4673, 4674, 4675, 4676, 4677, 4678, 4679, 4680, 
4681, 4682, 4683, 4684, 4685, 4686, 4687, 4688, 4689, 4690, 
4691, 4692, 4693, 4694, 4695, 4696, 4697, 4698, 4699, 4700, 
4701, 4702, 4703, 4704, 4705, 4706, 4707, 4708, 4709, 4710, 
4711, 4712, 4713, 4714, 4715, 4716, 4717, 4718, 4719, 4720, 
4721, 4722, 4723, 4724, 4725, 4726, 4727, 4728, 4729, 4730, 
4731, 4732, 4733, 4734, 4735, 4736, 4737, 4738, 4739, 4740, 
4741, 4742, 4743, 4744, 4745, 4746, 4747, 4748, 4749, 4750, 
4751, 4752, 4753, 4754, 4755, 4756, 4757, 4758, 4759, 4760, 
4761, 4762, 4763, 4764, 4765, 4766, 4767, 4768, 4769, 4770, 
4771, 4772, 4773, 4774, 4775, 4776, 4777, 4778, 4779, 4780, 
4781, 4782, 4783, 4784, 4785, 4786, 4787, 4788, 4789, 4790, 
4791, 4792, 4793, 4794, 4795, 4796, 4797, 4798, 4799, 4800, 
4801, 4802, 4803, 4804, 4805, 4806, 4807, 4808, 4809, 4810, 
4811, 4812, 4813, 4814, 4815, 4816, 4817, 4818, 4819, 4820, 
4821, 4822, 4823, 4824, 4825, 4826, 4827, 4828, 4829, 4830, 
4831, 4832, 4833, 4834, 4835, 4836, 4837, 4838, 4839, 4840, 
4841, 4842, 4843, 4844, 4845, 4846, 4847, 4848, 4849, 4850, 
4851, 4852, 4853, 4854, 4855, 4856, 4857, 4858, 4859, 4860, 
4861, 4862, 4863, 4864, 4865, 4866, 4867, 4868, 4869, 4870, 
4871, 4872, 4873, 4874, 4875, 4876, 4877, 4878, 4879, 4880, 
4881, 4882, 4883, 4884, 4885, 4886, 4887, 4888, 4889, 4890, 
4891, 4892, 4893, 4894, 4895, 4896, 4897, 4898, 4899, 4900, 
4901, 4902, 4903, 4904, 4905, 4906, 4907, 4908, 4909, 4910, 
4911, 4912, 4913, 4914, 4915, 4916, 4917, 4918, 4919, 4920, 
4921, 4922, 4923, 4924, 4925, 4926, 4927, 4928, 4929, 4930, 
4931, 4932, 4933, 4934, 4935, 4936, 4937, 4938, 4939, 4940, 
4941, 4942, 4943, 4944, 4945, 4946, 4947, 4948, 4949, 4950, 
4951, 4952, 4953, 4954, 4955, 4956, 4957, 4958, 4959, 4960, 
4961, 4962, 4963, 4964, 4965, 4966, 4967, 4968, 4969, 4970, 
4971, 4972, 4973, 4974, 4975, 4976, 4977, 4978, 4979, 4980, 
4981, 4982, 4983, 4984, 4985, 4986, 4987, 4988, 4989, 4990, 
4991, 4992, 4993, 4994, 4995, 4996, 4997, 4998, 4999, 5000, 
5001, 5002, 5003, 5004, 5005, 5006, 5007, 5008, 5009, 5010, 
5011, 5012, 5013, 5014, 5015, 5016, 5017, 5018, 5019, 5020, 
5021, 5022, 5023, 5024, 5025, 5026, 5027, 5028, 5029, 5030, 
5031, 5032, 5033, 5034, 5035, 5036, 5037, 5038, 5039, 5040, 
5041, 5042, 5043, 5044, 5045, 5046, 5047, 5048, 5049, 5050, 
5051, 5052, 5053, 5054, 5055, 5056, 5057, 5058, 5059, 5060, 
5061, 5062, 5063, 5064, 5065, 5066, 5067, 5068, 5069, 5070, 
5071, 5072, 5073, 5074, 5075, 5076, 5077, 5078, 5079, 5080, 
5081, 5082, 5083, 5084, 5085, 5086, 5087, 5088, 5089, 5090, 
5091, 5092, 5093, 5094, 5095, 5096, 5097, 5098, 5099, 5100, 
5101, 5102, 5103, 5104, 5105, 5106, 5107, 5108, 5109, 5110, 
5111, 5112, 5113, 5114, 5115, 5116, 5117, 5118, 5119, 5120, 
5121, 5122, 5123, 5124, 5125, 5126, 5127, 5128, 5129, 5130, 
5131, 5132, 5133, 5134, 5135, 5136, 5137, 5138, 5139, 5140, 
5141, 5142, 5143, 5144, 5145, 5146, 5147, 5148, 5149, 5150, 
5151, 5152, 5153, 5154, 5155, 5156, 5157, 5158, 5159, 5160, 
5161, 5162, 5163, 5164, 5165, 5166, 5167, 5168, 5169, 5170, 
5171, 5172, 5173, 5174, 5175, 5176, 5177, 5178, 5179, 5180, 
5181, 5182, 5183, 5184, 5185, 5186, 5187, 5188, 5189, 5190, 
5191, 5192, 5193, 5194, 5195, 5196, 5197, 5198, 5199, 5200, 
5201, 5202, 5203, 5204, 5205, 5206, 5207, 5208, 5209, 5210, 
5211, 5212, 5213, 5214, 5215, 5216, 5217, 5218, 5219, 5220, 
5221, 5222, 5223, 5224, 5225, 5226, 5227, 5228, 5229, 5230, 
5231, 5232, 5233, 5234, 5235, 5236, 5237, 5238, 5239, 5240, 
5241, 5242, 5243, 5244, 5245, 5246, 5247, 5248, 5249, 5250, 
5251, 5252, 5253, 5254, 5255, 5256, 5257, 5258, 5259, 5260, 
5261, 5262, 5263, 5264, 5265, 5266, 5267, 5268, 5269, 5270, 
5271, 5272, 5273, 5274, 5275, 5276, 5277, 5278, 5279, 5280, 
5281, 5282, 5283, 5284, 5285, 5286, 5287, 5288, 5289, 5290, 
5291, 5292, 5293, 5294, 5295, 5296, 5297, 5298, 5299, 5300, 
5301, 5302, 5303, 5304, 5305, 5306, 5307, 5308, 5309, 5310, 
5311, 5312, 5313, 5314, 5315, 5316, 5317, 5318, 5319, 5320, 
5321, 5322, 5323, 5324, 5325, 5326, 5327, 5328, 5329, 5330, 
5331, 5332, 5333, 5334, 5335, 5336, 5337, 5338, 5339, 5340, 
5341, 5342, 5343, 5344, 5345, 5346, 5347, 5348, 5349, 5350, 
5351, 5352, 5353, 5354, 5355, 5356, 5357, 5358, 5359, 5360, 
5361, 5362, 5363, 5364, 5365, 5366, 5367, 5368, 5369, 5370, 
5371, 5372, 5373, 5374, 5375, 5376, 5377, 5378, 5379, 5380, 
5381, 5382, 5383, 5384, 5385, 5386, 5387, 5388, 5389, 5390, 
5391, 5392, 5393, 5394, 5395, 5396, 5397, 5398, 5399, 5400, 
5401, 5402, 5403, 5404, 5405, 5406, 5407, 5408, 5409, 5410, 
5411, 5412, 5413, 5414, 5415, 5416, 5417, 5418, 5419, 5420, 
5421, 5422, 5423, 5424, 5425, 5426, 5427, 5428, 5429, 5430, 
5431, 5432, 5433, 5434, 5435, 5436, 5437, 5438, 5439, 5440, 
5441, 5442, 5443, 5444, 5445, 5446, 5447, 5448, 5449, 5450, 
5451, 5452, 5453, 5454, 5455, 5456, 5457, 5458, 5459, 5460, 
5461, 5462, 5463, 5464, 5465, 5466, 5467, 5468, 5469, 5470, 
5471, 5472, 5473, 5474, 5475, 5476, 5477, 5478, 5479, 5480, 
5481, 5482, 5483, 5484, 5485, 5486, 5487, 5488, 5489, 5490, 
5491, 5492, 5493, 5494, 5495, 5496, 5497, 5498, 5499, 5500, 
5501, 5502, 5503, 5504, 5505, 5506, 5507, 5508, 5509, 5510, 
5511, 5512, 5513, 5514, 5515, 5516, 5517, 5518, 5519, 5520, 
5521, 5522, 5523, 5524, 5525, 5526, 5527, 5528, 5529, 5530, 
5531, 5532, 5533, 5534, 5535, 5536, 5537, 5538, 5539, 5540, 
5541, 5542, 5543, 5544, 5545, 5546, 5547, 5548, 5549, 5550, 
5551, 5552, 5553, 5554, 5555, 5556, 5557, 5558, 5559, 5560, 
5561, 5562, 5563, 5564, 5565, 5566, 5567, 5568, 5569, 5570, 
5571, 5572, 5573, 5574, 5575, 5576, 5577, 5578, 5579, 5580, 
5581, 5582, 5583, 5584, 5585, 5586, 5587, 5588, 5589, 5590, 
5591, 5592, 5593, 5594, 5595, 5596, 5597, 5598, 5599, 5600, 
5601, 5602, 5603, 5604, 5605, 5606, 5607, 5608, 5609, 5610, 
5611, 5612, 5613, 5614, 5615, 5616, 5617, 5618, 5619, 5620, 
5621, 5622, 5623, 5624, 5625, 5626, 5627, 5628, 5629, 5630, 
5631, 5632, 5633, 5634, 5635, 5636, 5637, 5638, 5639, 5640, 
5641, 5642, 5643, 5644, 5645, 5646, 5647, 5648, 5649, 5650, 
5651, 5652, 5653, 5654, 5655, 5656, 5657, 5658, 5659, 5660, 
5661, 5662, 5663, 5664, 5665, 5666, 5667, 5668, 5669, 5670, 
5671, 5672, 5673, 5674, 5675, 5676, 5677, 5678, 5679, 5680, 
5681, 5682, 5683, 5684, 5685, 5686, 5687, 5688, 5689, 5690, 
5691, 5692, 5693, 5694, 5695, 5696, 5697, 5698, 5699, 5700, 
5701, 5702, 5703, 5704, 5705, 5706, 5707, 5708, 5709, 5710, 
5711, 5712, 5713, 5714, 5715, 5716, 5717, 5718, 5719, 5720, 
5721, 5722, 5723, 5724, 5725, 5726, 5727, 5728, 5729, 5730, 
5731, 5732, 5733, 5734, 5735, 5736, 5737, 5738, 5739, 5740, 
5741, 5742, 5743, 5744, 5745, 5746, 5747, 5748, 5749, 5750, 
5751, 5752, 5753, 5754, 5755, 5756, 5757, 5758, 5759, 5760, 
5761, 5762, 5763, 5764, 5765, 5766, 5767, 5768, 5769, 5770, 
5771, 5772, 5773, 5774, 5775, 5776, 5777, 5778, 5779, 5780, 
5781, 5782, 5783, 5784, 5785, 5786, 5787, 5788, 5789, 5790, 
5791, 5792, 5793, 5794, 5795, 5796, 5797, 5798, 5799, 5800, 
5801, 5802, 5803, 5804, 5805, 5806, 5807, 5808, 5809, 5810, 
5811, 5812, 5813, 5814, 5815, 5816, 5817, 5818, 5819, 5820, 
5821, 5822, 5823, 5824, 5825, 5826, 5827, 5828, 5829, 5830, 
5831, 5832, 5833, 5834, 5835, 5836, 5837, 5838, 5839, 5840, 
5841, 5842, 5843, 5844, 5845, 5846, 5847, 5848, 5849, 5850, 
5851, 5852, 5853, 5854, 5855, 5856, 5857, 5858, 5859, 5860, 
5861, 5862, 5863, 5864, 5865, 5866, 5867, 5868, 5869, 5870, 
5871, 5872, 5873, 5874, 5875, 5876, 5877, 5878, 5879, 5880, 
5881, 5882, 5883, 5884, 5885, 5886, 5887, 5888, 5889, 5890, 
5891, 5892, 5893, 5894, 5895, 5896, 5897, 5898, 5899, 5900, 
5901, 5902, 5903, 5904, 5905, 5906, 5907, 5908, 5909, 5910, 
5911, 5912, 5913, 5914, 5915, 5916, 5917, 5918, 5919, 5920, 
5921, 5922, 5923, 5924, 5925, 5926, 5927, 5928, 5929, 5930, 
5931, 5932, 5933, 5934, 5935, 5936, 5937, 5938, 5939, 5940, 
5941, 5942, 5943, 5944, 5945, 5946, 5947, 5948, 5949, 5950, 
5951, 5952, 5953, 5954, 5955, 5956, 5957, 5958, 5959, 5960, 
5961, 5962, 5963, 5964, 5965, 5966, 5967, 5968, 5969, 5970, 
5971, 5972, 5973, 5974, 5975, 5976, 5977, 5978, 5979, 5980, 
5981, 5982, 5983, 5984, 5985, 5986, 5987, 5988, 5989, 5990, 
5991, 5992, 5993, 5994, 5995, 5996, 5997, 5998, 5999, 6000, 
6001, 6002, 6003, 6004, 6005, 6006, 6007, 6008, 6009, 6010, 
6011, 6012, 6013, 6014, 6015, 6016, 6017, 6018, 6019, 6020, 
6021, 6022, 6023, 6024, 6025, 6026, 6027, 6028, 6029, 6030, 
6031, 6032, 6033, 6034, 6035, 6036, 6037, 6038, 6039, 6040, 
6041, 6042, 6043, 6044, 6045, 6046, 6047, 6048, 6049, 6050, 
6051, 6052, 6053, 6054, 6055, 6056, 6057, 6058, 6059, 6060, 
6061, 6062, 6063, 6064, 6065, 6066, 6067, 6068, 6069, 6070, 
6071, 6072, 6073, 6074, 6075, 6076, 6077, 6078, 6079, 6080, 
6081, 6082, 6083, 6084, 6085, 6086, 6087, 6088, 6089, 6090, 
6091, 6092, 6093, 6094, 6095, 6096, 6097, 6098, 6099, 6100, 
6101, 6102, 6103, 6104, 6105, 6106, 6107, 6108, 6109, 6110, 
6111, 6112, 6113, 6114, 6115, 6116, 6117, 6118, 6119, 6120, 
6121, 6122, 6123, 6124, 6125, 6126, 6127, 6128, 6129, 6130, 
6131, 6132, 6133, 6134, 6135, 6136, 6137, 6138, 6139, 6140, 
6141, 6142, 6143, 6144, 6145, 6146, 6147, 6148, 6149, 6150, 
6151, 6152, 6153, 6154, 6155, 6156, 6157, 6158, 6159, 6160, 
6161, 6162, 6163, 6164, 6165, 6166, 6167, 6168, 6169, 6170, 
6171, 6172, 6173, 6174, 6175, 6176, 6177, 6178, 6179, 6180, 
6181, 6182, 6183, 6184, 6185, 6186, 6187, 6188, 6189, 6190, 
6191, 6192, 6193, 6194, 6195, 6196, 6197, 6198, 6199, 6200, 
6201, 6202, 6203, 6204, 6205, 6206, 6207, 6208, 6209, 6210, 
6211, 6212, 6213, 6214, 6215, 6216, 6217, 6218, 6219, 6220, 
6221, 6222, 6223, 6224, 6225, 6226, 6227, 6228, 6229, 6230, 
6231, 6232, 6233, 6234, 6235, 6236, 6237, 6238, 6239, 6240, 
6241, 6242, 6243, 6244, 6245, 6246, 6247, 6248, 6249, 6250, 
6251, 6252, 6253, 6254, 6255, 6256, 6257, 6258, 6259, 6260, 
6261, 6262, 6263, 6264, 6265, 6266, 6267, 6268, 6269, 6270, 
6271, 6272, 6273, 6274, 6275, 6276, 6277, 6278, 6279, 6280, 
6281, 6282, 6283, 6284, 6285, 6286, 6287, 6288, 6289, 6290, 
6291, 6292, 6293, 6294, 6295, 6296, 6297, 6298, 6299, 6300, 
6301, 6302, 6303, 6304, 6305, 6306, 6307, 6308, 6309, 6310, 
6311, 6312, 6313, 6314, 6315, 6316, 6317, 6318, 6319, 6320, 
6321, 6322, 6323, 6324, 6325, 6326, 6327, 6328, 6329, 6330, 
6331, 6332, 6333, 6334, 6335, 6336, 6337, 6338, 6339, 6340, 
6341, 6342, 6343, 6344, 6345, 6346, 6347, 6348, 6349, 6350, 
6351, 6352, 6353, 6354, 6355, 6356, 6357, 6358, 6359, 6360, 
6361, 6362, 6363, 6364, 6365, 6366, 6367, 6368, 6369, 6370, 
6371, 6372, 6373, 6374, 6375, 6376, 6377, 6378, 6379, 6380, 
6381, 6382, 6383, 6384, 6385, 6386, 6387, 6388, 6389, 6390, 
6391, 6392, 6393, 6394, 6395, 6396, 6397, 6398, 6399, 6400, 
6401, 6402, 6403, 6404, 6405, 6406, 6407, 6408, 6409, 6410, 
6411, 6412, 6413, 6414, 6415, 6416, 6417, 6418, 6419, 6420, 
6421, 6422, 6423, 6424, 6425, 6426, 6427, 6428, 6429, 6430, 
6431, 6432, 6433, 6434, 6435, 6436, 6437, 6438, 6439, 6440, 
6441, 6442, 6443, 6444, 6445, 6446, 6447, 6448, 6449, 6450, 
6451, 6452, 6453, 6454, 6455, 6456, 6457, 6458, 6459, 6460, 
6461, 6462, 6463, 6464, 6465, 6466, 6467, 6468, 6469, 6470, 
6471, 6472, 6473, 6474, 6475, 6476, 6477, 6478, 6479, 6480, 
6481, 6482, 6483, 6484, 6485, 6486, 6487, 6488, 6489, 6490, 
6491, 6492, 6493, 6494, 6495, 6496, 6497, 6498, 6499, 6500, 
6501, 6502, 6503, 6504, 6505, 6506, 6507, 6508, 6509, 6510, 
6511, 6512, 6513, 6514, 6515, 6516, 6517, 6518, 6519, 6520, 
6521, 6522, 6523, 6524, 6525, 6526, 6527, 6528, 6529, 6530, 
6531, 6532, 6533, 6534, 6535, 6536, 6537, 6538, 6539, 6540, 
6541, 6542, 6543, 6544, 6545, 6546, 6547, 6548, 6549, 6550, 
6551, 6552, 6553, 6554, 6555, 6556, 6557, 6558, 6559, 6560, 
6561, 6562, 6563, 6564, 6565, 6566, 6567, 6568, 6569, 6570, 
6571, 6572, 6573, 6574, 6575, 6576, 6577, 6578, 6579, 6580, 
6581, 6582, 6583, 6584, 6585, 6586, 6587, 6588, 6589, 6590, 
6591, 6592, 6593, 6594, 6595, 6596, 6597, 6598, 6599, 6600, 
6601, 6602, 6603, 6604, 6605, 6606, 6607, 6608, 6609, 6610, 
6611, 6612, 6613, 6614, 6615, 6616, 6617, 6618, 6619, 6620, 
6621, 6622, 6623, 6624, 6625, 6626, 6627, 6628, 6629, 6630, 
6631, 6632, 6633, 6634, 6635, 6636, 6637, 6638, 6639, 6640, 
6641, 6642, 6643, 6644, 6645, 6646, 6647, 6648, 6649, 6650, 
6651, 6652, 6653, 6654, 6655, 6656, 6657, 6658, 6659, 6660, 
6661, 6662, 6663, 6664, 6665, 6666, 6667, 6668, 6669, 6670, 
6671, 6672, 6673, 6674, 6675, 6676, 6677, 6678, 6679, 6680, 
6681, 6682, 6683, 6684, 6685, 6686, 6687, 6688, 6689, 6690, 
6691, 6692, 6693, 6694, 6695, 6696, 6697, 6698, 6699, 6700, 
6701, 6702, 6703, 6704, 6705, 6706, 6707, 6708, 6709, 6710, 
6711, 6712, 6713, 6714, 6715, 6716, 6717, 6718, 6719, 6720, 
6721, 6722, 6723, 6724, 6725, 6726, 6727, 6728, 6729, 6730, 
6731, 6732, 6733, 6734, 6735, 6736, 6737, 6738, 6739, 6740, 
6741, 6742, 6743, 6744, 6745, 6746, 6747, 6748, 6749, 6750, 
6751, 6752, 6753, 6754, 6755, 6756, 6757, 6758, 6759, 6760, 
6761, 6762, 6763, 6764, 6765, 6766, 6767, 6768, 6769, 6770, 
6771, 6772, 6773, 6774, 6775, 6776, 6777, 6778, 6779, 6780, 
6781, 6782, 6783, 6784, 6785, 6786, 6787, 6788, 6789, 6790, 
6791, 6792, 6793, 6794, 6795, 6796, 6797, 6798, 6799, 6800, 
6801, 6802, 6803, 6804, 6805, 6806, 6807, 6808, 6809, 6810, 
6811, 6812, 6813, 6814, 6815, 6816, 6817, 6818, 6819, 6820, 
6821, 6822, 6823, 6824, 6825, 6826, 6827, 6828, 6829, 6830, 
6831, 6832, 6833, 6834, 6835, 6836, 6837, 6838, 6839, 6840, 
6841, 6842, 6843, 6844, 6845, 6846, 6847, 6848, 6849, 6850, 
6851, 6852, 6853, 6854, 6855, 6856, 6857, 6858, 6859, 6860, 
6861, 6862, 6863, 6864, 6865, 6866, 6867, 6868, 6869, 6870, 
6871, 6872, 6873, 6874, 6875, 6876, 6877, 6878, 6879, 6880, 
6881, 6882, 6883, 6884, 6885, 6886, 6887, 6888, 6889, 6890, 
6891, 6892, 6893, 6894, 6895, 6896, 6897, 6898, 6899, 6900, 
6901, 6902, 6903, 6904, 6905, 6906, 6907, 6908, 6909, 6910, 
6911, 6912, 6913, 6914, 6915, 6916, 6917, 6918, 6919, 6920, 
6921, 6922, 6923, 6924, 6925, 6926, 6927, 6928, 6929, 6930, 
6931, 6932, 6933, 6934, 6935, 6936, 6937, 6938, 6939, 6940, 
6941, 
*NSET,NSET=skir_carbo_und
9, 10, 16, 19, 36, 37, 38, 39, 40, 41, 
42, 43, 44, 45, 46, 47, 48, 49, 50, 51, 
52, 53, 54, 55, 56, 57, 58, 59, 60, 61, 
62, 63, 64, 65, 66, 67, 68, 69, 70, 71, 
72, 73, 74, 75, 76, 77, 78, 79, 80, 81, 
82, 83, 84, 85, 86, 87, 88, 89, 90, 91, 
92, 93, 94, 95, 96, 97, 98, 99, 100, 101, 
102, 103, 104, 105, 106, 107, 108, 109, 110, 111, 
112, 113, 114, 115, 116, 117, 118, 119, 120, 121, 
122, 123, 124, 125, 126, 127, 128, 129, 130, 131, 
132, 133, 134, 135, 136, 137, 138, 139, 140, 141, 
142, 143, 144, 145, 146, 147, 148, 149, 150, 151, 
152, 153, 154, 155, 156, 157, 158, 159, 160, 161, 
162, 163, 164, 165, 166, 167, 168, 169, 170, 171, 
172, 173, 174, 175, 176, 177, 178, 179, 180, 181, 
182, 183, 184, 185, 186, 187, 188, 189, 190, 191, 
192, 193, 194, 502, 503, 504, 505, 506, 507, 508, 
509, 510, 511, 512, 513, 514, 515, 516, 517, 518, 
519, 520, 521, 522, 523, 524, 525, 526, 527, 528, 
529, 530, 531, 532, 533, 534, 535, 536, 537, 538, 
539, 540, 541, 542, 543, 544, 545, 546, 547, 548, 
549, 550, 551, 552, 553, 554, 555, 556, 557, 558, 
559, 560, 561, 562, 563, 564, 565, 566, 567, 568, 
569, 570, 571, 572, 573, 574, 575, 576, 577, 578, 
579, 580, 581, 582, 583, 584, 585, 586, 587, 588, 
589, 590, 591, 592, 593, 594, 595, 596, 597, 598, 
599, 600, 601, 602, 603, 604, 605, 606, 607, 608, 
609, 610, 611, 612, 613, 614, 615, 616, 617, 618, 
619, 620, 621, 622, 623, 624, 625, 626, 627, 628, 
629, 630, 631, 632, 633, 634, 635, 636, 637, 638, 
639, 640, 641, 642, 643, 644, 645, 646, 647, 648, 
649, 650, 651, 652, 653, 654, 655, 656, 657, 658, 
659, 660, 661, 
