*NODE, NSET=NALL
    1, 2.7500000000e+02, 1.5000000000e+03, -4.1000000000e+02
    2, -2.7500000000e+02, 1.5000000000e+03, -4.1000000000e+02
    3, -2.7500000000e+02, 1.5939514579e+03, -4.1000000000e+02
    4, 2.7500000000e+02, 1.5939514579e+03, -4.1000000000e+02
    53, 1.9445436483e+02, 1.5000000000e+03, -6.0445436483e+02
    54, -3.1622801390e-13, 1.5000000000e+03, -6.8500000000e+02
    55, -1.9445436483e+02, 1.5000000000e+03, -6.0445436483e+02
    56, 2.5406687144e+02, 1.5000000000e+03, -5.1523794390e+02
    57, 1.0523794390e+02, 1.5000000000e+03, -6.6406687144e+02
    58, -1.0523794390e+02, 1.5000000000e+03, -6.6406687144e+02
    59, -2.5406687144e+02, 1.5000000000e+03, -5.1523794390e+02
    60, -2.7500000000e+02, 1.5469757289e+03, -4.1000000000e+02
    61, 1.9445612898e+02, 1.6057686832e+03, -6.0445260108e+02
    62, 6.7822045176e-05, 1.6175000006e+03, -6.8500000033e+02
    63, -1.9445611688e+02, 1.6057686853e+03, -6.0445262139e+02
    64, 2.5401896112e+02, 1.5974293778e+03, -5.1535353220e+02
    65, 1.0535481435e+02, 1.6140652445e+03, -6.6401843153e+02
    66, -1.0535407558e+02, 1.6140652832e+03, -6.6401866350e+02
    67, -2.5401934449e+02, 1.5974293172e+03, -5.1535261289e+02
    68, 2.7500000000e+02, 1.5469757289e+03, -4.1000000000e+02
    1014, -1.9445523870e+02, 1.5528843427e+03, -6.0445349095e+02
    1015, 3.3911022396e-05, 1.5587500003e+03, -6.8500000000e+02
    1016, 1.9445524680e+02, 1.5528843416e+03, -6.0445348285e+02
    5, -2.7500000000e+02, 1.5939514579e+03, 4.0000000000e+01
    6, -2.7500000000e+02, 1.5000000000e+03, 4.0000000000e+01
    69, -2.7500000000e+02, 1.5939514579e+03, -1.8500000000e+02
    70, -2.7500000000e+02, 1.5939514579e+03, -2.9750000000e+02
    71, -2.7500000000e+02, 1.5939514579e+03, -7.2500000000e+01
    72, -2.7500000000e+02, 1.5469757289e+03, 4.0000000000e+01
    73, -2.7500000000e+02, 1.5000000000e+03, -1.8500000000e+02
    74, -2.7500000000e+02, 1.5000000000e+03, -7.2500000000e+01
    75, -2.7500000000e+02, 1.5000000000e+03, -2.9750000000e+02
    1017, -2.7500000000e+02, 1.5469757289e+03, -1.8500000000e+02
    7, 2.7500000000e+02, 1.5000000000e+03, 4.0000000000e+01
    8, 2.7500000000e+02, 1.5939514579e+03, 4.0000000000e+01
    76, -1.9445436483e+02, 1.5000000000e+03, 2.3445436483e+02
    77, -1.8903402475e-12, 1.5000000000e+03, 3.1500000000e+02
    78, 1.9445436483e+02, 1.5000000000e+03, 2.3445436483e+02
    79, -2.5406687144e+02, 1.5000000000e+03, 1.4523794390e+02
    80, -1.0523794390e+02, 1.5000000000e+03, 2.9406687144e+02
    81, 1.0523794390e+02, 1.5000000000e+03, 2.9406687144e+02
    82, 2.5406687144e+02, 1.5000000000e+03, 1.4523794390e+02
    83, 2.7500000000e+02, 1.5469757289e+03, 4.0000000000e+01
    84, -1.9445612898e+02, 1.6057686832e+03, 2.3445260108e+02
    85, -6.7822047266e-05, 1.6175000006e+03, 3.1500000033e+02
    86, 1.9445611688e+02, 1.6057686853e+03, 2.3445262139e+02
    87, -2.5401896112e+02, 1.5974293778e+03, 1.4535353220e+02
    88, -1.0535481435e+02, 1.6140652445e+03, 2.9401843153e+02
    89, 1.0535407558e+02, 1.6140652832e+03, 2.9401866350e+02
    90, 2.5401934449e+02, 1.5974293172e+03, 1.4535261289e+02
    1018, 1.9445523870e+02, 1.5528843427e+03, 2.3445349095e+02
    1019, -3.3911024535e-05, 1.5587500003e+03, 3.1500000000e+02
    1020, -1.9445524680e+02, 1.5528843416e+03, 2.3445348285e+02
    91, 2.7500000000e+02, 1.5939514579e+03, -1.8500000000e+02
    92, 2.7500000000e+02, 1.5939514579e+03, -2.9750000000e+02
    93, 2.7500000000e+02, 1.5939514579e+03, -7.2500000000e+01
    94, 2.7500000000e+02, 1.5000000000e+03, -1.8500000000e+02
    95, 2.7500000000e+02, 1.5000000000e+03, -7.2500000000e+01
    96, 2.7500000000e+02, 1.5000000000e+03, -2.9750000000e+02
    1021, 2.7500000000e+02, 1.5469757289e+03, -1.8500000000e+02
    9, 2.7500000000e+02, 1.7000000000e+03, 4.0000000000e+01
    10, -2.7500000000e+02, 1.7000000000e+03, 4.0000000000e+01
    97, 2.7500000000e+02, 1.6469757289e+03, 4.0000000000e+01
    98, -1.9445436483e+02, 1.7000000000e+03, 2.3445436483e+02
    99, -1.8903402475e-12, 1.7000000000e+03, 3.1500000000e+02
    100, 1.9445436483e+02, 1.7000000000e+03, 2.3445436483e+02
    101, -2.5406687144e+02, 1.7000000000e+03, 1.4523794390e+02
    102, -1.0523794390e+02, 1.7000000000e+03, 2.9406687144e+02
    103, 1.0523794390e+02, 1.7000000000e+03, 2.9406687144e+02
    104, 2.5406687144e+02, 1.7000000000e+03, 1.4523794390e+02
    105, -2.7500000000e+02, 1.6469757289e+03, 4.0000000000e+01
    1022, -1.9445524680e+02, 1.6528843416e+03, 2.3445348285e+02
    1023, -3.3911024535e-05, 1.6587500003e+03, 3.1500000000e+02
    1024, 1.9445523870e+02, 1.6528843427e+03, 2.3445349095e+02
    11, 2.7500000000e+02, 1.7000000000e+03, -4.1000000000e+02
    106, 2.7500000000e+02, 1.7000000000e+03, -1.8500000000e+02
    107, 2.7500000000e+02, 1.7000000000e+03, -7.2500000000e+01
    108, 2.7500000000e+02, 1.7000000000e+03, -2.9750000000e+02
    109, 2.7500000000e+02, 1.6469757289e+03, -4.1000000000e+02
    1025, 2.7500000000e+02, 1.6469757289e+03, -1.8500000000e+02
    12, -2.7500000000e+02, 1.7000000000e+03, -4.1000000000e+02
    110, -2.7500000000e+02, 1.6469757289e+03, -4.1000000000e+02
    111, 1.9445436483e+02, 1.7000000000e+03, -6.0445436483e+02
    112, -3.1622801390e-13, 1.7000000000e+03, -6.8500000000e+02
    113, -1.9445436483e+02, 1.7000000000e+03, -6.0445436483e+02
    114, 2.5406687144e+02, 1.7000000000e+03, -5.1523794390e+02
    115, 1.0523794390e+02, 1.7000000000e+03, -6.6406687144e+02
    116, -1.0523794390e+02, 1.7000000000e+03, -6.6406687144e+02
    117, -2.5406687144e+02, 1.7000000000e+03, -5.1523794390e+02
    1026, 1.9445524680e+02, 1.6528843416e+03, -6.0445348285e+02
    1027, 3.3911022396e-05, 1.6587500003e+03, -6.8500000000e+02
    1028, -1.9445523870e+02, 1.6528843427e+03, -6.0445349095e+02
    118, -2.7500000000e+02, 1.7000000000e+03, -1.8500000000e+02
    119, -2.7500000000e+02, 1.7000000000e+03, -7.2500000000e+01
    120, -2.7500000000e+02, 1.7000000000e+03, -2.9750000000e+02
    1029, -2.7500000000e+02, 1.6469757289e+03, -1.8500000000e+02
    13, -2.7500000000e+02, 1.5939514579e+03, -5.8100000000e+03
    14, -2.7500000000e+02, 1.5000000000e+03, -5.8100000000e+03
    15, 2.7500000000e+02, 1.5939514579e+03, -5.8100000000e+03
    16, 2.7500000000e+02, 1.5000000000e+03, -5.8100000000e+03
    121, -2.7500000000e+02, 1.5469757289e+03, -5.8100000000e+03
    122, -1.9445612898e+02, 1.6057686832e+03, -6.0044526011e+03
    123, -6.7822043655e-05, 1.6175000006e+03, -6.0850000003e+03
    124, 1.9445611688e+02, 1.6057686853e+03, -6.0044526214e+03
    125, -2.5401896112e+02, 1.5974293778e+03, -5.9153535322e+03
    126, -1.0535481435e+02, 1.6140652445e+03, -6.0640184315e+03
    127, 1.0535407558e+02, 1.6140652832e+03, -6.0640186635e+03
    128, 2.5401934449e+02, 1.5974293172e+03, -5.9153526129e+03
    129, 2.7500000000e+02, 1.5469757289e+03, -5.8100000000e+03
    130, 1.9445436483e+02, 1.5000000000e+03, -6.0044543648e+03
    131, 2.1401404281e-12, 1.5000000000e+03, -6.0850000000e+03
    132, -1.9445436483e+02, 1.5000000000e+03, -6.0044543648e+03
    133, 2.5406687144e+02, 1.5000000000e+03, -5.9152379439e+03
    134, 1.0523794390e+02, 1.5000000000e+03, -6.0640668714e+03
    135, -1.0523794390e+02, 1.5000000000e+03, -6.0640668714e+03
    136, -2.5406687144e+02, 1.5000000000e+03, -5.9152379439e+03
    1030, 1.9445523870e+02, 1.5528843427e+03, -6.0044534910e+03
    1031, -3.3911020722e-05, 1.5587500003e+03, -6.0850000000e+03
    1032, -1.9445524680e+02, 1.5528843416e+03, -6.0044534829e+03
    17, -2.7500000000e+02, 1.5939514579e+03, -5.3600000000e+03
    18, -2.7500000000e+02, 1.5000000000e+03, -5.3600000000e+03
    137, -2.7500000000e+02, 1.5469757289e+03, -5.3600000000e+03
    138, -2.7500000000e+02, 1.5939514579e+03, -5.5850000000e+03
    139, -2.7500000000e+02, 1.5939514579e+03, -5.6975000000e+03
    140, -2.7500000000e+02, 1.5939514579e+03, -5.4725000000e+03
    141, -2.7500000000e+02, 1.5000000000e+03, -5.5850000000e+03
    142, -2.7500000000e+02, 1.5000000000e+03, -5.6975000000e+03
    143, -2.7500000000e+02, 1.5000000000e+03, -5.4725000000e+03
    1033, -2.7500000000e+02, 1.5469757289e+03, -5.5850000000e+03
    19, 2.7500000000e+02, 1.5939514579e+03, -5.3600000000e+03
    20, 2.7500000000e+02, 1.5000000000e+03, -5.3600000000e+03
    144, 2.7500000000e+02, 1.5469757289e+03, -5.3600000000e+03
    145, 1.9445612898e+02, 1.6057686832e+03, -5.1655473989e+03
    146, 6.7822048719e-05, 1.6175000006e+03, -5.0849999997e+03
    147, -1.9445611688e+02, 1.6057686853e+03, -5.1655473786e+03
    148, 2.5401896112e+02, 1.5974293778e+03, -5.2546464678e+03
    149, 1.0535481435e+02, 1.6140652445e+03, -5.1059815685e+03
    150, -1.0535407558e+02, 1.6140652832e+03, -5.1059813365e+03
    151, -2.5401934449e+02, 1.5974293172e+03, -5.2546473871e+03
    152, -1.9445436483e+02, 1.5000000000e+03, -5.1655456352e+03
    153, -4.8868367895e-13, 1.5000000000e+03, -5.0850000000e+03
    154, 1.9445436483e+02, 1.5000000000e+03, -5.1655456352e+03
    155, -2.5406687144e+02, 1.5000000000e+03, -5.2547620561e+03
    156, -1.0523794390e+02, 1.5000000000e+03, -5.1059331286e+03
    157, 1.0523794390e+02, 1.5000000000e+03, -5.1059331286e+03
    158, 2.5406687144e+02, 1.5000000000e+03, -5.2547620561e+03
    1034, -1.9445523870e+02, 1.5528843427e+03, -5.1655465090e+03
    1035, 3.3911024123e-05, 1.5587500003e+03, -5.0850000000e+03
    1036, 1.9445524680e+02, 1.5528843416e+03, -5.1655465171e+03
    159, 2.7500000000e+02, 1.5939514579e+03, -5.5850000000e+03
    160, 2.7500000000e+02, 1.5939514579e+03, -5.6975000000e+03
    161, 2.7500000000e+02, 1.5939514579e+03, -5.4725000000e+03
    162, 2.7500000000e+02, 1.5000000000e+03, -5.5850000000e+03
    163, 2.7500000000e+02, 1.5000000000e+03, -5.6975000000e+03
    164, 2.7500000000e+02, 1.5000000000e+03, -5.4725000000e+03
    1037, 2.7500000000e+02, 1.5469757289e+03, -5.5850000000e+03
    21, 2.7500000000e+02, 1.7000000000e+03, -5.8100000000e+03
    22, 2.7500000000e+02, 1.7000000000e+03, -5.3600000000e+03
    165, 2.7500000000e+02, 1.6469757289e+03, -5.8100000000e+03
    166, 2.7500000000e+02, 1.7000000000e+03, -5.5850000000e+03
    167, 2.7500000000e+02, 1.7000000000e+03, -5.6975000000e+03
    168, 2.7500000000e+02, 1.7000000000e+03, -5.4725000000e+03
    169, 2.7500000000e+02, 1.6469757289e+03, -5.3600000000e+03
    1038, 2.7500000000e+02, 1.6469757289e+03, -5.5850000000e+03
    23, -2.7500000000e+02, 1.7000000000e+03, -5.3600000000e+03
    170, -1.9445436483e+02, 1.7000000000e+03, -5.1655456352e+03
    171, -4.8868367895e-13, 1.7000000000e+03, -5.0850000000e+03
    172, 1.9445436483e+02, 1.7000000000e+03, -5.1655456352e+03
    173, -2.5406687144e+02, 1.7000000000e+03, -5.2547620561e+03
    174, -1.0523794390e+02, 1.7000000000e+03, -5.1059331286e+03
    175, 1.0523794390e+02, 1.7000000000e+03, -5.1059331286e+03
    176, 2.5406687144e+02, 1.7000000000e+03, -5.2547620561e+03
    177, -2.7500000000e+02, 1.6469757289e+03, -5.3600000000e+03
    1039, -1.9445523870e+02, 1.6528843427e+03, -5.1655465090e+03
    1040, 3.3911024123e-05, 1.6587500003e+03, -5.0850000000e+03
    1041, 1.9445524680e+02, 1.6528843416e+03, -5.1655465171e+03
    24, -2.7500000000e+02, 1.7000000000e+03, -5.8100000000e+03
    178, -2.7500000000e+02, 1.7000000000e+03, -5.5850000000e+03
    179, -2.7500000000e+02, 1.7000000000e+03, -5.6975000000e+03
    180, -2.7500000000e+02, 1.7000000000e+03, -5.4725000000e+03
    181, -2.7500000000e+02, 1.6469757289e+03, -5.8100000000e+03
    1042, -2.7500000000e+02, 1.6469757289e+03, -5.5850000000e+03
    182, 1.9445436483e+02, 1.7000000000e+03, -6.0044543648e+03
    183, 2.1401404281e-12, 1.7000000000e+03, -6.0850000000e+03
    184, -1.9445436483e+02, 1.7000000000e+03, -6.0044543648e+03
    185, 2.5406687144e+02, 1.7000000000e+03, -5.9152379439e+03
    186, 1.0523794390e+02, 1.7000000000e+03, -6.0640668714e+03
    187, -1.0523794390e+02, 1.7000000000e+03, -6.0640668714e+03
    188, -2.5406687144e+02, 1.7000000000e+03, -5.9152379439e+03
    1043, 1.9445523870e+02, 1.6528843427e+03, -6.0044534910e+03
    1044, -3.3911020722e-05, 1.6587500003e+03, -6.0850000000e+03
    1045, -1.9445524680e+02, 1.6528843416e+03, -6.0044534829e+03
    25, -1.6175000000e+03, -3.7939279160e-28, 1.2825000000e+03
    26, -1.6175000000e+03, -2.5662631323e-28, 8.6750000000e+02
    189, -1.5975858909e+03, 2.5303274720e+02, 1.2825000000e+03
    190, -1.5383339151e+03, 4.9983498840e+02, 1.2825000000e+03
    191, -1.4412030529e+03, 7.3432963333e+02, 1.2825000000e+03
    192, -1.3085849884e+03, 9.5074264558e+02, 1.2825000000e+03
    193, -1.1437452186e+03, 1.1437452186e+03, 1.2825000000e+03
    194, -9.5074264558e+02, 1.3085849884e+03, 1.2825000000e+03
    195, -7.3432963333e+02, 1.4412030529e+03, 1.2825000000e+03
    196, -4.9983498840e+02, 1.5383339151e+03, 1.2825000000e+03
    197, -2.5303274720e+02, 1.5975858909e+03, 1.2825000000e+03
    198, 5.0528495733e-12, 1.6175000000e+03, 1.2825000000e+03
    199, 2.5303274720e+02, 1.5975858909e+03, 1.2825000000e+03
    200, 4.9983498840e+02, 1.5383339151e+03, 1.2825000000e+03
    201, 7.3432963333e+02, 1.4412030529e+03, 1.2825000000e+03
    202, 9.5074264558e+02, 1.3085849884e+03, 1.2825000000e+03
    203, 1.1437452186e+03, 1.1437452186e+03, 1.2825000000e+03
    204, 1.3085849884e+03, 9.5074264558e+02, 1.2825000000e+03
    205, 1.4412030529e+03, 7.3432963333e+02, 1.2825000000e+03
    206, 1.5383339151e+03, 4.9983498840e+02, 1.2825000000e+03
    207, 1.5975858909e+03, 2.5303274720e+02, 1.2825000000e+03
    208, 1.6175000000e+03, -3.3934848649e-12, 1.2825000000e+03
    209, 1.5975858909e+03, -2.5303274720e+02, 1.2825000000e+03
    210, 1.5383339151e+03, -4.9983498840e+02, 1.2825000000e+03
    211, 1.4412030529e+03, -7.3432963333e+02, 1.2825000000e+03
    212, 1.3085849884e+03, -9.5074264558e+02, 1.2825000000e+03
    213, 1.1437452186e+03, -1.1437452186e+03, 1.2825000000e+03
    214, 9.5074264558e+02, -1.3085849884e+03, 1.2825000000e+03
    215, 7.3432963333e+02, -1.4412030529e+03, 1.2825000000e+03
    216, 4.9983498840e+02, -1.5383339151e+03, 1.2825000000e+03
    217, 2.5303274720e+02, -1.5975858909e+03, 1.2825000000e+03
    218, -2.0932773050e-12, -1.6175000000e+03, 1.2825000000e+03
    219, -2.5303274720e+02, -1.5975858909e+03, 1.2825000000e+03
    220, -4.9983498840e+02, -1.5383339151e+03, 1.2825000000e+03
    221, -7.3432963333e+02, -1.4412030529e+03, 1.2825000000e+03
    222, -9.5074264558e+02, -1.3085849884e+03, 1.2825000000e+03
    223, -1.1437452186e+03, -1.1437452186e+03, 1.2825000000e+03
    224, -1.3085849884e+03, -9.5074264558e+02, 1.2825000000e+03
    225, -1.4412030529e+03, -7.3432963333e+02, 1.2825000000e+03
    226, -1.5383339151e+03, -4.9983498840e+02, 1.2825000000e+03
    227, -1.5975858909e+03, -2.5303274720e+02, 1.2825000000e+03
    228, -1.6125137873e+03, 1.2690758734e+02, 1.2825000000e+03
    229, -1.5728083462e+03, 3.7759787604e+02, 1.2825000000e+03
    230, -1.4943751438e+03, 6.1899045185e+02, 1.2825000000e+03
    231, -1.3791454658e+03, 8.4514142843e+02, 1.2825000000e+03
    232, -1.2299566494e+03, 1.0504822182e+03, 1.2825000000e+03
    233, -1.0504822182e+03, 1.2299566494e+03, 1.2825000000e+03
    234, -8.4514142843e+02, 1.3791454658e+03, 1.2825000000e+03
    235, -6.1899045185e+02, 1.4943751438e+03, 1.2825000000e+03
    236, -3.7759787604e+02, 1.5728083462e+03, 1.2825000000e+03
    237, -1.2690758734e+02, 1.6125137873e+03, 1.2825000000e+03
    238, 1.2690758734e+02, 1.6125137873e+03, 1.2825000000e+03
    239, 3.7759787604e+02, 1.5728083462e+03, 1.2825000000e+03
    240, 6.1899045185e+02, 1.4943751438e+03, 1.2825000000e+03
    241, 8.4514142843e+02, 1.3791454658e+03, 1.2825000000e+03
    242, 1.0504822182e+03, 1.2299566494e+03, 1.2825000000e+03
    243, 1.2299566494e+03, 1.0504822182e+03, 1.2825000000e+03
    244, 1.3791454658e+03, 8.4514142843e+02, 1.2825000000e+03
    245, 1.4943751438e+03, 6.1899045185e+02, 1.2825000000e+03
    246, 1.5728083462e+03, 3.7759787604e+02, 1.2825000000e+03
    247, 1.6125137873e+03, 1.2690758734e+02, 1.2825000000e+03
    248, 1.6125137873e+03, -1.2690758734e+02, 1.2825000000e+03
    249, 1.5728083462e+03, -3.7759787604e+02, 1.2825000000e+03
    250, 1.4943751438e+03, -6.1899045185e+02, 1.2825000000e+03
    251, 1.3791454658e+03, -8.4514142843e+02, 1.2825000000e+03
    252, 1.2299566494e+03, -1.0504822182e+03, 1.2825000000e+03
    253, 1.0504822182e+03, -1.2299566494e+03, 1.2825000000e+03
    254, 8.4514142843e+02, -1.3791454658e+03, 1.2825000000e+03
    255, 6.1899045185e+02, -1.4943751438e+03, 1.2825000000e+03
    256, 3.7759787604e+02, -1.5728083462e+03, 1.2825000000e+03
    257, 1.2690758734e+02, -1.6125137873e+03, 1.2825000000e+03
    258, -1.2690758734e+02, -1.6125137873e+03, 1.2825000000e+03
    259, -3.7759787604e+02, -1.5728083462e+03, 1.2825000000e+03
    260, -6.1899045185e+02, -1.4943751438e+03, 1.2825000000e+03
    261, -8.4514142843e+02, -1.3791454658e+03, 1.2825000000e+03
    262, -1.0504822182e+03, -1.2299566494e+03, 1.2825000000e+03
    263, -1.2299566494e+03, -1.0504822182e+03, 1.2825000000e+03
    264, -1.3791454658e+03, -8.4514142843e+02, 1.2825000000e+03
    265, -1.4943751438e+03, -6.1899045185e+02, 1.2825000000e+03
    266, -1.5728083462e+03, -3.7759787604e+02, 1.2825000000e+03
    267, -1.6125137873e+03, -1.2690758734e+02, 1.2825000000e+03
    268, -1.6175000000e+03, -3.1800955242e-28, 1.0750000000e+03
    269, -1.6175000000e+03, -3.4870117201e-28, 1.1787500000e+03
    270, -1.6175000000e+03, -2.8731793282e-28, 9.7125000000e+02
    271, -1.5975858909e+03, 2.5303274720e+02, 8.6750000000e+02
    272, -1.5383339151e+03, 4.9983498840e+02, 8.6750000000e+02
    273, -1.4412030529e+03, 7.3432963333e+02, 8.6750000000e+02
    274, -1.3085849884e+03, 9.5074264558e+02, 8.6750000000e+02
    275, -1.1437452186e+03, 1.1437452186e+03, 8.6750000000e+02
    276, -9.5074264558e+02, 1.3085849884e+03, 8.6750000000e+02
    277, -7.3432963333e+02, 1.4412030529e+03, 8.6750000000e+02
    278, -4.9983498840e+02, 1.5383339151e+03, 8.6750000000e+02
    279, -2.5303274720e+02, 1.5975858909e+03, 8.6750000000e+02
    280, 5.3984154445e-12, 1.6175000000e+03, 8.6750000000e+02
    281, 2.5303274720e+02, 1.5975858909e+03, 8.6750000000e+02
    282, 4.9983498840e+02, 1.5383339151e+03, 8.6750000000e+02
    283, 7.3432963333e+02, 1.4412030529e+03, 8.6750000000e+02
    284, 9.5074264558e+02, 1.3085849884e+03, 8.6750000000e+02
    285, 1.1437452186e+03, 1.1437452186e+03, 8.6750000000e+02
    286, 1.3085849884e+03, 9.5074264558e+02, 8.6750000000e+02
    287, 1.4412030529e+03, 7.3432963333e+02, 8.6750000000e+02
    288, 1.5383339151e+03, 4.9983498840e+02, 8.6750000000e+02
    289, 1.5975858909e+03, 2.5303274720e+02, 8.6750000000e+02
    290, 1.6175000000e+03, -3.3934848649e-12, 8.6750000000e+02
    291, 1.5975858909e+03, -2.5303274720e+02, 8.6750000000e+02
    292, 1.5383339151e+03, -4.9983498840e+02, 8.6750000000e+02
    293, 1.4412030529e+03, -7.3432963333e+02, 8.6750000000e+02
    294, 1.3085849884e+03, -9.5074264558e+02, 8.6750000000e+02
    295, 1.1437452186e+03, -1.1437452186e+03, 8.6750000000e+02
    296, 9.5074264558e+02, -1.3085849884e+03, 8.6750000000e+02
    297, 7.3432963333e+02, -1.4412030529e+03, 8.6750000000e+02
    298, 4.9983498840e+02, -1.5383339151e+03, 8.6750000000e+02
    299, 2.5303274720e+02, -1.5975858909e+03, 8.6750000000e+02
    300, -1.7477114338e-12, -1.6175000000e+03, 8.6750000000e+02
    301, -2.5303274720e+02, -1.5975858909e+03, 8.6750000000e+02
    302, -4.9983498840e+02, -1.5383339151e+03, 8.6750000000e+02
    303, -7.3432963333e+02, -1.4412030529e+03, 8.6750000000e+02
    304, -9.5074264558e+02, -1.3085849884e+03, 8.6750000000e+02
    305, -1.1437452186e+03, -1.1437452186e+03, 8.6750000000e+02
    306, -1.3085849884e+03, -9.5074264558e+02, 8.6750000000e+02
    307, -1.4412030529e+03, -7.3432963333e+02, 8.6750000000e+02
    308, -1.5383339151e+03, -4.9983498840e+02, 8.6750000000e+02
    309, -1.5975858909e+03, -2.5303274720e+02, 8.6750000000e+02
    310, -1.6125137873e+03, 1.2690758734e+02, 8.6750000000e+02
    311, -1.5728083462e+03, 3.7759787604e+02, 8.6750000000e+02
    312, -1.4943751438e+03, 6.1899045185e+02, 8.6750000000e+02
    313, -1.3791454658e+03, 8.4514142843e+02, 8.6750000000e+02
    314, -1.2299566494e+03, 1.0504822182e+03, 8.6750000000e+02
    315, -1.0504822182e+03, 1.2299566494e+03, 8.6750000000e+02
    316, -8.4514142843e+02, 1.3791454658e+03, 8.6750000000e+02
    317, -6.1899045185e+02, 1.4943751438e+03, 8.6750000000e+02
    318, -3.7759787604e+02, 1.5728083462e+03, 8.6750000000e+02
    319, -1.2690758734e+02, 1.6125137873e+03, 8.6750000000e+02
    320, 1.2690758734e+02, 1.6125137873e+03, 8.6750000000e+02
    321, 3.7759787604e+02, 1.5728083462e+03, 8.6750000000e+02
    322, 6.1899045185e+02, 1.4943751438e+03, 8.6750000000e+02
    323, 8.4514142843e+02, 1.3791454658e+03, 8.6750000000e+02
    324, 1.0504822182e+03, 1.2299566494e+03, 8.6750000000e+02
    325, 1.2299566494e+03, 1.0504822182e+03, 8.6750000000e+02
    326, 1.3791454658e+03, 8.4514142843e+02, 8.6750000000e+02
    327, 1.4943751438e+03, 6.1899045185e+02, 8.6750000000e+02
    328, 1.5728083462e+03, 3.7759787604e+02, 8.6750000000e+02
    329, 1.6125137873e+03, 1.2690758734e+02, 8.6750000000e+02
    330, 1.6125137873e+03, -1.2690758734e+02, 8.6750000000e+02
    331, 1.5728083462e+03, -3.7759787604e+02, 8.6750000000e+02
    332, 1.4943751438e+03, -6.1899045185e+02, 8.6750000000e+02
    333, 1.3791454658e+03, -8.4514142843e+02, 8.6750000000e+02
    334, 1.2299566494e+03, -1.0504822182e+03, 8.6750000000e+02
    335, 1.0504822182e+03, -1.2299566494e+03, 8.6750000000e+02
    336, 8.4514142843e+02, -1.3791454658e+03, 8.6750000000e+02
    337, 6.1899045185e+02, -1.4943751438e+03, 8.6750000000e+02
    338, 3.7759787604e+02, -1.5728083462e+03, 8.6750000000e+02
    339, 1.2690758734e+02, -1.6125137873e+03, 8.6750000000e+02
    340, -1.2690758734e+02, -1.6125137873e+03, 8.6750000000e+02
    341, -3.7759787604e+02, -1.5728083462e+03, 8.6750000000e+02
    342, -6.1899045185e+02, -1.4943751438e+03, 8.6750000000e+02
    343, -8.4514142843e+02, -1.3791454658e+03, 8.6750000000e+02
    344, -1.0504822182e+03, -1.2299566494e+03, 8.6750000000e+02
    345, -1.2299566494e+03, -1.0504822182e+03, 8.6750000000e+02
    346, -1.3791454658e+03, -8.4514142843e+02, 8.6750000000e+02
    347, -1.4943751438e+03, -6.1899045185e+02, 8.6750000000e+02
    348, -1.5728083462e+03, -3.7759787604e+02, 8.6750000000e+02
    349, -1.6125137873e+03, -1.2690758734e+02, 8.6750000000e+02
    1046, -1.6103304203e+03, -1.5212556433e+02, 1.0542500000e+03
    1047, -1.6103304203e+03, 1.5212556433e+02, 1.0542500000e+03
    1048, -1.5717028609e+03, -3.8217321618e+02, 1.0704182420e+03
    1049, -1.5008165262e+03, -6.0320477830e+02, 1.0744973449e+03
    1050, -1.4290780391e+03, -7.5765573189e+02, 1.0749198576e+03
    1051, -1.3011448880e+03, -9.6089969836e+02, 1.0749875007e+03
    1052, -1.1363654185e+03, -1.1510777062e+03, 1.0749980877e+03
    1053, -9.4258425462e+02, -1.3144737247e+03, 1.0749997123e+03
    1054, -7.2539724544e+02, -1.4457195739e+03, 1.0749999573e+03
    1055, -4.9031354226e+02, -1.5413951084e+03, 1.0749999937e+03
    1056, -2.4315080604e+02, -1.5991197377e+03, 1.0749999991e+03
    1057, 1.0000053145e+01, -1.6174690875e+03, 1.0749999999e+03
    1058, 2.6290482279e+02, -1.5959910100e+03, 1.0750000000e+03
    1059, 5.0933602464e+02, -1.5352143381e+03, 1.0750000000e+03
    1060, 7.4322568624e+02, -1.4366355938e+03, 1.0750000000e+03
    1061, 9.5881466524e+02, -1.3026821131e+03, 1.0750000000e+03
    1062, 1.1507944451e+03, -1.1366522754e+03, 1.0750000000e+03
    1063, 1.3144378465e+03, -9.4263428629e+02, 1.0750000000e+03
    1064, 1.4457154257e+03, -7.2540551267e+02, 1.0750000000e+03
    1065, 1.5413946931e+03, -4.9031484784e+02, 1.0750000000e+03
    1066, 1.5991197076e+03, -2.4315100420e+02, 1.0750000000e+03
    1067, 1.6174690877e+03, 1.0000024135e+01, 1.0750000000e+03
    1068, 1.5959910107e+03, 2.6290481869e+02, 1.0750000000e+03
    1069, 1.5352143383e+03, 5.0933602408e+02, 1.0750000000e+03
    1070, 1.4366355938e+03, 7.4322568616e+02, 1.0750000000e+03
    1071, 1.3026821131e+03, 9.5881466523e+02, 1.0750000000e+03
    1072, 1.1366522754e+03, 1.1507944451e+03, 1.0750000000e+03
    1073, 9.4263428629e+02, 1.3144378465e+03, 1.0750000000e+03
    1074, 7.2540551267e+02, 1.4457154257e+03, 1.0750000000e+03
    1075, 4.9031484784e+02, 1.5413946931e+03, 1.0750000000e+03
    1076, 2.4315100420e+02, 1.5991197076e+03, 1.0750000000e+03
    1077, -1.0000024135e+01, 1.6174690877e+03, 1.0750000000e+03
    1078, -2.6290481869e+02, 1.5959910107e+03, 1.0750000000e+03
    1079, -5.0933602408e+02, 1.5352143383e+03, 1.0750000000e+03
    1080, -7.4322568616e+02, 1.4366355938e+03, 1.0750000000e+03
    1081, -9.5881466523e+02, 1.3026821131e+03, 1.0750000000e+03
    1082, -1.1507944451e+03, 1.1366522754e+03, 1.0750000000e+03
    1083, -1.3144090344e+03, 9.4267446143e+02, 1.0749594727e+03
    1084, -1.4459524321e+03, 7.2493297208e+02, 1.0745035400e+03
    1085, -1.5447327658e+03, 4.7969462398e+02, 1.0715235138e+03
    1086, -1.6047514854e+03, -2.0267935294e+02, 9.6087500000e+02
    1087, -1.6157066109e+03, -7.6147209725e+01, 1.0646250000e+03
    1088, -1.6047514854e+03, -2.0267935294e+02, 1.1683750000e+03
    1089, -1.6157066109e+03, 7.6147209725e+01, 1.0646250000e+03
    1090, -1.6047514854e+03, 2.0267935294e+02, 9.6087500000e+02
    1091, -1.6047514854e+03, 2.0267935294e+02, 1.1683750000e+03
    1092, -1.5204539387e+03, -5.5183880830e+02, 9.7099867244e+02
    1093, -1.5204539387e+03, -5.5183880830e+02, 1.1784986724e+03
    1094, -1.5561308621e+03, -4.4131960060e+02, 1.1764591210e+03
    1095, -1.5561308621e+03, -4.4131960060e+02, 9.6895912101e+02
    1096, -1.5415662322e+03, 4.8977525632e+02, 1.1770117569e+03
    1097, -1.4435853882e+03, 7.2963516708e+02, 1.1785017700e+03
    1098, -1.5003616065e+03, 6.0433542001e+02, 1.0730135269e+03
    1099, -1.4435853882e+03, 7.2963516708e+02, 9.7100177002e+02
    1100, -1.5415662322e+03, 4.8977525632e+02, 9.6951175690e+02
    1101, -1.3115032157e+03, 9.4671303211e+02, 1.1787297363e+03
    1102, -1.3844680190e+03, 8.3639377954e+02, 1.0747315063e+03
    1103, -1.3115032157e+03, 9.4671303211e+02, 9.7122973633e+02
    1104, -1.1472753133e+03, 1.1402041946e+03, 1.1787500000e+03
    1105, -1.2364117020e+03, 1.0428769597e+03, 1.0749797363e+03
    1106, -1.1472753133e+03, 1.1402041946e+03, 9.7125000000e+02
    1107, -9.5478321718e+02, 1.3056397888e+03, 1.1787500000e+03
    1108, -1.0580662202e+03, 1.2234386473e+03, 1.0750000000e+03
    1109, -9.5478321718e+02, 1.3056397888e+03, 9.7125000000e+02
    1110, -7.3878118950e+02, 1.4389261983e+03, 1.1787500000e+03
    1111, -8.5365169899e+02, 1.3738941105e+03, 1.0750000000e+03
    1112, -7.3878118950e+02, 1.4389261983e+03, 9.7125000000e+02
    1113, -5.0458791706e+02, 1.5367814692e+03, 1.1787500000e+03
    1114, -2.5797001548e+02, 1.5967960800e+03, 1.1787500000e+03
    1115, -3.8731438237e+02, 1.5704438287e+03, 1.0750000000e+03
    1116, -2.5797001548e+02, 1.5967960800e+03, 9.7125000000e+02
    1117, -5.0458791706e+02, 1.5367814692e+03, 9.7125000000e+02
    1118, -6.2821743983e+02, 1.4905197410e+03, 1.0750000000e+03
    1119, -5.0000359569e+00, 1.6174922719e+03, 1.1787500000e+03
    1120, -1.3687435938e+02, 1.6116983774e+03, 1.0750000000e+03
    1121, -5.0000359569e+00, 1.6174922719e+03, 9.7125000000e+02
    1122, 2.4809306104e+02, 1.5983604359e+03, 1.1787500000e+03
    1123, 1.1693596459e+02, 1.6132675631e+03, 1.0750000000e+03
    1124, 2.4809306104e+02, 1.5983604359e+03, 9.7125000000e+02
    1125, 4.9507728351e+02, 1.5398716613e+03, 1.1787500000e+03
    1126, 7.2987106018e+02, 1.4434661359e+03, 1.1787500000e+03
    1127, 6.0973980458e+02, 1.4981734281e+03, 1.0750000000e+03
    1128, 7.2987106018e+02, 1.4434661359e+03, 9.7125000000e+02
    1129, 4.9507728351e+02, 1.5398716613e+03, 9.7125000000e+02
    1130, 3.6786693702e+02, 1.5751127473e+03, 1.0750000000e+03
    1131, 9.4669298906e+02, 1.3115176836e+03, 1.1787500000e+03
    1132, 8.3659885455e+02, 1.3843441070e+03, 1.0750000000e+03
    1133, 9.4669298906e+02, 1.3115176836e+03, 9.7125000000e+02
    1134, 1.0428580642e+03, 1.2364276396e+03, 1.0750000000e+03
    1135, 1.1402041946e+03, 1.1472753133e+03, 9.7125000000e+02
    1136, 1.1402041946e+03, 1.1472753133e+03, 1.1787500000e+03
    1137, 1.3738941105e+03, 8.5365169899e+02, 1.0750000000e+03
    1138, 1.4389261983e+03, 7.3878118950e+02, 9.7125000000e+02
    1139, 1.3056397888e+03, 9.5478321718e+02, 9.7125000000e+02
    1140, 1.3056397888e+03, 9.5478321718e+02, 1.1787500000e+03
    1141, 1.4389261983e+03, 7.3878118950e+02, 1.1787500000e+03
    1142, 1.2234386473e+03, 1.0580662202e+03, 1.0750000000e+03
    1143, 1.5704438287e+03, 3.8731438237e+02, 1.0750000000e+03
    1144, 1.5967960800e+03, 2.5797001548e+02, 9.7125000000e+02
    1145, 1.5367814692e+03, 5.0458791706e+02, 9.7125000000e+02
    1146, 1.5367814692e+03, 5.0458791706e+02, 1.1787500000e+03
    1147, 1.5967960800e+03, 2.5797001548e+02, 1.1787500000e+03
    1148, 1.4905197410e+03, 6.2821743983e+02, 1.0750000000e+03
    1149, 1.6174922719e+03, 5.0000359569e+00, 1.1787500000e+03
    1150, 1.6116983774e+03, 1.3687435938e+02, 1.0750000000e+03
    1151, 1.6174922719e+03, 5.0000359569e+00, 9.7125000000e+02
    1152, 1.5983604359e+03, -2.4809306104e+02, 1.1787500000e+03
    1153, 1.6132675631e+03, -1.1693596459e+02, 1.0750000000e+03
    1154, 1.5983604359e+03, -2.4809306104e+02, 9.7125000000e+02
    1155, 1.5398716613e+03, -4.9507728351e+02, 1.1787500000e+03
    1156, 1.5751127473e+03, -3.6786693702e+02, 1.0750000000e+03
    1157, 1.5398716613e+03, -4.9507728351e+02, 9.7125000000e+02
    1158, 1.4981734281e+03, -6.0973980458e+02, 1.0750000000e+03
    1159, 1.4434661359e+03, -7.2987106018e+02, 9.7125000000e+02
    1160, 1.4434661359e+03, -7.2987106018e+02, 1.1787500000e+03
    1161, 1.3115176836e+03, -9.4669298906e+02, 1.1787500000e+03
    1162, 1.1472753133e+03, -1.1402041946e+03, 1.1787500000e+03
    1163, 1.2364276396e+03, -1.0428580642e+03, 1.0750000000e+03
    1164, 1.1472753133e+03, -1.1402041946e+03, 9.7125000000e+02
    1165, 1.3115176836e+03, -9.4669298906e+02, 9.7125000000e+02
    1166, 1.3843441070e+03, -8.3659885455e+02, 1.0750000000e+03
    1167, 9.5478321718e+02, -1.3056397888e+03, 1.1787500000e+03
    1168, 1.0580662202e+03, -1.2234386473e+03, 1.0750000000e+03
    1169, 9.5478321718e+02, -1.3056397888e+03, 9.7125000000e+02
    1170, 7.3878118954e+02, -1.4389261982e+03, 1.1787500000e+03
    1171, 8.5365169903e+02, -1.3738941105e+03, 1.0750000000e+03
    1172, 7.3878118954e+02, -1.4389261982e+03, 9.7125000000e+02
    1173, 5.0458791735e+02, -1.5367814691e+03, 1.1787500000e+03
    1174, 6.2821744014e+02, -1.4905197409e+03, 1.0750000000e+03
    1175, 5.0458791735e+02, -1.5367814691e+03, 9.7125000000e+02
    1176, 2.5797001753e+02, -1.5967960797e+03, 1.1787500000e+03
    1177, 5.0000504619e+00, -1.6174922719e+03, 1.1787499999e+03
    1178, 1.3687437591e+02, -1.6116983760e+03, 1.0749999999e+03
    1179, 5.0000504619e+00, -1.6174922719e+03, 9.7124999994e+02
    1180, 2.5797001753e+02, -1.5967960797e+03, 9.7124999999e+02
    1181, 3.8731438467e+02, -1.5704438282e+03, 1.0750000000e+03
    1182, -2.4809296201e+02, -1.5983604513e+03, 1.1787499995e+03
    1183, -1.1693585016e+02, -1.6132675714e+03, 1.0749999995e+03
    1184, -2.4809296201e+02, -1.5983604513e+03, 9.7124999955e+02
    1185, -4.9507663136e+02, -1.5398718710e+03, 1.1787499969e+03
    1186, -7.2986693300e+02, -1.4434682228e+03, 1.1787499787e+03
    1187, -6.0973488650e+02, -1.4981754297e+03, 1.0749999755e+03
    1188, -7.2986693300e+02, -1.4434682228e+03, 9.7124997866e+02
    1189, -4.9507663136e+02, -1.5398718710e+03, 9.7124999687e+02
    1190, -3.6786617235e+02, -1.5751129259e+03, 1.0749999964e+03
    1191, -9.4666802896e+02, -1.3115357002e+03, 1.1787498561e+03
    1192, -8.3656855031e+02, -1.3843624203e+03, 1.0749998348e+03
    1193, -9.4666802896e+02, -1.3115357002e+03, 9.7124985613e+02
    1194, -1.1400612135e+03, -1.1474173954e+03, 1.1787490438e+03
    1195, -1.0426804403e+03, -1.2365774337e+03, 1.0749989000e+03
    1196, -1.1400612135e+03, -1.1474173954e+03, 9.7124904384e+02
    1197, -1.3048748210e+03, -9.5582841115e+02, 1.1787437503e+03
    1198, -1.2224590146e+03, -1.0591979077e+03, 1.0749927942e+03
    1199, -1.3048748210e+03, -9.5582841115e+02, 9.7124375033e+02
    1200, -1.4351879366e+03, -7.4601731649e+02, 1.1787099288e+03
    1201, -1.3688887228e+03, -8.6165533393e+02, 1.0749536791e+03
    1202, -1.4351879366e+03, -7.4601731649e+02, 9.7120992880e+02
    1203, -1.4669813616e+03, -6.8137503233e+02, 1.0747086012e+03
    1204, -1.5951690917e+03, -2.6784663299e+02, 1.0623341210e+03
    1205, -1.5860111284e+03, 3.1760817159e+02, 1.0628867569e+03
    27, -1.5400000000e+03, -9.4166206486e-14, -4.5000000000e+01
    28, -1.6175000000e+03, -8.9061676481e-14, -4.5000000000e+01
    350, -1.5400000000e+03, 2.3334523779e+02, 5.1654762208e+01
    351, -1.5400000000e+03, 3.3000000000e+02, 2.8500000000e+02
    352, -1.5400000000e+03, 2.3334523779e+02, 5.1834523779e+02
    353, -1.5400000000e+03, 2.2910381659e-12, 6.1500000000e+02
    354, -1.5400000000e+03, -2.3334523779e+02, 5.1834523779e+02
    355, -1.5400000000e+03, -3.3000000000e+02, 2.8500000000e+02
    356, -1.5400000000e+03, -2.3334523779e+02, 5.1654762208e+01
    357, -1.5400000000e+03, 1.2628553268e+02, -1.9880245729e+01
    358, -1.5400000000e+03, 3.0488024573e+02, 1.5871446732e+02
    359, -1.5400000000e+03, 3.0488024573e+02, 4.1128553268e+02
    360, -1.5400000000e+03, 1.2628553268e+02, 5.8988024573e+02
    361, -1.5400000000e+03, -1.2628553268e+02, 5.8988024573e+02
    362, -1.5400000000e+03, -3.0488024573e+02, 4.1128553268e+02
    363, -1.5400000000e+03, -3.0488024573e+02, 1.5871446732e+02
    364, -1.5400000000e+03, -1.2628553268e+02, -1.9880245729e+01
    365, -1.5787500000e+03, -1.7727489544e-13, -4.5000000000e+01
    366, -1.5981250000e+03, -1.7841589555e-13, -4.5000000000e+01
    367, -1.5593750000e+03, -1.7613389534e-13, -4.5000000000e+01
    368, -1.6005793418e+03, -2.3334956950e+02, 5.1659091961e+01
    369, -1.5834791590e+03, -3.3000000151e+02, 2.8499997730e+02
    370, -1.6005793372e+03, -2.3334960106e+02, 5.1834087956e+02
    371, -1.6174999987e+03, -5.0309210030e-05, 6.1499999347e+02
    372, -1.6005793364e+03, 2.3334960752e+02, 5.1834087699e+02
    373, -1.5834791557e+03, 3.3000002440e+02, 2.8499995418e+02
    374, -1.6005793358e+03, 2.3334960194e+02, 5.1659145199e+01
    375, -1.6125466217e+03, -1.2648969382e+02, -1.9795597898e+01
    376, -1.5885228084e+03, -3.0479753456e+02, 1.5851497005e+02
    377, -1.5885227495e+03, -3.0479783604e+02, 4.1148425854e+02
    378, -1.6125467230e+03, -1.2648840149e+02, 5.8979613457e+02
    379, -1.6125467467e+03, 1.2648812588e+02, 5.8979626886e+02
    380, -1.5885228381e+03, 3.0479737299e+02, 4.1148533246e+02
    381, -1.5885228869e+03, 3.0479712571e+02, 1.5851399695e+02
    382, -1.6125465771e+03, 1.2649031459e+02, -1.9795363593e+01
    1206, -1.5778103788e+03, -9.6210458316e+01, -3.0663662322e+01
    1207, -1.5741428039e+03, 1.1261659389e+02, -2.5189462716e+01
    1208, -1.5702896686e+03, -1.2628838217e+02, 5.8987906542e+02
    1209, -1.5702896686e+03, -2.3334741816e+02, 5.1834305740e+02
    1210, -1.5617395795e+03, -3.0488025019e+02, 4.1128552191e+02
    1211, -1.5702896682e+03, 1.2628838564e+02, 5.8987906398e+02
    1212, -1.5702896682e+03, 2.3334742041e+02, 5.1834305515e+02
    1213, -1.5617395778e+03, 3.0488025643e+02, 4.1128550684e+02
    1214, -1.5787499994e+03, -2.5154604149e-05, 6.1500000000e+02
    1215, -1.5617395778e+03, 3.0488023889e+02, 1.5871445082e+02
    1216, -1.5617395778e+03, 3.3000000000e+02, 2.8499997709e+02
    1217, -1.5702896679e+03, 2.3334742457e+02, 5.1656949003e+01
    1218, -1.5873610699e+03, 1.7719926670e+02, 6.6110277341e+00
    1219, -1.5570714019e+03, 1.7719665903e+02, 6.6093679230e+00
    1220, -1.5617395795e+03, -3.0488024151e+02, 1.5871445712e+02
    1221, -1.5617395795e+03, -3.3000000000e+02, 2.8499998865e+02
    1222, -1.5702896709e+03, -2.3334740315e+02, 5.1656927584e+01
    1223, -1.5589051894e+03, -1.6984057219e+02, 2.0615260582e+00
    1224, -1.5891948603e+03, -1.6984319792e+02, 2.0631022268e+00
    1225, -1.5782801894e+03, -4.8636362085e+01, -4.1396238157e+01
    1226, -1.5764464019e+03, 5.7172883887e+01, -4.0009632700e+01
    29, -1.6600000000e+03, -1.3544552486e-12, -4.5000000000e+01
    30, -1.6600000000e+03, 3.2899051655e+02, 2.5920775270e+02
    383, -1.6387500000e+03, -1.3532038291e-12, -4.5000000000e+01
    384, -1.6493750000e+03, -1.3538295389e-12, -4.5000000000e+01
    385, -1.6281250000e+03, -1.3525781194e-12, -4.5000000000e+01
    386, -1.6600000000e+03, 2.2404079806e+02, 4.2707365352e+01
    387, -1.6600000000e+03, 2.9694951282e+02, 1.4105213848e+02
    388, -1.6600000000e+03, 1.2029844256e+02, -2.2291855924e+01
    389, -1.6600000000e+03, -2.3636806236e+02, 5.4717262704e+01
    390, -1.6600000000e+03, -3.2988778430e+02, 2.9360521760e+02
    391, -1.6600000000e+03, -2.2404079806e+02, 5.2729263465e+02
    392, -1.6600000000e+03, 1.7204582826e+01, 6.1455121352e+02
    393, -1.6600000000e+03, 2.4805242489e+02, 5.0264648976e+02
    394, -1.6600000000e+03, -1.2827060593e+02, -1.9050409725e+01
    395, -1.6600000000e+03, -3.0729185592e+02, 1.6470155744e+02
    396, -1.6600000000e+03, -3.0060218032e+02, 4.2115553308e+02
    397, -1.6600000000e+03, -1.1224446481e+02, 5.9532431442e+02
    398, -1.6600000000e+03, 1.4394786152e+02, 5.8194951282e+02
    399, -1.6600000000e+03, 3.1314572285e+02, 3.8911415013e+02
    1227, -1.6516873801e+03, -1.0895391599e+02, -2.6494854196e+01
    1228, -1.6461215266e+03, 9.7954810464e+01, -3.0126728646e+01
    1229, -1.6387499994e+03, -1.2029846718e+02, 5.9229184629e+02
    1230, -1.6387499994e+03, 8.6051925356e+00, 6.1488778495e+02
    1231, -1.6302896682e+03, 1.3419559509e+02, 5.8648224203e+02
    1232, -1.6558436900e+03, -1.7737155681e+02, 6.7207682303e+00
    1233, -1.6558436900e+03, -5.5257117711e+01, -4.0340822742e+01
    1234, -1.6452186900e+03, -5.5257117711e+01, -4.0340822742e+01
    1235, -1.6302896679e+03, 2.9970938017e+02, 1.4689030649e+02
    1236, -1.6217395778e+03, 3.2974753168e+02, 2.7209398016e+02
    1237, -1.6217395778e+03, 3.0883435057e+02, 4.0128131366e+02
    1238, -1.6217395795e+03, -3.0569711766e+02, 1.6070489851e+02
    1239, -1.6217395795e+03, -3.2997194503e+02, 2.8930296326e+02
    1240, -1.6302896686e+03, -3.0320886584e+02, 4.1524739412e+02
    1241, -1.6302896709e+03, -2.3486379304e+02, 5.3183264797e+01
    1242, -1.6261333609e+03, -1.7555605596e+02, 5.5718854239e+00
    1243, -1.6302896679e+03, 2.2873900007e+02, 4.7137708229e+01
    1244, -1.6530607633e+03, 1.6506512136e+02, -7.5077552080e-01
    1245, -1.6233504312e+03, 1.7062498762e+02, 2.5338717675e+00
    1246, -1.6302896686e+03, -2.2873899366e+02, 5.2286229794e+02
    1247, -1.6302896682e+03, 2.4082889465e+02, 5.1061348254e+02
    1248, -1.6424357633e+03, 4.9538770407e+01, -4.1260494431e+01
    31, -1.6175000000e+03, -3.7939279160e-28, 8.6750000000e+02
    32, 6.2293643285e-12, -1.6175000000e+03, 8.6750000000e+02
    33, 6.2293643285e-12, -1.6175000000e+03, -7.3850000000e+03
    34, 2.7500000000e+02, 1.5939514579e+03, -4.1000000000e+02
    35, 2.7500000000e+02, 1.5939514579e+03, 4.0000000000e+01
    36, -2.7500000000e+02, 1.5939514579e+03, 4.0000000000e+01
    37, -2.7500000000e+02, 1.5939514579e+03, -4.1000000000e+02
    38, -1.6175000000e+03, 9.0594198809e-13, -4.5000000000e+01
    39, 2.7500000000e+02, 1.5939514579e+03, -5.8100000000e+03
    40, 2.7500000000e+02, 1.5939514579e+03, -5.3600000000e+03
    41, -2.7500000000e+02, 1.5939514579e+03, -5.3600000000e+03
    42, -2.7500000000e+02, 1.5939514579e+03, -5.8100000000e+03
    43, 1.6175000000e+03, 8.9528384706e-13, -2.7050000000e+03
    400, -1.5975858909e+03, 2.5303274720e+02, 8.6750000000e+02
    401, -1.5383339151e+03, 4.9983498840e+02, 8.6750000000e+02
    402, -1.4412030529e+03, 7.3432963333e+02, 8.6750000000e+02
    403, -1.3085849884e+03, 9.5074264558e+02, 8.6750000000e+02
    404, -1.1437452186e+03, 1.1437452186e+03, 8.6750000000e+02
    405, -9.5074264558e+02, 1.3085849884e+03, 8.6750000000e+02
    406, -7.3432963333e+02, 1.4412030529e+03, 8.6750000000e+02
    407, -4.9983498840e+02, 1.5383339151e+03, 8.6750000000e+02
    408, -2.5303274720e+02, 1.5975858909e+03, 8.6750000000e+02
    409, 8.2852639094e-12, 1.6175000000e+03, 8.6750000000e+02
    410, 2.5303274720e+02, 1.5975858909e+03, 8.6750000000e+02
    411, 4.9983498840e+02, 1.5383339151e+03, 8.6750000000e+02
    412, 7.3432963333e+02, 1.4412030529e+03, 8.6750000000e+02
    413, 9.5074264558e+02, 1.3085849884e+03, 8.6750000000e+02
    414, 1.1437452186e+03, 1.1437452186e+03, 8.6750000000e+02
    415, 1.3085849884e+03, 9.5074264558e+02, 8.6750000000e+02
    416, 1.4412030529e+03, 7.3432963333e+02, 8.6750000000e+02
    417, 1.5383339151e+03, 4.9983498840e+02, 8.6750000000e+02
    418, 1.5975858909e+03, 2.5303274720e+02, 8.6750000000e+02
    419, 1.6175000000e+03, -2.6751705680e-12, 8.6750000000e+02
    420, 1.5975858909e+03, -2.5303274720e+02, 8.6750000000e+02
    421, 1.5383339151e+03, -4.9983498840e+02, 8.6750000000e+02
    422, 1.4412030529e+03, -7.3432963333e+02, 8.6750000000e+02
    423, 1.3085849884e+03, -9.5074264558e+02, 8.6750000000e+02
    424, 1.1437452186e+03, -1.1437452186e+03, 8.6750000000e+02
    425, 9.5074264558e+02, -1.3085849884e+03, 8.6750000000e+02
    426, 7.3432963333e+02, -1.4412030529e+03, 8.6750000000e+02
    427, 4.9983498840e+02, -1.5383339151e+03, 8.6750000000e+02
    428, 2.5303274720e+02, -1.5975858909e+03, 8.6750000000e+02
    429, -1.6125137873e+03, 1.2690758734e+02, 8.6750000000e+02
    430, -1.5728083462e+03, 3.7759787604e+02, 8.6750000000e+02
    431, -1.4943751438e+03, 6.1899045185e+02, 8.6750000000e+02
    432, -1.3791454658e+03, 8.4514142843e+02, 8.6750000000e+02
    433, -1.2299566494e+03, 1.0504822182e+03, 8.6750000000e+02
    434, -1.0504822182e+03, 1.2299566494e+03, 8.6750000000e+02
    435, -8.4514142843e+02, 1.3791454658e+03, 8.6750000000e+02
    436, -6.1899045185e+02, 1.4943751438e+03, 8.6750000000e+02
    437, -3.7759787604e+02, 1.5728083462e+03, 8.6750000000e+02
    438, -1.2690758734e+02, 1.6125137873e+03, 8.6750000000e+02
    439, 1.2690758734e+02, 1.6125137873e+03, 8.6750000000e+02
    440, 3.7759787604e+02, 1.5728083462e+03, 8.6750000000e+02
    441, 6.1899045185e+02, 1.4943751438e+03, 8.6750000000e+02
    442, 8.4514142843e+02, 1.3791454658e+03, 8.6750000000e+02
    443, 1.0504822182e+03, 1.2299566494e+03, 8.6750000000e+02
    444, 1.2299566494e+03, 1.0504822182e+03, 8.6750000000e+02
    445, 1.3791454658e+03, 8.4514142843e+02, 8.6750000000e+02
    446, 1.4943751438e+03, 6.1899045185e+02, 8.6750000000e+02
    447, 1.5728083462e+03, 3.7759787604e+02, 8.6750000000e+02
    448, 1.6125137873e+03, 1.2690758734e+02, 8.6750000000e+02
    449, 1.6125137873e+03, -1.2690758734e+02, 8.6750000000e+02
    450, 1.5728083462e+03, -3.7759787604e+02, 8.6750000000e+02
    451, 1.4943751438e+03, -6.1899045185e+02, 8.6750000000e+02
    452, 1.3791454658e+03, -8.4514142843e+02, 8.6750000000e+02
    453, 1.2299566494e+03, -1.0504822182e+03, 8.6750000000e+02
    454, 1.0504822182e+03, -1.2299566494e+03, 8.6750000000e+02
    455, 8.4514142843e+02, -1.3791454658e+03, 8.6750000000e+02
    456, 6.1899045185e+02, -1.4943751438e+03, 8.6750000000e+02
    457, 3.7759787604e+02, -1.5728083462e+03, 8.6750000000e+02
    458, 1.2690758734e+02, -1.6125137873e+03, 8.6750000000e+02
    459, 5.8331910890e-12, -1.6175000000e+03, -7.1271093750e+03
    460, 5.8331910890e-12, -1.6175000000e+03, -6.8692187500e+03
    461, 5.8331910890e-12, -1.6175000000e+03, -6.6113281250e+03
    462, 5.8331910890e-12, -1.6175000000e+03, -6.3534375000e+03
    463, 5.8331910890e-12, -1.6175000000e+03, -6.0955468750e+03
    464, 5.8331910890e-12, -1.6175000000e+03, -5.8376562500e+03
    465, 5.8331910890e-12, -1.6175000000e+03, -5.5797656250e+03
    466, 5.8331910890e-12, -1.6175000000e+03, -5.3218750000e+03
    467, 5.8331910890e-12, -1.6175000000e+03, -5.0639843750e+03
    468, 5.8331910890e-12, -1.6175000000e+03, -4.8060937500e+03
    469, 5.8331910890e-12, -1.6175000000e+03, -4.5482031250e+03
    470, 5.8331910890e-12, -1.6175000000e+03, -4.2903125000e+03
    471, 5.8331910890e-12, -1.6175000000e+03, -4.0324218750e+03
    472, 5.8331910890e-12, -1.6175000000e+03, -3.7745312500e+03
    473, 5.8331910890e-12, -1.6175000000e+03, -3.5166406250e+03
    474, 5.8331910890e-12, -1.6175000000e+03, -3.2587500000e+03
    475, 5.8331910890e-12, -1.6175000000e+03, -3.0008593750e+03
    476, 5.8331910890e-12, -1.6175000000e+03, -2.7429687500e+03
    477, 5.8331910890e-12, -1.6175000000e+03, -2.4850781250e+03
    478, 5.8331910890e-12, -1.6175000000e+03, -2.2271875000e+03
    479, 5.8331910890e-12, -1.6175000000e+03, -1.9692968750e+03
    480, 5.8331910890e-12, -1.6175000000e+03, -1.7114062500e+03
    481, 5.8331910890e-12, -1.6175000000e+03, -1.4535156250e+03
    482, 5.8331910890e-12, -1.6175000000e+03, -1.1956250000e+03
    483, 5.8331910890e-12, -1.6175000000e+03, -9.3773437500e+02
    484, 5.8331910890e-12, -1.6175000000e+03, -6.7984375000e+02
    485, 5.8331910890e-12, -1.6175000000e+03, -4.2195312500e+02
    486, 5.8331910890e-12, -1.6175000000e+03, -1.6406250000e+02
    487, 5.8331910890e-12, -1.6175000000e+03, 9.3828125000e+01
    488, 5.8331910890e-12, -1.6175000000e+03, 3.5171875000e+02
    489, 5.8331910890e-12, -1.6175000000e+03, 6.0960937500e+02
    490, 5.8331910890e-12, -1.6175000000e+03, -7.2560546875e+03
    491, 5.8331910890e-12, -1.6175000000e+03, -6.9981640625e+03
    492, 5.8331910890e-12, -1.6175000000e+03, -6.7402734375e+03
    493, 5.8331910890e-12, -1.6175000000e+03, -6.4823828125e+03
    494, 5.8331910890e-12, -1.6175000000e+03, -6.2244921875e+03
    495, 5.8331910890e-12, -1.6175000000e+03, -5.9666015625e+03
    496, 5.8331910890e-12, -1.6175000000e+03, -5.7087109375e+03
    497, 5.8331910890e-12, -1.6175000000e+03, -5.4508203125e+03
    498, 5.8331910890e-12, -1.6175000000e+03, -5.1929296875e+03
    499, 5.8331910890e-12, -1.6175000000e+03, -4.9350390625e+03
    500, 5.8331910890e-12, -1.6175000000e+03, -4.6771484375e+03
    501, 5.8331910890e-12, -1.6175000000e+03, -4.4192578125e+03
    502, 5.8331910890e-12, -1.6175000000e+03, -4.1613671875e+03
    503, 5.8331910890e-12, -1.6175000000e+03, -3.9034765625e+03
    504, 5.8331910890e-12, -1.6175000000e+03, -3.6455859375e+03
    505, 5.8331910890e-12, -1.6175000000e+03, -3.3876953125e+03
    506, 5.8331910890e-12, -1.6175000000e+03, -3.1298046875e+03
    507, 5.8331910890e-12, -1.6175000000e+03, -2.8719140625e+03
    508, 5.8331910890e-12, -1.6175000000e+03, -2.6140234375e+03
    509, 5.8331910890e-12, -1.6175000000e+03, -2.3561328125e+03
    510, 5.8331910890e-12, -1.6175000000e+03, -2.0982421875e+03
    511, 5.8331910890e-12, -1.6175000000e+03, -1.8403515625e+03
    512, 5.8331910890e-12, -1.6175000000e+03, -1.5824609375e+03
    513, 5.8331910890e-12, -1.6175000000e+03, -1.3245703125e+03
    514, 5.8331910890e-12, -1.6175000000e+03, -1.0666796875e+03
    515, 5.8331910890e-12, -1.6175000000e+03, -8.0878906250e+02
    516, 5.8331910890e-12, -1.6175000000e+03, -5.5089843750e+02
    517, 5.8331910890e-12, -1.6175000000e+03, -2.9300781250e+02
    518, 5.8331910890e-12, -1.6175000000e+03, -3.5117187500e+01
    519, 5.8331910890e-12, -1.6175000000e+03, 2.2277343750e+02
    520, 5.8331910890e-12, -1.6175000000e+03, 4.8066406250e+02
    521, 5.8331910890e-12, -1.6175000000e+03, 7.3855468750e+02
    522, 2.5303274720e+02, -1.5975858909e+03, -7.3850000000e+03
    523, 4.9983498840e+02, -1.5383339151e+03, -7.3850000000e+03
    524, 7.3432963333e+02, -1.4412030529e+03, -7.3850000000e+03
    525, 9.5074264558e+02, -1.3085849884e+03, -7.3850000000e+03
    526, 1.1437452186e+03, -1.1437452186e+03, -7.3850000000e+03
    527, 1.3085849884e+03, -9.5074264558e+02, -7.3850000000e+03
    528, 1.4412030529e+03, -7.3432963333e+02, -7.3850000000e+03
    529, 1.5383339151e+03, -4.9983498840e+02, -7.3850000000e+03
    530, 1.5975858909e+03, -2.5303274720e+02, -7.3850000000e+03
    531, 1.6175000000e+03, -1.1765147553e-12, -7.3850000000e+03
    532, 1.5975858909e+03, 2.5303274720e+02, -7.3850000000e+03
    533, 1.5383339151e+03, 4.9983498840e+02, -7.3850000000e+03
    534, 1.4412030529e+03, 7.3432963333e+02, -7.3850000000e+03
    535, 1.3085849884e+03, 9.5074264558e+02, -7.3850000000e+03
    536, 1.1437452186e+03, 1.1437452186e+03, -7.3850000000e+03
    537, 9.5074264558e+02, 1.3085849884e+03, -7.3850000000e+03
    538, 7.3432963333e+02, 1.4412030529e+03, -7.3850000000e+03
    539, 4.9983498840e+02, 1.5383339151e+03, -7.3850000000e+03
    540, 2.5303274720e+02, 1.5975858909e+03, -7.3850000000e+03
    541, 2.8358794636e-12, 1.6175000000e+03, -7.3850000000e+03
    542, -2.5303274720e+02, 1.5975858909e+03, -7.3850000000e+03
    543, -4.9983498840e+02, 1.5383339151e+03, -7.3850000000e+03
    544, -7.3432963333e+02, 1.4412030529e+03, -7.3850000000e+03
    545, -9.5074264558e+02, 1.3085849884e+03, -7.3850000000e+03
    546, -1.1437452186e+03, 1.1437452186e+03, -7.3850000000e+03
    547, -1.3085849884e+03, 9.5074264558e+02, -7.3850000000e+03
    548, -1.4412030529e+03, 7.3432963333e+02, -7.3850000000e+03
    549, -1.5383339151e+03, 4.9983498840e+02, -7.3850000000e+03
    550, -1.5975858909e+03, 2.5303274720e+02, -7.3850000000e+03
    551, -1.6175000000e+03, -8.3226416335e-12, -7.3850000000e+03
    552, -1.5975858909e+03, -2.5303274720e+02, -7.3850000000e+03
    553, -1.5383339151e+03, -4.9983498840e+02, -7.3850000000e+03
    554, -1.4412030529e+03, -7.3432963333e+02, -7.3850000000e+03
    555, -1.3085849884e+03, -9.5074264558e+02, -7.3850000000e+03
    556, -1.1437452186e+03, -1.1437452186e+03, -7.3850000000e+03
    557, -9.5074264558e+02, -1.3085849884e+03, -7.3850000000e+03
    558, -7.3432963333e+02, -1.4412030529e+03, -7.3850000000e+03
    559, -4.9983498840e+02, -1.5383339151e+03, -7.3850000000e+03
    560, -2.5303274720e+02, -1.5975858909e+03, -7.3850000000e+03
    561, 1.2690758734e+02, -1.6125137873e+03, -7.3850000000e+03
    562, 3.7759787604e+02, -1.5728083462e+03, -7.3850000000e+03
    563, 6.1899045185e+02, -1.4943751438e+03, -7.3850000000e+03
    564, 8.4514142843e+02, -1.3791454658e+03, -7.3850000000e+03
    565, 1.0504822182e+03, -1.2299566494e+03, -7.3850000000e+03
    566, 1.2299566494e+03, -1.0504822182e+03, -7.3850000000e+03
    567, 1.3791454658e+03, -8.4514142843e+02, -7.3850000000e+03
    568, 1.4943751438e+03, -6.1899045185e+02, -7.3850000000e+03
    569, 1.5728083462e+03, -3.7759787604e+02, -7.3850000000e+03
    570, 1.6125137873e+03, -1.2690758734e+02, -7.3850000000e+03
    571, 1.6125137873e+03, 1.2690758734e+02, -7.3850000000e+03
    572, 1.5728083462e+03, 3.7759787604e+02, -7.3850000000e+03
    573, 1.4943751438e+03, 6.1899045185e+02, -7.3850000000e+03
    574, 1.3791454658e+03, 8.4514142843e+02, -7.3850000000e+03
    575, 1.2299566494e+03, 1.0504822182e+03, -7.3850000000e+03
    576, 1.0504822182e+03, 1.2299566494e+03, -7.3850000000e+03
    577, 8.4514142843e+02, 1.3791454658e+03, -7.3850000000e+03
    578, 6.1899045185e+02, 1.4943751438e+03, -7.3850000000e+03
    579, 3.7759787604e+02, 1.5728083462e+03, -7.3850000000e+03
    580, 1.2690758734e+02, 1.6125137873e+03, -7.3850000000e+03
    581, -1.2690758734e+02, 1.6125137873e+03, -7.3850000000e+03
    582, -3.7759787604e+02, 1.5728083462e+03, -7.3850000000e+03
    583, -6.1899045185e+02, 1.4943751438e+03, -7.3850000000e+03
    584, -8.4514142843e+02, 1.3791454658e+03, -7.3850000000e+03
    585, -1.0504822182e+03, 1.2299566494e+03, -7.3850000000e+03
    586, -1.2299566494e+03, 1.0504822182e+03, -7.3850000000e+03
    587, -1.3791454658e+03, 8.4514142843e+02, -7.3850000000e+03
    588, -1.4943751438e+03, 6.1899045185e+02, -7.3850000000e+03
    589, -1.5728083462e+03, 3.7759787604e+02, -7.3850000000e+03
    590, -1.6125137873e+03, 1.2690758734e+02, -7.3850000000e+03
    591, -1.6125137873e+03, -1.2690758734e+02, -7.3850000000e+03
    592, -1.5728083462e+03, -3.7759787604e+02, -7.3850000000e+03
    593, -1.4943751438e+03, -6.1899045185e+02, -7.3850000000e+03
    594, -1.3791454658e+03, -8.4514142843e+02, -7.3850000000e+03
    595, -1.2299566494e+03, -1.0504822182e+03, -7.3850000000e+03
    596, -1.0504822182e+03, -1.2299566494e+03, -7.3850000000e+03
    597, -8.4514142843e+02, -1.3791454658e+03, -7.3850000000e+03
    598, -6.1899045185e+02, -1.4943751438e+03, -7.3850000000e+03
    599, -3.7759787604e+02, -1.5728083462e+03, -7.3850000000e+03
    600, -1.2690758734e+02, -1.6125137873e+03, -7.3850000000e+03
    601, -2.5303274720e+02, -1.5975858909e+03, 8.6750000000e+02
    602, -4.9983498840e+02, -1.5383339151e+03, 8.6750000000e+02
    603, -7.3432963333e+02, -1.4412030529e+03, 8.6750000000e+02
    604, -9.5074264558e+02, -1.3085849884e+03, 8.6750000000e+02
    605, -1.1437452186e+03, -1.1437452186e+03, 8.6750000000e+02
    606, -1.3085849884e+03, -9.5074264558e+02, 8.6750000000e+02
    607, -1.4412030529e+03, -7.3432963333e+02, 8.6750000000e+02
    608, -1.5383339151e+03, -4.9983498840e+02, 8.6750000000e+02
    609, -1.5975858909e+03, -2.5303274720e+02, 8.6750000000e+02
    610, -1.2690758734e+02, -1.6125137873e+03, 8.6750000000e+02
    611, -3.7759787604e+02, -1.5728083462e+03, 8.6750000000e+02
    612, -6.1899045185e+02, -1.4943751438e+03, 8.6750000000e+02
    613, -8.4514142843e+02, -1.3791454658e+03, 8.6750000000e+02
    614, -1.0504822182e+03, -1.2299566494e+03, 8.6750000000e+02
    615, -1.2299566494e+03, -1.0504822182e+03, 8.6750000000e+02
    616, -1.3791454658e+03, -8.4514142843e+02, 8.6750000000e+02
    617, -1.4943751438e+03, -6.1899045185e+02, 8.6750000000e+02
    618, -1.5728083462e+03, -3.7759787604e+02, 8.6750000000e+02
    619, -1.6125137873e+03, -1.2690758734e+02, 8.6750000000e+02
    620, 2.7500000000e+02, 1.5939514579e+03, -1.8500000000e+02
    621, 2.7500000000e+02, 1.5939514579e+03, -2.9750000000e+02
    622, 2.7500000000e+02, 1.5939514579e+03, -7.2500000000e+01
    623, 1.9445612898e+02, 1.6057686832e+03, 2.3445260108e+02
    624, 6.7822045331e-05, 1.6175000006e+03, 3.1500000033e+02
    625, -1.9445611688e+02, 1.6057686853e+03, 2.3445262139e+02
    626, 2.5401896112e+02, 1.5974293778e+03, 1.4535353220e+02
    627, 1.0535481435e+02, 1.6140652445e+03, 2.9401843153e+02
    628, -1.0535407558e+02, 1.6140652832e+03, 2.9401866350e+02
    629, -2.5401934449e+02, 1.5974293172e+03, 1.4535261289e+02
    630, -2.7500000000e+02, 1.5939514579e+03, -1.8500000000e+02
    631, -2.7500000000e+02, 1.5939514579e+03, -2.9750000000e+02
    632, -2.7500000000e+02, 1.5939514579e+03, -7.2500000000e+01
    633, -1.9445612898e+02, 1.6057686832e+03, -6.0445260108e+02
    634, -6.7822047107e-05, 1.6175000006e+03, -6.8500000033e+02
    635, 1.9445611688e+02, 1.6057686853e+03, -6.0445262139e+02
    636, -2.5401896112e+02, 1.5974293778e+03, -5.1535353220e+02
    637, -1.0535481435e+02, 1.6140652445e+03, -6.6401843153e+02
    638, 1.0535407558e+02, 1.6140652832e+03, -6.6401866350e+02
    639, 2.5401934449e+02, 1.5974293172e+03, -5.1535261289e+02
    640, -1.6005793418e+03, 2.3334956950e+02, 5.1659091961e+01
    641, -1.5834791590e+03, 3.3000000151e+02, 2.8499997730e+02
    642, -1.6005793372e+03, 2.3334960106e+02, 5.1834087956e+02
    643, -1.6174999987e+03, 5.0309208792e-05, 6.1499999347e+02
    644, -1.6005793364e+03, -2.3334960752e+02, 5.1834087699e+02
    645, -1.5834791557e+03, -3.3000002440e+02, 2.8499995418e+02
    646, -1.6005793358e+03, -2.3334960194e+02, 5.1659145199e+01
    647, -1.6125466217e+03, 1.2648969382e+02, -1.9795597898e+01
    648, -1.5885228084e+03, 3.0479753456e+02, 1.5851497005e+02
    649, -1.5885227495e+03, 3.0479783604e+02, 4.1148425854e+02
    650, -1.6125467230e+03, 1.2648840149e+02, 5.8979613457e+02
    651, -1.6125467467e+03, -1.2648812588e+02, 5.8979626886e+02
    652, -1.5885228381e+03, -3.0479737299e+02, 4.1148533246e+02
    653, -1.5885228869e+03, -3.0479712571e+02, 1.5851399695e+02
    654, -1.6125465771e+03, -1.2649031459e+02, -1.9795363593e+01
    655, 2.7500000000e+02, 1.5939514579e+03, -5.5850000000e+03
    656, 2.7500000000e+02, 1.5939514579e+03, -5.6975000000e+03
    657, 2.7500000000e+02, 1.5939514579e+03, -5.4725000000e+03
    658, -1.9445612898e+02, 1.6057686832e+03, -5.1655473989e+03
    659, -6.7822045563e-05, 1.6175000006e+03, -5.0849999997e+03
    660, 1.9445611688e+02, 1.6057686853e+03, -5.1655473786e+03
    661, -2.5401896112e+02, 1.5974293778e+03, -5.2546464678e+03
    662, -1.0535481435e+02, 1.6140652445e+03, -5.1059815685e+03
    663, 1.0535407558e+02, 1.6140652832e+03, -5.1059813365e+03
    664, 2.5401934449e+02, 1.5974293172e+03, -5.2546473871e+03
    665, -2.7500000000e+02, 1.5939514579e+03, -5.5850000000e+03
    666, -2.7500000000e+02, 1.5939514579e+03, -5.6975000000e+03
    667, -2.7500000000e+02, 1.5939514579e+03, -5.4725000000e+03
    668, 1.9445612898e+02, 1.6057686832e+03, -6.0044526011e+03
    669, 6.7822049505e-05, 1.6175000006e+03, -6.0850000003e+03
    670, -1.9445611688e+02, 1.6057686853e+03, -6.0044526214e+03
    671, 2.5401896112e+02, 1.5974293778e+03, -5.9153535322e+03
    672, 1.0535481435e+02, 1.6140652445e+03, -6.0640184315e+03
    673, -1.0535407558e+02, 1.6140652832e+03, -6.0640186635e+03
    674, -2.5401934449e+02, 1.5974293172e+03, -5.9153526129e+03
    675, 1.6043473275e+03, 2.0585427986e+02, -2.7719379020e+03
    676, 1.5828944121e+03, 3.3279353381e+02, -2.9466097095e+03
    677, 1.5828943401e+03, 3.3279408984e+02, -3.1633905704e+03
    678, 1.6043472869e+03, 2.0585415930e+02, -3.3380620193e+03
    679, 1.6174999983e+03, 8.4656611464e-06, -3.4049999920e+03
    680, 1.6043473490e+03, -2.0585453261e+02, -3.3380624375e+03
    681, 1.5828943853e+03, -3.3279370262e+02, -3.1633903810e+03
    682, 1.5828944724e+03, -3.3279320611e+02, -2.9466097785e+03
    683, 1.6043473007e+03, -2.0585403343e+02, -2.7719382390e+03
    684, 1.6138639434e+03, 1.0839348729e+02, -2.7222079802e+03
    685, 1.5925380860e+03, 2.8307014856e+02, -2.8491569732e+03
    686, 1.5791789785e+03, 3.5000000215e+02, -3.0550010987e+03
    687, 1.5925380420e+03, 2.8307037221e+02, -3.2608425604e+03
    688, 1.6138640198e+03, 1.0839365835e+02, -3.3877924827e+03
    689, 1.6138639278e+03, -1.0839477497e+02, -3.3877920452e+03
    690, 1.5925380993e+03, -2.8307002490e+02, -3.2608430212e+03
    691, 1.5791789749e+03, -3.5000002587e+02, -3.0549999345e+03
    692, 1.5925380542e+03, -2.8307026413e+02, -2.8491574377e+03
    693, 1.6138641199e+03, -1.0839376400e+02, -2.7222069127e+03
    1249, 1.0051484502e+03, -1.2672737838e+03, -1.2612924915e+03
    1250, 1.1824771758e+03, -1.1036548278e+03, -1.2071550392e+03
    1251, 1.0948888176e+03, -1.1905984743e+03, -1.3707618009e+03
    1252, 1.0447064049e+03, -1.2348662995e+03, -1.1132661882e+03
    1253, 1.5682461924e+03, -3.9611883334e+02, -3.6134068221e+03
    1254, 1.5525225576e+03, -4.5385014947e+02, -3.4041171232e+03
    1255, 2.7327682003e+02, 1.5942477943e+03, -6.4551836160e+03
    1256, 4.6950107181e+02, 1.5478614258e+03, -6.4056211647e+03
    1257, 1.6138350574e+03, 1.0882397511e+02, -6.9868348791e+03
    1258, 1.5872641119e+03, 3.1128586403e+02, -7.1871142770e+03
    1259, 1.6096605553e+03, 1.5905705470e+02, -7.1880594940e+03
    1260, 1.5861746416e+03, 3.1679055595e+02, -7.0204637588e+03
    1261, -6.5640690963e+01, 1.6161675500e+03, 4.5721968993e+02
    1262, 1.4858048319e+02, 1.6106613828e+03, 4.5897184504e+02
    1263, 8.0181180891e+01, 1.6155114448e+03, 6.6131823091e+02
    1264, -9.1085604866e+02, 1.3366553440e+03, 6.7744139867e+02
    1265, -7.1580988444e+02, 1.4504904203e+03, 6.8705121718e+02
    1266, -6.8205896770e+02, 1.4666634974e+03, 5.0583141812e+02
    1267, 4.8112466627e+02, -1.5442879607e+03, -6.9968948118e+03
    1268, 6.0095213000e+02, -1.5017199431e+03, -7.1905167858e+03
    1269, 3.8981811115e+02, -1.5698242227e+03, -7.2288184573e+03
    1270, -4.5446851297e+02, 1.5523416572e+03, -5.4618195988e+03
    1271, -6.6062104778e+02, 1.4764437278e+03, -5.3448686565e+03
    1272, -5.8082941890e+02, 1.5096169833e+03, -5.5168836866e+03
    1273, -7.3626257485e+02, 1.4402165361e+03, -5.5825728753e+03
    1274, -3.4568317288e+02, 1.5801295497e+03, 6.1440608176e+02
    1275, -5.0840391367e+02, 1.5355232693e+03, 5.4361602690e+02
    1276, -2.8444142857e+02, 1.5922937303e+03, 4.6430733411e+02
    1277, -5.7789298968e+02, 1.5107435065e+03, 6.8646201736e+02
    1278, -2.0964619375e+02, -1.6038562041e+03, -4.6319523434e+03
    1279, -4.4588636522e+02, -1.5548284791e+03, -4.4102265339e+03
    1280, -1.5967600102e+02, -1.6095992746e+03, -4.3949763861e+03
    1281, -4.6214861392e+02, -1.5500725495e+03, -4.6352026148e+03
    1282, 1.5979460662e+03, 2.5074811943e+02, -3.5487915265e+03
    1283, 1.5594315471e+03, 4.2951076809e+02, -3.5055722653e+03
    1284, 1.5874689346e+03, 3.1023963578e+02, -3.7384106699e+03
    1285, 1.5392598808e+03, 4.9697612561e+02, -3.6769949198e+03
    1286, -1.2684382532e+02, -1.6125188042e+03, -3.4045050167e+03
    1287, -1.8682552170e+02, -1.6066743523e+03, -3.6493053240e+03
    1288, -4.1741399661e+02, -1.5627129632e+03, -3.4222638194e+03
    1289, 4.8983523610e+02, -1.5415471746e+03, -1.7442351555e+03
    1290, 8.4811391174e+02, -1.3773195137e+03, -1.6922439088e+03
    1291, 7.2671568100e+02, -1.4450572892e+03, -1.9239544264e+03
    1292, 6.7606112529e+02, -1.4694378534e+03, -1.5487207132e+03
    1293, -1.5811526262e+03, 3.4097305264e+02, -6.5500023525e+03
    1294, -1.5406243801e+03, 4.9272991524e+02, -6.7036558129e+03
    1295, -1.5255843408e+03, 5.3749294790e+02, -6.3944010961e+03
    1296, -2.2582063764e+02, -1.6016589180e+03, -6.5488182385e+03
    1297, -2.0186404581e+02, -1.6048542479e+03, -6.2396581753e+03
    1298, -1.4744830963e+03, 6.6498560033e+02, -6.5612733763e+03
    1299, -1.5142954366e+03, 5.6852051913e+02, -4.7568537004e+03
    1300, -1.5383773834e+03, 4.9970118683e+02, -4.5168124240e+03
    1301, -1.5899915022e+03, 2.9704086098e+02, -4.7483476758e+03
    1302, -7.2372768134e+02, -1.4465560802e+03, 3.5716149898e+02
    1303, -4.2696651529e+02, -1.5601300730e+03, 1.7575614373e+02
    1304, -6.2335249124e+02, -1.4925608603e+03, 8.6315801986e+01
    1305, -1.5918981143e+03, 2.8664724607e+02, -4.5391258582e+03
    1306, 1.6171299430e+03, -3.4597649790e+01, -5.2558440799e+02
    1307, 1.5979833617e+03, 2.5051033053e+02, -4.7803088202e+02
    1308, 1.6118169252e+03, 1.3547121292e+02, -6.2726852255e+02
    1309, 1.2995212944e+03, -9.6309431278e+02, -2.2756730915e+03
    1310, 1.3700370395e+03, -8.5982833195e+02, -2.4466621834e+03
    1311, 1.2439920597e+03, -1.0338230049e+03, -2.3836293327e+03
    1312, 1.6174539989e+03, -1.2198826535e+01, 6.5594748973e+02
    1313, 1.6059303772e+03, 1.9311621779e+02, 4.4029473841e+02
    1314, 1.3720661013e+03, -8.5658675194e+02, -3.4605121374e+03
    1315, 1.3578003343e+03, -8.7902474499e+02, -3.3190140492e+03
    1316, 1.4749711426e+03, -6.6390238632e+02, -3.4375969380e+03
    1317, 1.4482119138e+03, -7.2040856662e+02, -3.2196101984e+03
    1318, -6.6917910732e+02, -1.4725846571e+03, -1.7393306476e+03
    1319, -4.9390977047e+02, -1.5402465350e+03, -1.6378561265e+03
    1320, -4.3482163467e+02, -1.5579590482e+03, -1.8906533104e+03
    1321, -2.8258373321e+02, -1.5926244641e+03, -1.7230656022e+03
    1322, 1.6032842737e+03, 2.1397613787e+02, 6.4772004286e+02
    1323, 6.4914973348e+02, 1.4815231600e+03, -3.1490767393e+02
    1324, 8.6520298539e+02, 1.3666492030e+03, -2.0894306061e+02
    1325, 6.5145101483e+02, 1.4805126900e+03, -8.7907668435e+01
    1326, 3.5117563612e+02, 1.5789179594e+03, -6.1748689423e+03
    1327, 1.6934212585e+02, 1.6086110451e+03, -6.2684984844e+03
    1328, 5.7221946224e+02, -1.5129015622e+03, -2.8555439975e+03
    1329, 6.9171882768e+02, -1.4621324541e+03, -3.0531839064e+03
    1330, 3.9755322711e+02, -1.5678831849e+03, -2.9705309612e+03
    1331, 7.3642381356e+02, -1.4401340968e+03, -2.7209261421e+03
    1332, -4.7507452030e+02, -1.5461599045e+03, 6.5160795079e+02
    1333, -7.1077644557e+02, -1.4529635558e+03, 6.3709917601e+02
    1334, -1.6158257802e+03, 7.3575117591e+01, -4.5365687638e+03
    1335, -1.6137761826e+03, -1.0969358483e+02, -4.6736635791e+03
    1336, -1.6166711951e+03, 5.1773514305e+01, -4.7572015199e+03
    1337, -1.6139518595e+03, -1.0707775296e+02, -4.9025480299e+03
    1338, -1.3095521855e+03, -9.4940998706e+02, -2.7275458980e+01
    1339, -1.4400167070e+03, -7.3665333346e+02, 1.1382445134e+02
    1340, -1.3427366090e+03, -9.0186731227e+02, 1.5734688918e+02
    1341, -1.6155594358e+03, 7.9208330057e+01, -4.3453496096e+03
    1342, -1.5943249453e+03, 2.7282635289e+02, -4.3356669918e+03
    1343, -4.1699942745e+02, -1.5628236393e+03, -6.0904700618e+03
    1344, -3.7688881303e+02, -1.5729784082e+03, -6.3214938778e+03
    1345, -6.0939500988e+02, -1.4983137095e+03, -6.1541809717e+03
    1346, -5.8112142726e+02, -1.5095045998e+03, -6.4326213985e+03
    1347, -1.2350498014e+03, -1.0444894629e+03, 3.1347712522e+01
    1348, -1.2458046081e+03, -1.0316380802e+03, -1.7923908238e+02
    1349, -1.1608199084e+03, -1.1264117322e+03, -4.2083997904e+01
    1350, -1.4035362801e+03, -8.0398517433e+02, -1.0275666930e+02
    1351, 4.6734760541e+02, 1.5485129853e+03, -2.7567912754e+02
    1352, 1.4305598590e+03, -7.5485411814e+02, -2.9140290134e+03
    1353, 1.2731464871e+03, -9.9769949003e+02, -2.9167811006e+03
    1354, 1.3569597041e+03, -8.8032187938e+02, -2.7618123160e+03
    1355, 4.6589642030e+02, 1.5489502173e+03, -1.2886323933e+02
    1356, -2.0657804716e+02, -1.6042542693e+03, -5.9832507986e+03
    1357, 1.4403227846e+03, -7.3605470329e+02, 5.7508376298e+02
    1358, 1.2463217185e+03, -1.0310132996e+03, 4.4300349489e+02
    1359, 1.2837126234e+03, -9.8406714739e+02, 6.4031279724e+02
    1360, 3.4146137775e+02, -1.5810472408e+03, -6.6245922654e+03
    1361, 4.1009483633e+02, -1.5646496334e+03, -6.8469516736e+03
    1362, 1.9113418381e+02, -1.6061674800e+03, -6.8165594105e+03
    1363, 7.0918296886e+02, -1.4537419877e+03, 6.4433385914e+02
    1364, 7.1283432042e+02, -1.4519550550e+03, 3.6767670545e+02
    1365, 4.4644571238e+02, -1.5546679632e+03, 4.3237762909e+02
    1366, 9.3970284154e+02, -1.3165351570e+03, 4.5383535776e+02
    1367, -1.2278080226e+03, 1.0529927396e+03, -6.5344987272e+03
    1368, -1.2125112274e+03, 1.0705712370e+03, -6.1903721586e+03
    1369, -1.3031866919e+03, 9.5812874708e+02, -6.3163500284e+03
    1370, -1.6149352695e+03, -9.1051223023e+01, -2.7126497848e+03
    1371, -1.6170182059e+03, 3.9476216939e+01, -2.5152036695e+03
    1372, -1.6078346166e+03, -1.7656187509e+02, -2.3509816318e+03
    1373, -1.6027420172e+03, 2.1800063369e+02, -2.6464953415e+03
    1374, 4.8396580471e+02, 1.5433999319e+03, -3.6997094028e+03
    1375, 7.3608575253e+02, 1.4403069169e+03, -3.7930125864e+03
    1376, 6.6942790994e+02, 1.4724715696e+03, -3.5168002846e+03
    1377, -4.2269937561e+02, -1.5612916088e+03, -6.5925340213e+03
    1378, 1.2509517529e+03, 1.0253906386e+03, -1.5234152596e+03
    1379, 1.3479456417e+03, 8.9406308339e+02, -1.6364939266e+03
    1380, 1.3668650659e+03, 8.6486192048e+02, -1.9052838478e+03
    1381, -1.4994305522e+03, -6.0664179637e+02, -3.9883324473e+03
    1382, -1.5744310853e+03, -3.7077352590e+02, -4.1641439517e+03
    1383, -1.5653257922e+03, -4.0750633662e+02, -3.9608904659e+03
    1384, 6.7544463513e+02, 1.4697213324e+03, -3.9204004580e+03
    1385, -1.4384043778e+03, 7.3979665843e+02, -7.0957549669e+03
    1386, -1.5575451429e+03, 4.3630193413e+02, -6.9818236419e+03
    1387, -1.5413502494e+03, 4.9045454297e+02, -7.1648283739e+03
    1388, -1.4962637669e+03, 6.1441109186e+02, -6.8764964935e+03
    1389, -6.6054280128e+02, 1.4764787359e+03, 2.8087528215e+02
    1390, -8.4022994362e+02, 1.3821432241e+03, 3.5196255021e+02
    1391, -7.9645780028e+02, 1.4078214455e+03, 1.2802587317e+02
    1392, -4.1625379533e+02, 1.5630224016e+03, -4.5985529729e+03
    1393, -4.7792401452e+02, 1.5452814910e+03, -4.8013247395e+03
    1394, -2.2846834331e+02, 1.6012833809e+03, -4.7133080100e+03
    1395, 1.6174900836e+03, -5.6638590839e+00, 4.3791178229e+02
    1396, -1.1609139540e+03, -1.1263148057e+03, -3.4314620613e+02
    1397, -1.2808925331e+03, -9.8773507013e+02, -4.6150258603e+02
    1398, -1.3471770247e+03, -8.9522081858e+02, -2.8997912549e+02
    1399, 1.5639889940e+03, 4.1260717006e+02, -2.0407588105e+03
    1400, 1.5000552770e+03, 6.0509537752e+02, -2.0810620834e+03
    1401, 1.5426360395e+03, 4.8639520933e+02, -2.2682378392e+03
    1402, 1.4781802693e+03, 6.5672623014e+02, -2.2167402433e+03
    1403, 1.6020292934e+03, -2.2317794069e+02, 4.3097245952e+02
    1404, 1.4699320216e+03, 6.7498600121e+02, -4.7684589138e+03
    1405, 1.3728917178e+03, 8.5526287262e+02, -4.9479195510e+03
    1406, 1.4493113902e+03, 7.1819408543e+02, -5.0649674842e+03
    1407, 1.3632817457e+03, 8.7049935777e+02, -4.6437160747e+03
    1408, -3.4479217658e+02, -1.5803242088e+03, -2.2945022451e+03
    1409, -2.3078763334e+02, -1.6009507545e+03, -2.0857268614e+03
    1410, -1.6464854430e+02, -1.6090982278e+03, -2.3400897974e+03
    1411, 8.8187645760e+02, -1.3559499119e+03, -5.7145446644e+03
    1412, 7.7264874917e+02, -1.4210278535e+03, -5.8940617735e+03
    1413, 6.5015334938e+02, -1.4810830065e+03, -5.6416569365e+03
    1414, 1.0274168956e+03, -1.2492881063e+03, -5.9651324872e+03
    1415, -7.4265723525e+02, 1.4369295323e+03, -5.1350044811e+03
    1416, -8.1135503031e+02, 1.3992888425e+03, -5.4245175549e+03
    1417, -1.5869482354e+03, -3.1289223113e+02, -1.9078166351e+02
    1418, -1.5307890957e+03, -5.2248540108e+02, 6.9311135420e+01
    1419, -1.0995543807e+03, 1.1862910326e+03, -6.3608148702e+03
    1420, -9.8282225788e+02, 1.2846659719e+03, -6.2080884262e+03
    1421, -3.1040094337e+02, 1.5874374017e+03, -4.8930811659e+03
    1422, 6.0082913199e+02, 1.5017691581e+03, -9.2796739169e+02
    1423, 6.3853264307e+02, 1.4861299787e+03, -8.0556532400e+02
    1424, 4.2968412216e+02, 1.5593837902e+03, -8.8246782698e+02
    1425, -6.0820986692e+02, -1.4987951854e+03, -7.1217151880e+03
    1426, -6.8808934733e+02, -1.4638440149e+03, -6.9245181107e+03
    1427, -4.0438636831e+02, -1.5661347053e+03, -7.0534296016e+03
    1428, -7.9000277733e+02, -1.4114538114e+03, -1.8012008275e+03
    1429, -7.3075396091e+02, -1.4430193688e+03, -1.5401789884e+03
    1430, 7.0415777899e+02, -1.4561827057e+03, -6.9088431413e+03
    1431, -9.1662459451e+02, -1.3327061202e+03, -1.6771493842e+03
    1432, -1.3499009267e+03, -8.9110815173e+02, -6.1104566653e+03
    1433, -1.4683633790e+03, -6.7839165482e+02, -6.0801549776e+03
    1434, -1.3421843383e+03, -9.0268901183e+02, -5.8910434142e+03
    1435, -1.3560403902e+03, -8.8173732490e+02, -6.3363906853e+03
    1436, -1.0737208835e+03, 1.2097229907e+03, -4.1273276234e+03
    1437, -1.1640194374e+03, 1.1231050705e+03, -4.1762637665e+03
    1438, -1.0345318749e+03, 1.2434026097e+03, -4.2878689822e+03
    1439, -1.1583340018e+03, 1.1289679314e+03, -4.3043435789e+03
    1440, 8.3361007760e+02, -1.3861459117e+03, -1.3152364696e+03
    1441, 8.7614229131e+02, -1.3596620666e+03, -1.0479206003e+03
    1442, 5.9159906395e+02, -1.5054291074e+03, -1.2137941641e+03
    1443, 9.9759365331e+02, -1.2732294188e+03, -4.2836552353e+03
    1444, 1.0685114232e+03, -1.2143268046e+03, -3.9868719176e+03
    1445, 1.1921534870e+03, -1.0931954598e+03, -4.1794301664e+03
    1446, -4.6724747680e+02, -1.5485432010e+03, -3.8699632971e+03
    1447, -5.1429376226e+02, -1.5335606203e+03, -4.1496174465e+03
    1448, -6.8216544016e+02, -1.4666139786e+03, -4.0471043764e+03
    1449, 4.1429850309e+02, -1.5635418128e+03, -4.9227609729e+03
    1450, 2.6412282465e+02, -1.5957898933e+03, -5.1552376695e+03
    1451, 2.0654682704e+02, -1.6042582891e+03, -4.9006731862e+03
    1452, 5.3567822482e+02, 1.5262224902e+03, -6.9000588485e+03
    1453, 3.4935225931e+02, 1.5793224018e+03, -6.6980782963e+03
    1454, 4.0306453847e+02, 1.5664754156e+03, -6.9920158646e+03
    1455, 3.2287457637e+02, 1.5849473991e+03, -4.9516901774e+03
    1456, 4.1608492263e+02, 1.5630673649e+03, -4.8070850786e+03
    1457, 2.1286997156e+02, 1.6034315156e+03, -4.7469869267e+03
    1458, 2.4593488564e+02, 1.5986939301e+03, -4.6221040265e+03
    1459, 1.0833547979e+03, 1.2011030896e+03, 3.1550904850e+02
    1460, 1.0310011780e+03, 1.2463317459e+03, 5.0053254989e+02
    1461, 8.7948796031e+02, 1.3575003417e+03, 2.9115848219e+02
    1462, -4.7751899982e+02, -1.5454066956e+03, -6.7982568167e+03
    1463, 8.3100656072e+02, 1.3877083073e+03, 4.8189181986e+02
    1464, -1.1151288520e+03, 1.1716628754e+03, -8.4175157530e+02
    1465, -1.0326052400e+03, 1.2450030796e+03, -6.3709130812e+02
    1466, -1.2731861029e+03, 9.9764893491e+02, -7.1032383544e+02
    1467, -9.5417674486e+02, -1.3060830715e+03, -1.2300775863e+03
    1468, -1.0582041610e+03, -1.2233193384e+03, -1.1595850078e+03
    1469, -8.4387734602e+02, -1.3799193001e+03, -1.1385811532e+03
    1470, -1.1602401395e+03, 1.1270089036e+03, -4.8659264973e+02
    1471, 1.1192996580e+03, -1.1676791193e+03, 6.6218184273e+02
    1472, -4.4717737803e+02, 1.5544576683e+03, -7.1809364037e+03
    1473, 2.0173218223e+02, 1.6048708287e+03, -6.9233012869e+03
    1474, 1.3823227962e+02, 1.6115824791e+03, -6.6451674210e+03
    1475, 9.0081474960e+02, -1.3434429787e+03, -4.0827512011e+03
    1476, -1.4213028543e+03, -7.7214276299e+02, -3.9368829165e+03
    1477, -1.3807651112e+03, -8.4249270490e+02, -4.0881691128e+03
    1478, -1.3168685135e+03, -9.3923562970e+02, -4.0042433399e+03
    1479, 6.4523854335e+01, 1.6162125238e+03, -3.1443933883e+03
    1480, 2.3506042897e+02, 1.6003289802e+03, -3.1953297296e+03
    1481, 1.6980572018e+02, 1.6085621739e+03, -2.9327690875e+03
    1482, -4.6740561757e+02, -1.5484954758e+03, -2.4356945166e+03
    1483, -2.4348073659e+02, -1.5990695360e+03, -2.5612852491e+03
    1484, 3.5106987390e+02, 1.5789414789e+03, -3.0362948268e+03
    1485, -5.6609929947e+02, -1.5152022417e+03, -2.1675766642e+03
    1486, 1.5989561991e+03, -2.4422392050e+02, 6.4903108408e+02
    1487, 7.6792404637e+02, 1.4235866356e+03, -2.2509114077e+03
    1488, 9.2443369669e+02, 1.3273012433e+03, -2.0414966005e+03
    1489, 7.5032090548e+02, 1.4329427026e+03, -2.0656113712e+03
    1490, -1.1719445475e+03, 1.1148328250e+03, -5.7107695125e+03
    1491, -9.5915417442e+02, 1.3024321555e+03, -5.8837952744e+03
    1492, -1.0221701632e+03, 1.2535846231e+03, -5.6731307692e+03
    1493, -8.7638653181e+02, 1.3595046513e+03, -5.6336642523e+03
    1494, 1.6084298910e+03, -1.7105418920e+02, -3.5921390302e+03
    1495, 1.6168276222e+03, 4.6633571671e+01, -3.5739728088e+03
    1496, -7.6967412110e+02, 1.4226412047e+03, -6.9693580623e+03
    1497, -9.2887105356e+02, 1.3241996888e+03, -6.9749911839e+03
    1498, -8.4700610708e+02, 1.3780010539e+03, -7.1623674807e+03
    1499, -8.4913777810e+02, 1.3766885210e+03, -6.7346654942e+03
    1500, -1.1998829286e+03, -1.0847060466e+03, -6.1276593474e+03
    1501, -1.2012854308e+03, -1.0831526041e+03, -5.9111307510e+03
    1502, -1.3665599732e+03, -8.6534391408e+02, 3.7407279305e+02
    1503, -1.2320651060e+03, -1.0480085041e+03, 1.7292199053e+02
    1504, -1.4804351847e+03, -6.5162712799e+02, -4.2142454898e+03
    1505, -1.2282437005e+03, -1.0524845187e+03, -5.9601874683e+02
    1506, -1.3782882005e+03, -8.4653876840e+02, -5.6962059833e+02
    1507, -3.8576599010e+02, -1.5708248950e+03, -2.1235806703e+03
    1508, -1.0046411854e+03, -1.2676759596e+03, 6.3293393362e+01
    1509, -1.1086931492e+03, -1.1777545376e+03, 1.2906777381e+02
    1510, -1.2383691680e+03, -1.0405518025e+03, 3.8476832855e+02
    1511, -1.3996301381e+03, -8.1076613556e+02, 6.1315098425e+02
    1512, -1.2670124904e+03, -1.0054777964e+03, 6.2340456519e+02
    1513, 1.4981307885e+03, -6.0984456252e+02, -3.6322430258e+03
    1514, 1.4012253853e+03, -8.0800598362e+02, -3.6471606710e+03
    1515, 1.2722679582e+03, 9.9881954959e+02, -3.3394990309e+03
    1516, 1.3064385026e+03, 9.5369003825e+02, -3.1357190819e+03
    1517, 1.1515434173e+03, 1.1358934844e+03, -3.2701651929e+03
    1518, 5.5024704265e+02, -1.5210307170e+03, -6.6799088391e+03
    1519, 1.4114111718e+03, 7.9007895442e+02, -3.1809326372e+03
    1520, 7.3797730067e+02, 1.4393386515e+03, -2.4327074283e+03
    1521, 6.5272294018e+02, 1.4799523686e+03, -2.2537113357e+03
    1522, 6.0164987247e+02, 1.5014405353e+03, -2.3726527929e+03
    1523, -1.3316512707e+03, 9.1815638273e+02, -2.1137964553e+03
    1524, -1.3532662929e+03, 8.8598904654e+02, -1.9273733876e+03
    1525, -1.4362438669e+03, 7.4398239543e+02, -2.1150994964e+03
    1526, -1.4475426924e+03, 7.2175231461e+02, -1.9134196670e+03
    1527, 1.6109234396e+03, 1.4571177619e+02, -1.9748678948e+02
    1528, 1.5966324858e+03, 2.5898060814e+02, -4.2652708841e+01
    1529, 1.5752342033e+03, 3.6734650507e+02, -3.0782526130e+02
    1530, 1.0821467216e+03, -1.2021916332e+03, -4.4740481221e+03
    1531, 1.6874702003e+02, 1.6086735819e+03, -9.7256341869e+02
    1532, -7.0448090707e+01, 1.6159651347e+03, -1.0384290271e+03
    1533, 9.5268128759e+01, 1.6146919934e+03, -1.1488615627e+03
    1534, -1.0557766298e+03, 1.2254150146e+03, 4.5217885097e+02
    1535, -9.6691594164e+02, 1.2966803044e+03, 2.3422793520e+02
    1536, -8.7276625801e+02, 1.3618316008e+03, 4.8821093437e+02
    1537, 6.2044500290e+02, -1.4937718194e+03, -5.8673247351e+03
    1538, 4.2120750008e+02, -1.5616947499e+03, -5.8081010431e+03
    1539, 4.4072458891e+02, -1.5562994849e+03, -5.5840873630e+03
    1540, 9.2375774641e+02, -1.3277717710e+03, -4.5755102065e+03
    1541, 8.1870560111e+02, -1.3950008562e+03, -4.3890926767e+03
    1542, -1.4320770160e+03, -7.5197185476e+02, -4.0729347152e+02
    1543, -1.4844472308e+03, -6.4243495304e+02, -2.1676109743e+02
    1544, 1.5723518717e+03, 3.7949419158e+02, -3.3813471129e+03
    1545, 1.5458577330e+03, 4.7605684470e+02, -3.2976001558e+03
    1546, 1.5386090318e+03, 4.9898747218e+02, -1.3056819313e+02
    1547, 1.2739966228e+03, 9.9661369401e+02, -4.8154632308e+03
    1548, 1.2922360712e+03, 9.7284746306e+02, -5.1276890923e+03
    1549, 1.1464233737e+03, 1.1410607776e+03, -5.0033495250e+03
    1550, -1.5726054994e+03, -3.7844179634e+02, -1.9500558417e+03
    1551, -1.5668762482e+03, -4.0150351525e+02, -2.1366628324e+03
    1552, -1.5995280699e+03, -2.4045000211e+02, -2.1530587779e+03
    1553, -1.5283324974e+03, -5.2962819742e+02, -1.9468014263e+03
    1554, -1.6065654585e+03, 1.8775962673e+02, -6.1203043680e+03
    1555, -1.6107107861e+03, 1.4804395800e+02, -6.4037513446e+03
    1556, -1.6171412979e+03, -3.4062775153e+01, -6.2680782869e+03
    1557, 1.6164624457e+03, 5.7925915932e+01, 5.5718880357e+01
    1558, 1.6142830375e+03, -1.0196334996e+02, -3.6379427581e+01
    1559, 1.6070652379e+03, -1.8343274255e+02, 2.1360934282e+02
    1560, -6.8743625401e+02, -1.4641508278e+03, -6.6669557111e+03
    1561, 1.5746414194e+03, -3.6987923736e+02, 5.3871436145e+00
    1562, -1.0071729200e+03, 1.2656654215e+03, -7.1161563848e+03
    1563, 8.6960473826e+02, 1.3638525760e+03, -6.9638671874e+03
    1564, 8.8787673117e+02, 1.3520285353e+03, -7.1701362822e+03
    1565, 1.0236131511e+03, 1.2524066300e+03, -7.1806039893e+03
    1566, 1.6168529500e+03, 4.5747001252e+01, -3.6165375833e+02
    1567, 9.7820370441e+02, -1.2881862298e+03, -1.5210345841e+03
    1568, 9.8267317038e+02, -1.2847800163e+03, -1.8263346838e+03
    1569, 1.2929886539e+03, 9.7184699978e+02, -2.5280727696e+02
    1570, 1.3916502275e+03, 8.2438819396e+02, -3.6581806754e+02
    1571, 1.4635763273e+03, 6.8865853960e+02, -2.3900426090e+02
    1572, -1.6110292231e+03, 1.4453751190e+02, -2.3561563690e+02
    1573, -1.6142503761e+03, -1.0247913599e+02, -2.0097283237e+02
    1574, 1.2836649673e+03, -9.8412931155e+02, -5.2976520901e+03
    1575, 1.1028631924e+03, -1.1832155462e+03, -5.4488074836e+03
    1576, 1.1721632205e+03, -1.1146029044e+03, -5.1702580437e+03
    1577, -1.6168344200e+02, 1.6093988675e+03, -1.1913346920e+03
    1578, -1.2024828147e+03, 1.0818231512e+03, -7.1671557370e+03
    1579, -8.9977464321e+02, 1.3441398147e+03, -5.2710369777e+03
    1580, -6.5674123521e+02, 1.4781736028e+03, -6.5724181184e+03
    1581, -9.7137874715e+02, 1.2933404732e+03, -6.5420889598e+03
    1582, 9.2043464306e+02, 1.3300775608e+03, -6.1566051144e+03
    1583, 1.1074845180e+03, 1.1788911283e+03, -6.1481697869e+03
    1584, 1.0080212948e+03, 1.2649898495e+03, -6.0712113743e+03
    1585, 7.6694908327e+02, 1.4241121282e+03, -6.5106773096e+03
    1586, 5.8608511378e+02, 1.5075843225e+03, -6.5992909841e+03
    1587, 7.1655609146e+02, 1.4501219320e+03, -6.7829160542e+03
    1588, 1.1432893216e+03, 1.1442009339e+03, -5.9610520021e+03
    1589, 6.5203161492e+02, 1.4802570801e+03, 2.7642711492e+02
    1590, 3.7685914651e+02, 1.5729855160e+03, 4.6047695941e+02
    1591, 4.2454874250e+02, 1.5607897409e+03, 2.6117174357e+02
    1592, -8.7346729689e+02, 1.3613820666e+03, -5.0339678531e+03
    1593, -9.3982280887e+01, 1.6147673457e+03, -6.3752762392e+03
    1594, -7.1768045739e+01, 1.6159070510e+03, -6.2586222921e+03
    1595, -2.1931976862e+02, 1.6025620391e+03, -6.4237653358e+03
    1596, -5.5883413745e+02, 1.5178967873e+03, -6.9022704349e+03
    1597, -2.8608568258e+02, 1.5919991307e+03, -6.1816944321e+03
    1598, 4.8944687394e+02, -1.5416705250e+03, -1.4275867422e+03
    1599, -1.4123520372e+03, 7.8839582262e+02, -4.8804021454e+03
    1600, -1.3313318613e+03, 9.1861946700e+02, -4.9381855930e+03
    1601, -1.3579548464e+03, 8.7878602926e+02, -4.6870196806e+03
    1602, -1.0619410761e+03, -1.2200768012e+03, -4.4327188315e+03
    1603, -9.4372677467e+02, -1.3136536929e+03, -4.2826178407e+03
    1604, -9.5444821342e+02, -1.3058847031e+03, -4.5756555262e+03
    1605, -8.2363959463e+02, -1.3920934122e+03, -4.4435381061e+03
    1606, 8.9523824118e+02, -1.3471654470e+03, -1.9452560718e+03
    1607, 4.1094100261e+02, -1.5644276085e+03, 1.7163029207e+02
    1608, 2.5729264778e+02, -1.5969053646e+03, -1.1749267501e+01
    1609, 2.1032221245e+02, -1.6037676942e+03, 2.6730652884e+02
    1610, 1.4995072408e+03, -6.0645221157e+02, 3.9928089831e+02
    1611, 1.3713340114e+03, -8.5775828708e+02, 3.3843658721e+02
    1612, -1.5463761193e+03, -4.7437026444e+02, -3.7927987131e+03
    1613, -1.5040244590e+03, -5.9516105112e+02, -3.8545145705e+03
    1614, 4.9962990140e+02, 1.5384005368e+03, -5.2975087974e+03
    1615, 4.6059864888e+02, 1.5505338225e+03, -5.5456685721e+03
    1616, 6.5543013087e+02, 1.4787554205e+03, -5.4053582830e+03
    1617, 1.0112693661e+03, -1.2623947557e+03, -2.3313748682e+03
    1618, 1.1403401793e+03, -1.1471401507e+03, -2.4668621674e+03
    1619, 9.8874037362e+02, -1.2801166836e+03, -2.5319192103e+03
    1620, 1.4295672856e+03, -7.5673220223e+02, -3.8400455327e+03
    1621, 1.3205323724e+03, -9.3407735407e+02, -3.8560479048e+03
    1622, 9.1173368246e+02, -1.3360568634e+03, -2.2950964456e+02
    1623, 7.3025901276e+02, -1.4432699069e+03, 7.8845821490e+00
    1624, 1.0058274248e+03, -1.2667349531e+03, 9.0256371542e+00
    1625, -1.4368935900e+03, 7.4272677418e+02, -5.1233586342e+03
    1626, -1.5389344570e+03, 4.9798291845e+02, -5.0072036157e+03
    1627, -1.5662358492e+03, 4.0399444887e+02, -5.9526585341e+03
    1628, -1.5626441283e+03, 4.1767161550e+02, -6.2282025401e+03
    1629, -1.4998326756e+03, 6.0564692290e+02, -6.0297664436e+03
    1630, -1.5819454685e+03, 3.3727553220e+02, -6.1067958364e+03
    1631, -1.3066435414e+03, 9.5340909677e+02, -5.0809402110e+03
    1632, 5.4548824899e+01, 1.6165799317e+03, -6.3259119781e+03
    1633, -1.5058483543e+03, 5.9053110329e+02, 2.6050056032e+02
    1634, -1.5485490912e+03, 4.6722795517e+02, 1.7563698654e+02
    1635, 5.2453667514e+01, 1.6166492702e+03, -6.4780861287e+03
    1636, -8.9667706264e+02, 1.3462081917e+03, -7.6678284558e+02
    1637, -9.3677308043e+02, 1.3186214187e+03, -4.4771277142e+02
    1638, -9.8335237150e+02, 1.2842602398e+03, -5.1075577782e+03
    1639, -1.0545134109e+03, 1.2265022284e+03, -4.9263835315e+03
    1640, -1.0867948503e+02, 1.6138447941e+03, -6.5938685766e+03
    1641, 1.3936226996e+03, -8.2104934149e+02, -1.5088671287e+03
    1642, 1.4574271007e+03, -7.0157857442e+02, -1.3180153447e+03
    1643, 1.5548859313e+03, -4.4568597756e+02, -1.5069846942e+03
    1644, 1.2947143823e+03, -9.6954675924e+02, -1.3452418763e+03
    1645, -1.2620480633e+03, 1.0117019996e+03, -4.8514519180e+03
    1646, -1.1897137999e+03, 1.0958500465e+03, -5.0127959799e+03
    1647, 6.0863934115e+02, 1.4986208334e+03, 4.7015857866e+02
    1648, -1.1449866621e+03, 1.1425024261e+03, -4.7057981127e+03
    1649, 6.5116964240e+02, 1.4806364668e+03, -2.6577461048e+03
    1650, 6.6460248240e+02, 1.4746558210e+03, -2.8506797321e+03
    1651, 8.5139508030e+02, 1.3752936658e+03, -2.6705392760e+03
    1652, 4.7250823465e+02, 1.5469460941e+03, -2.7777726677e+03
    1653, 1.3568642168e+03, -8.8046904950e+02, -4.8507609646e+03
    1654, 1.4534161331e+03, -7.0985054350e+02, -4.8925562799e+03
    1655, 1.4406475499e+03, -7.3541885143e+02, -5.0896330541e+03
    1656, 1.5236834948e+03, -5.4285804554e+02, -5.1005225959e+03
    1657, 1.5097449030e+03, 5.8049683696e+02, -6.3812066874e+03
    1658, 1.3569636762e+03, 8.8031575669e+02, -6.4020749620e+03
    1659, 1.4507988980e+03, 7.1518445700e+02, -6.5588834895e+03
    1660, 1.2795247882e+03, 9.8950622351e+02, -6.5836905296e+03
    1661, -9.4229542489e+02, -1.3146807910e+03, -7.0089342245e+02
    1662, -1.1432706933e+03, -1.1442195470e+03, -8.4421465293e+02
    1663, -1.0814137691e+03, -1.2028509924e+03, -5.8039126070e+02
    1664, 1.2020173402e+03, -1.0823403179e+03, -6.8390727561e+03
    1665, 1.2811075383e+03, -9.8745618903e+02, -6.7475796977e+03
    1666, 1.3177421199e+03, -9.3800957107e+02, -6.9439813644e+03
    1667, 6.6178905039e+02, -1.4759205611e+03, -9.3715358734e+02
    1668, 7.9929429165e+02, -1.4062129587e+03, -7.8894285458e+02
    1669, 7.8063473000e+02, -1.4166565104e+03, -2.1700089018e+03
    1670, 9.3974581721e+02, -1.3165044812e+03, -2.0926797210e+03
    1671, -9.5064212237e+02, -1.3086580169e+03, -1.4027915938e+03
    1672, -1.1107301299e+03, -1.1758336738e+03, -1.3898264285e+03
    1673, 8.6477302123e+02, 1.3669213115e+03, -4.1803747265e+03
    1674, 7.5759730626e+02, 1.4291090132e+03, -4.0276758566e+03
    1675, 9.9699791146e+02, 1.2736959663e+03, -4.0301805001e+03
    1676, 1.6173336299e+03, 2.3198696495e+01, 2.2239333376e+02
    1677, 7.9443124877e+02, 1.4089660184e+03, -6.2613850696e+03
    1678, 8.1159505461e+02, 1.3991496408e+03, -6.0143882512e+03
    1679, 6.7175236745e+02, 1.4714125889e+03, -6.1227914600e+03
    1680, -1.3087852210e+03, -9.5046698807e+02, -7.6400169105e+02
    1681, -1.4416567031e+03, -7.3343861384e+02, -6.4780096571e+02
    1682, 7.0382780519e+02, 1.4563422230e+03, -1.3007222248e+03
    1683, 5.2930568226e+02, 1.5284442236e+03, -1.2822616655e+03
    1684, 5.2214294385e+02, 1.5309059397e+03, -1.4601672534e+03
    1685, 3.8593523012e+02, 1.5707833231e+03, -1.4410109844e+03
    1686, 1.2700944180e+03, 1.0015819584e+03, -4.5218885956e+03
    1687, 1.0760740011e+03, 1.2076303218e+03, -4.5142034641e+03
    1688, 1.1735899287e+03, 1.1131005926e+03, -4.6688145775e+03
    1689, 1.1936500506e+03, 1.0915611787e+03, -4.3811603667e+03
    1690, 1.0568708859e+03, 1.2244713882e+03, -4.8047927715e+03
    1691, 1.8471162959e+02, -1.6069187484e+03, -2.4825221536e+02
    1692, 3.8568667038e+02, -1.5708443724e+03, -2.6336134557e+02
    1693, -1.1701099282e+03, 1.1167582576e+03, -1.5434736572e+02
    1694, -1.3519490664e+03, 8.8799773196e+02, -1.5483482944e+02
    1695, -1.2628399680e+03, 1.0107133447e+03, -3.1562608766e+02
    1696, -1.2690416141e+03, 1.0029155655e+03, 1.4135698089e+01
    1697, -8.1568418548e+02, 1.3967696874e+03, -4.5865576310e+03
    1698, -6.4129322995e+02, 1.4849408215e+03, -4.5162704677e+03
    1699, -7.5336572302e+02, 1.4313442414e+03, -4.3893271075e+03
    1700, -1.1356933532e+03, 1.1517407944e+03, -3.9620194134e+03
    1701, -1.3423173193e+03, 9.0249125449e+02, -3.8834578426e+03
    1702, -1.2658474912e+03, 1.0069440794e+03, -4.0900212833e+03
    1703, -1.4923740265e+03, -6.2379965945e+02, 5.6797157832e+02
    1704, -8.6314592229e+02, 1.3679493290e+03, -4.4237451916e+03
    1705, 3.9196724356e+02, 1.5692889887e+03, -5.0891748821e+03
    1706, 5.5561961631e+02, 1.5190763944e+03, -4.9910191235e+03
    1707, 6.7865198657e+02, 1.4682430763e+03, -5.1543057677e+03
    1708, -7.7480578197e+02, 1.4198528974e+03, -4.7160095823e+03
    1709, -1.4902491219e+03, -6.2885912940e+02, -5.4992468112e+02
    1710, -1.5417216389e+03, -4.8928584501e+02, -3.8829584112e+02
    1711, -1.9892886934e+02, -1.6052207185e+03, -1.8681061631e+03
    1712, 2.6034747396e+02, -1.5964101737e+03, -1.3546044359e+03
    1713, 4.0212951055e+02, -1.5667157071e+03, -1.5646780111e+03
    1714, 2.0081505674e+02, -1.6049858451e+03, -1.5463161838e+03
    1715, 1.5189948023e+03, -5.5584264017e+02, -3.8384631825e+03
    1716, 1.4481332919e+03, -7.2056659568e+02, -4.0351327705e+03
    1717, 1.5326230569e+03, -5.1708105319e+02, -4.0533950980e+03
    1718, -1.1009348485e+03, -1.1850100039e+03, 6.3132587045e+02
    1719, -5.4066355179e+02, -1.5244635692e+03, -1.3902634359e+02
    1720, -3.7783913391e+02, -1.5727504058e+03, -5.4519445288e+00
    1721, -4.5939842414e+02, -1.5508898536e+03, -3.5674229912e+02
    1722, -1.0921726090e+03, 1.1930906261e+03, -6.6895552645e+03
    1723, -1.1412234591e+03, 1.1462614302e+03, -6.9823270977e+03
    1724, -9.9749001608e+02, 1.2733106133e+03, -6.8490472259e+03
    1725, -1.1696234229e+03, 1.1172677828e+03, -6.7999855477e+03
    1726, -2.5732912790e+02, -1.5968994865e+03, -4.3005898621e+02
    1727, -2.0755857300e+02, -1.6041277034e+03, -2.3836937130e+02
    1728, -5.3911331493e+02, 1.5250124864e+03, -2.0294366720e+02
    1729, -5.2871105196e+02, 1.5286500167e+03, 7.0123837725e+01
    1730, 8.0119120443e+02, 1.4051330556e+03, -4.8447806742e+02
    1731, 9.6168061393e+02, 1.3005678171e+03, -3.7267374746e+02
    1732, -9.0213680546e+02, -1.3425555610e+03, 1.6806161908e+02
    1733, -8.1093606555e+02, -1.3995316887e+03, -3.8394872460e+01
    1734, 1.3363495550e+03, 9.1130462357e+02, -6.8624991378e+03
    1735, 1.1567266447e+03, 1.1306147528e+03, -6.7729171715e+03
    1736, 1.0267822204e+03, 1.2498097943e+03, -1.1549413409e+02
    1737, -1.6167817097e+03, 4.8199099337e+01, -5.0302568910e+03
    1738, -1.6121748236e+03, 1.3114338714e+02, -4.9135361824e+03
    1739, 2.9321202125e+02, -1.5907020339e+03, -1.7390385890e+03
    1740, 3.7434895038e+02, -1.5735847970e+03, -1.9901531161e+03
    1741, 1.5808091578e+02, -1.6097567127e+03, -1.8972683502e+03
    1742, 5.7341458414e+02, -1.5124489957e+03, -2.0448338526e+03
    1743, 1.5451946596e+03, 4.7820467789e+02, -6.2499700490e+03
    1744, 1.5724373052e+03, 3.7914004185e+02, -6.5463167646e+03
    1745, 1.4292779639e+03, 7.5727851669e+02, -6.1667331367e+03
    1746, -1.5922720649e+03, 2.8456268459e+02, -4.9408741541e+03
    1747, -1.6076967028e+03, 1.7781327749e+02, -3.9581723342e+03
    1748, -1.5996411848e+03, 2.3969632829e+02, -4.1493831866e+03
    1749, -1.5641941437e+03, 4.1182876396e+02, -3.8770630832e+03
    1750, -2.0988507809e+02, -1.6038249605e+03, -7.0231747254e+03
    1751, -1.6469648969e+02, -1.6090933212e+03, -7.2343496917e+03
    1752, -1.6839760510e+02, -1.6087101966e+03, -6.7810688334e+03
    1753, 5.7155461026e+02, 1.5131528599e+03, -6.2128145382e+03
    1754, -1.5531383206e+03, 4.5173842778e+02, -4.0871723243e+03
    1755, -1.2644956744e+03, 1.0086411351e+03, -6.7662170074e+03
    1756, -1.3470695535e+03, 8.9538252603e+02, -6.5580582470e+03
    1757, -1.3958466827e+03, 8.1726268010e+02, -6.7388152072e+03
    1758, -1.2875022029e+03, 9.7910383898e+02, -6.9553197298e+03
    1759, -1.2103775807e+03, -1.0729829273e+03, -6.3495967783e+03
    1760, -1.0373174010e+03, -1.2410797153e+03, -6.3683824176e+03
    1761, -1.2187745019e+03, -1.0634354534e+03, -6.5654742250e+03
    1762, -1.0532557543e+03, -1.2275824070e+03, -6.5827232175e+03
    1763, 7.1560911199e+02, -1.4505894832e+03, -4.1842357615e+03
    1764, 1.1069340139e+03, 1.1794080459e+03, -2.6704892261e+02
    1765, 5.7950588773e+02, -1.5101255498e+03, -4.2723058081e+03
    1766, -7.5375495943e+02, -1.4311393053e+03, -6.7964525969e+03
    1767, -8.7061623536e+02, -1.3632071085e+03, -6.6070778325e+03
    1768, -8.3776420066e+02, -1.3836391849e+03, -6.3916651745e+03
    1769, 5.6213916400e+02, -1.5166759081e+03, -1.2467598833e+02
    1770, 1.1856795202e+03, -1.1002137635e+03, -2.3511780282e+03
    1771, -8.4550539374e+02, 1.3789223615e+03, -6.3898598572e+03
    1772, -7.2781266671e+02, 1.4445050959e+03, -6.2456300017e+03
    1773, 1.1786408045e+03, 1.1077509214e+03, -3.7229678124e+03
    1774, 1.2801420464e+03, 9.8870753569e+02, -3.9059682255e+03
    1775, 1.3405626754e+03, 9.0509555485e+02, -3.6645020974e+03
    1776, -8.5309885260e+02, 1.3742374604e+03, -6.0768473857e+03
    1777, 7.8214892561e+02, -1.4158210721e+03, -3.1965334616e+03
    1778, 8.4810462169e+02, -1.3773252342e+03, -2.9303183537e+03
    1779, 5.0000183970e+02, -1.5382796918e+03, -3.1975767542e+03
    1780, -4.8095604205e+02, -1.5443404857e+03, -9.2072868743e+02
    1781, -5.6170145197e+02, -1.5168380694e+03, -7.0060353945e+02
    1782, -3.8927379987e+02, -1.5699592857e+03, -5.7529521604e+02
    1783, -2.5266156942e+02, -1.5976446355e+03, -8.1249769735e+02
    1784, 2.2371647973e+02, -1.6019541775e+03, 5.0688217996e+02
    1785, 4.6715656779e+02, -1.5485706284e+03, 6.5738330615e+02
    1786, -1.3950619658e+03, 8.1860146681e+02, -6.4292394341e+03
    1787, -1.4497610239e+03, 7.1728601244e+02, -6.2525342852e+03
    1788, 9.3130438756e+02, -1.3224894660e+03, -3.6011966754e+03
    1789, 8.4409550472e+02, -1.3797858634e+03, -3.4390268398e+03
    1790, 1.0871962958e+03, -1.1976270139e+03, -3.5133949067e+03
    1791, 1.5465968687e+02, -1.6100890135e+03, -4.1372440087e+03
    1792, 1.9368473978e+02, -1.6058619092e+03, -3.9349388061e+03
    1793, 9.3598278294e+02, 1.3191825044e+03, -4.9166346523e+03
    1794, 8.3385487006e+02, 1.3859986673e+03, -4.7833743567e+03
    1795, 8.1624420713e+02, 1.3964424959e+03, -5.0297242365e+03
    1796, 7.0524591700e+02, 1.4556560193e+03, -4.8869416697e+03
    1797, 1.0046627764e+03, 1.2676588483e+03, -5.0228002483e+03
    1798, 7.4956149430e+02, -1.4333400909e+03, -3.5452512980e+03
    1799, 5.9796679918e+02, -1.5029111607e+03, -3.7016798842e+03
    1800, 6.2539163852e+02, -1.4917075948e+03, -3.5067081695e+03
    1801, 7.7215510895e+02, -1.4212961471e+03, -3.6799158177e+03
    1802, 4.1105127444e+02, -1.5643986384e+03, -3.6978412606e+03
    1803, 1.4382187914e+03, 7.4015738740e+02, -3.7784239750e+03
    1804, -6.9199040707e+02, 1.4620039420e+03, -3.9301786719e+02
    1805, -4.6066572325e+02, 1.5505138959e+03, -3.8253452231e+02
    1806, -7.4524025821e+02, 1.4355915880e+03, -1.0159946927e+02
    1807, -1.1045317561e+03, 1.1816580934e+03, 6.5879177503e+02
    1808, 1.8125868064e+02, -1.6073118990e+03, -3.0635321484e+03
    1809, 1.7815025926e+02, -1.6076593965e+03, -2.9017869284e+03
    1810, 7.0173405386e+02, -1.4573522456e+03, -3.3289020802e+03
    1811, 2.6008778904e+02, -1.5964525023e+03, -3.3612573739e+03
    1812, 2.9780585445e+02, -1.5898483962e+03, -3.1777428495e+03
    1813, 4.1482740616e+02, -1.5634015713e+03, -3.4484444671e+03
    1814, 1.0885449915e+03, 1.1964012920e+03, -5.2394686664e+03
    1815, 9.4346115951e+02, 1.3138444697e+03, -5.1484119086e+03
    1816, -9.6677953380e+02, 1.2967820106e+03, -1.5197030998e+02
    1817, -1.0617012123e+03, 1.2202855346e+03, -3.0964240969e+02
    1818, -8.3540687577e+02, 1.3850637537e+03, -2.7258156625e+02
    1819, 9.1485761128e+02, 1.3339197131e+03, -6.4097993258e+03
    1820, 1.0303023349e+03, 1.2469095190e+03, -6.2913523986e+03
    1821, -1.5527185766e+03, -4.5317907252e+02, -6.8121712437e+03
    1822, -1.5593470208e+03, -4.2981754111e+02, -6.5275653226e+03
    1823, -1.4889527417e+03, -6.3192245023e+02, -6.7197870394e+03
    1824, -1.5431692365e+03, -4.8470089481e+02, -6.9769557469e+03
    1825, -1.5901291571e+03, -2.9630307752e+02, -7.0121087049e+03
    1826, 1.5600474180e+02, -1.6099592450e+03, -2.0760945987e+03
    1827, 1.5453114868e+03, -4.7782701768e+02, 6.3351846795e+02
    1828, 1.5561263871e+03, -4.4133537959e+02, 4.1640428586e+02
    1829, 1.2062895688e+03, -1.0775767844e+03, -6.0661965902e+03
    1830, 1.1305978754e+03, -1.1567431410e+03, -6.2701016775e+03
    1831, 1.0194315141e+03, -1.2558127401e+03, -6.1783212481e+03
    1832, 9.9422146662e+02, -1.2758643836e+03, -6.4929072511e+03
    1833, -2.7701041857e+02, 1.5936033001e+03, -6.7566522960e+03
    1834, -1.5495843930e+03, 4.6378277117e+02, -7.3009236603e+00
    1835, -1.4582071859e+03, 6.9995575064e+02, 9.3535999134e-01
    1836, -1.3628219359e+03, 8.7121904314e+02, 1.9370390195e+02
    1837, -8.8824223477e+02, -1.3517884385e+03, -6.7915797151e+03
    1838, 1.0573523692e+03, -1.2240556431e+03, -7.1806665714e+03
    1839, 9.2158493376e+02, -1.3292808055e+03, -7.0906466420e+03
    1840, 1.0736445151e+03, -1.2097907692e+03, -6.9706710124e+03
    1841, 9.2395514527e+02, -1.3276344149e+03, -6.9414436534e+03
    1842, 5.6981136958e+02, -1.5138101774e+03, -6.4697172244e+03
    1843, 5.9395682822e+02, -1.5045004275e+03, -6.1417480315e+03
    1844, 7.0998177322e+02, -1.4533520330e+03, -6.3771216305e+03
    1845, 5.3827221052e+02, 1.5253095677e+03, -3.9426413950e+03
    1846, 6.0148048677e+02, 1.5015083996e+03, -4.1133301772e+03
    1847, 4.4292186334e+02, -1.5556755680e+03, -6.3729187657e+03
    1848, 2.3230419452e+02, -1.6007313988e+03, -6.2181330970e+03
    1849, 8.2224058923e+02, -1.3929201928e+03, -6.0558737113e+03
    1850, -1.4468128725e+03, -7.2321418818e+02, -6.5407015487e+03
    1851, -1.4877657747e+03, -6.3471194219e+02, -6.3459544996e+03
    1852, 1.1824008946e+03, -1.1037365512e+03, -7.1770236105e+03
    1853, 1.6661427981e+02, -1.6088958735e+03, 6.9431418932e+02
    1854, -7.8307950920e+02, -1.4153065860e+03, -1.9611750245e+03
    1855, -6.1472345716e+02, -1.4961354622e+03, -1.9411256571e+03
    1856, 1.1989245058e+03, -1.0857652966e+03, -6.9793233105e+03
    1857, -1.2868573703e+03, 9.7995120213e+02, -6.0870422490e+03
    1858, -1.3611136081e+03, 8.7388557364e+02, -6.1492107550e+03
    1859, -2.5389447678e+02, -1.5974491681e+03, -3.8684865259e+03
    1860, -4.2361103700e+02, -1.5610445027e+03, -3.6355102590e+03
    1861, 8.0357560142e+02, 1.4037708156e+03, -7.4983870892e+02
    1862, 7.7716561478e+02, 1.4185626025e+03, -9.5993284565e+02
    1863, 9.5296871795e+02, 1.3069647557e+03, -1.0180946808e+03
    1864, 1.0863615579e+03, 1.1983842520e+03, -6.9887858644e+03
    1865, 8.8233519594e+02, 1.3556514493e+03, -1.1937039156e+03
    1866, 1.5814861657e+03, -3.3942268279e+02, -3.8311555470e+03
    1867, 1.1031548427e+03, 1.1829436348e+03, -1.1207603300e+03
    1868, 3.8489984457e+02, -1.5710373514e+03, -4.4321589424e+03
    1869, 3.9963229017e+02, -1.5673545491e+03, -4.1371212567e+03
    1870, 6.1299866588e+02, -1.4968429729e+03, -4.5103119350e+03
    1871, 1.2635560101e+03, -1.0098180328e+03, -2.5651880065e+03
    1872, 1.0725417427e+03, -1.2107685411e+03, -2.6308347402e+03
    1873, -1.0151220031e+03, -1.2592988402e+03, -1.5179722762e+02
    1874, 1.1786353971e+03, -1.1077566748e+03, -6.6053404454e+03
    1875, 1.2704640987e+03, -1.0011129926e+03, -6.3959499852e+03
    1876, 1.3376599971e+03, -9.0937999873e+02, -6.1618974208e+03
    1877, 1.2819997775e+03, -9.8629753148e+02, -3.6740944079e+03
    1878, 1.2447374321e+03, -1.0329254451e+03, -3.4740039915e+03
    1879, 1.1462409690e+03, -1.1412440102e+03, -3.7240064415e+03
    1880, -1.8738445690e+02, -1.6066092603e+03, -1.0719023586e+03
    1881, -4.1966872106e+02, -1.5621089637e+03, -1.1374964267e+03
    1882, 8.8663077251e+02, 1.3528459348e+03, -6.6741607921e+03
    1883, 9.7195455536e+02, 1.2929078050e+03, -6.7972723318e+03
    1884, -1.5703129985e+03, 3.8784447501e+02, -3.6663308660e+03
    1885, -1.4900680699e+03, 6.2928800811e+02, -3.7981672560e+03
    1886, -1.6141737815e+03, 1.0367860504e+02, -3.6954254876e+03
    1887, 6.1857887960e+02, -1.4945455563e+03, -2.4741126949e+03
    1888, 6.0417111536e+02, -1.5004277768e+03, -2.2113974710e+03
    1889, 8.2572421925e+02, -1.3908579236e+03, -2.3930570186e+03
    1890, 4.6576579808e+02, -1.5489895001e+03, -2.3884267496e+03
    1891, 1.2340644229e+03, 1.0456535039e+03, -6.2614607299e+03
    1892, 1.2818161963e+03, 9.8653610626e+02, -6.0571159058e+03
    1893, 1.1516030167e+03, 1.1358330608e+03, -6.4307980277e+03
    1894, 8.8704451566e+02, -1.3525746845e+03, -2.6034132456e+03
    1895, 1.2991493290e+03, -9.6359601029e+02, 1.5584017244e+02
    1896, 1.4861760193e+03, -6.3842547700e+02, 1.9422664400e+02
    1897, 8.7432786702e+02, -1.3608295378e+03, 1.5830160307e+02
    1898, 6.2321375841e+02, -1.4926187930e+03, 1.7300133170e+02
    1899, -4.3441481987e+02, -1.5580725318e+03, -5.3534214954e+03
    1900, -2.4149205671e+02, -1.5993710753e+03, -5.0171110514e+03
    1901, -1.8387932259e+02, -1.6070142018e+03, -5.2285525336e+03
    1902, -1.7895541124e+02, -1.6075699707e+03, -5.8325635570e+02
    1903, -6.2416757567e+02, 1.4922201873e+03, -5.8814919034e+03
    1904, -7.1941346806e+02, 1.4487064961e+03, -5.9659838891e+03
    1905, -6.0136812855e+02, 1.5015534036e+03, -6.1158011234e+03
    1906, 1.4102321495e+03, -7.9218150357e+02, -4.0707688379e+01
    1907, 1.4955926573e+03, -6.1604289893e+02, -2.9735845469e+02
    1908, 1.5130174245e+03, -5.7191303813e+02, -1.1754119383e+02
    1909, 1.5606150299e+03, -4.2519052010e+02, -3.6997494974e+02
    1910, 1.4283800147e+03, -7.5897087144e+02, -2.4233198371e+02
    1911, 4.2562922346e+02, -1.5604954387e+03, -1.1593758940e+03
    1912, 1.8815697963e+02, -1.6065189700e+03, -1.0851823038e+03
    1913, -5.5529483735e+02, 1.5191951467e+03, -5.1496470402e+02
    1914, -4.2753608046e+02, 1.5599740863e+03, -6.3457326967e+02
    1915, 1.2767948339e+03, 9.9302628476e+02, -4.1562460002e+03
    1916, 1.4073831879e+03, 7.9723196893e+02, -3.9911369772e+03
    1917, 1.1303468928e+03, 1.1569883975e+03, -4.1717022802e+03
    1918, 1.2700182455e+03, 1.0016785443e+03, -4.3014921120e+03
    1919, -6.0222318778e+02, -1.5012106721e+03, -4.4330481556e+03
    1920, -6.8890437595e+02, -1.4634606284e+03, -4.3086154367e+03
    1921, -1.2381920975e+03, -1.0407624992e+03, -2.7443176460e+03
    1922, -1.0798421542e+03, -1.2042620861e+03, -2.6903552861e+03
    1923, -1.0509878999e+03, -1.2295245765e+03, -2.9195160153e+03
    1924, -9.1739631752e+02, -1.3321750060e+03, 6.3801797117e+02
    1925, -1.0492003884e+03, -1.2310502812e+03, 3.6113229799e+02
    1926, -9.0185264571e+02, -1.3427464598e+03, 4.6149239117e+02
    1927, 3.8231532879e+02, -1.5716682981e+03, -6.0513279984e+03
    1928, -8.7244266364e+02, -1.3620389307e+03, -2.8882554803e+03
    1929, -3.5830793172e+02, -1.5773147042e+03, -7.2087784026e+03
    1930, 1.8295722149e+02, -1.6071194433e+03, -7.2259337391e+03
    1931, -6.5334813188e+02, 1.4796764743e+03, -7.1686048928e+03
    1932, -1.6022021788e+03, 2.2193338681e+02, -3.4269030298e+03
    1933, -1.6171354642e+03, 3.4338616240e+01, -3.3426180799e+03
    1934, -1.6134659206e+03, -1.1416642673e+02, -3.5274170021e+03
    1935, -1.0048448680e+03, -1.2675145133e+03, -7.1807687048e+03
    1936, 7.9995661510e+02, -1.4058362863e+03, -7.1397940314e+03
    1937, -1.5922388441e+03, -2.8474850888e+02, -3.3909282071e+03
    1938, 1.7011647992e+02, -1.6085293386e+03, -6.4507564896e+03
    1939, -6.2529055728e+02, 1.4917499687e+03, -6.3600419897e+03
    1940, 1.5283257607e+03, -5.2964763679e+02, 1.7257201158e+01
    1941, 8.2048260304e+02, -1.3939564369e+03, -3.8754910611e+03
    1942, 9.9569971096e+02, -1.2747110793e+03, -3.7966752931e+03
    1943, -8.7400632132e+02, 1.3610360760e+03, -4.8516500796e+03
    1944, -6.9272669003e+02, 1.4616552203e+03, -4.9241304754e+03
    1945, -5.8410350642e+02, -1.5083531893e+03, -3.4406907268e+03
    1946, -7.4716071789e+02, -1.4345930125e+03, -5.8735202223e+03
    1947, -5.5350008106e+02, -1.5198499631e+03, -5.6971685747e+03
    1948, -4.7378415283e+02, -1.5465557948e+03, -5.8814357151e+03
    1949, 1.3561917746e+03, -8.8150446422e+02, -3.0642415643e+03
    1950, 3.5508349026e+02, 1.5780437145e+03, -6.5783243039e+02
    1951, 5.2626337979e+02, 1.5294943952e+03, -7.4060143142e+02
    1952, -2.3661181363e+02, 1.6001003405e+03, -7.1852869198e+03
    1953, -4.0854358827e+02, 1.5650553941e+03, -7.0277288870e+03
    1954, -2.5130383800e+02, 1.5978587644e+03, -6.9961691077e+03
    1955, -1.5815424596e+03, 3.3916028454e+02, 6.2707690835e+02
    1956, -1.6033236506e+03, 2.1368088713e+02, 7.1980642026e+02
    1957, -1.6033817143e+03, -2.1324476161e+02, 7.2153011104e+02
    1958, -1.5817955097e+03, -3.3797812883e+02, 6.2543403756e+02
    1959, 2.4808333983e+02, 1.5983619448e+03, -8.0596739149e+02
    1960, -4.3419002984e+02, 1.5581351893e+03, 3.3973561881e+02
    1961, -4.2887179322e+01, 1.6169313343e+03, -6.9736083931e+03
    1962, -1.1235651038e+01, 1.6174609764e+03, -7.1757223209e+03
    1963, 3.1900224289e+01, 1.6171854024e+03, -6.7398846266e+03
    1964, 1.1783316284e+03, -1.1080797912e+03, -2.7654352784e+03
    1965, 1.1960802262e+03, -1.0888977649e+03, -3.0308855167e+03
    1966, 7.8156006245e+02, 1.4161462208e+03, 6.7397966617e+02
    1967, -1.5451269620e+03, 4.7842337035e+02, 4.5769750924e+02
    1968, 3.1877564185e+02, 1.5857768885e+03, 6.6421435538e+02
    1969, 5.5585288063e+02, 1.5189910550e+03, 6.6835315634e+02
    1970, 1.4981791666e+03, 6.0972570448e+02, -2.6393336483e+03
    1971, 1.3823316705e+03, 8.3991987881e+02, -2.7595808083e+03
    1972, 1.4719624299e+03, 6.7054668373e+02, -2.8201479362e+03
    1973, -1.9000655075e+02, -1.6063012671e+03, 7.0957909856e+02
    1974, -2.5054535891e+02, -1.5979778700e+03, 4.6392376460e+02
    1975, 1.4163107985e+03, 7.8126178207e+02, -2.5763355064e+03
    1976, 1.2508010127e+03, -1.0255745105e+03, -4.6141742386e+03
    1977, 1.1330191767e+03, -1.1543716018e+03, -4.6102713218e+03
    1978, 1.2350894818e+03, -1.0444425413e+03, -4.4183847049e+03
    1979, 1.2246140742e+03, -1.0567055499e+03, -4.8134644793e+03
    1980, -1.4510563639e+03, 7.1466193314e+02, -4.6364116946e+03
    1981, -8.1982425227e+01, 1.6154210386e+03, -6.8273311354e+03
    1982, 3.4634985083e+02, 1.5799835540e+03, -3.9826457049e+03
    1983, -1.4880017845e+03, 6.3415844958e+02, 5.8011771157e+02
    1984, -1.4001887335e+03, 8.0980106235e+02, 6.3898044771e+02
    1985, 4.0912200753e+02, 1.5649042888e+03, -4.1715356712e+03
    1986, -6.2479147060e+02, -1.4919590706e+03, -3.5981809640e+03
    1987, 6.6725128252e+02, 1.4734591871e+03, 8.7091590723e+01
    1988, 4.5579843130e+02, 1.5519516874e+03, 6.3725188166e+01
    1989, -1.5115429943e+02, 1.6104218788e+03, 6.5481865140e+02
    1990, -1.5473869565e+03, -4.7106247661e+02, 4.5581042489e+02
    1991, -1.3744004373e+03, 8.5283626098e+02, 4.7240351546e+02
    1992, 6.4496582833e+02, 1.4833493622e+03, -7.0953961913e+03
    1993, -1.2723000280e+03, 9.9877869863e+02, 6.4760793633e+02
    1994, -1.1246454117e+03, 1.1625312675e+03, -5.2003026949e+03
    1995, 8.9440892738e+02, 1.3477161870e+03, -1.8463650471e+03
    1996, 1.0438063263e+03, 1.2356272104e+03, -1.7913049546e+03
    1997, 9.9139713082e+02, 1.2780602408e+03, -1.6715486609e+03
    1998, 1.3561704802e+03, 8.8153722474e+02, -7.1085958174e+03
    1999, 1.2076787438e+03, 1.0760196568e+03, -7.0127560170e+03
    2000, 2.3747528244e+02, -1.5999724186e+03, -7.0562382883e+03
    2001, -1.3537375184e+03, -8.8526887507e+02, -6.9717192702e+03
    2002, -1.3603992016e+03, -8.7499729266e+02, -6.7590530922e+03
    2003, -1.2086442337e+03, -1.0749350521e+03, -6.9782196108e+03
    2004, 1.1393590976e+03, 1.1481145834e+03, -1.4055110292e+03
    2005, 1.0525934006e+03, 1.2281503910e+03, -1.5600146809e+03
    2006, 1.1587178448e+03, 1.1285739701e+03, -1.6740078676e+03
    2007, -1.2596258982e+03, 1.0147161409e+03, -5.2757417772e+03
    2008, -1.4357053097e+03, 7.4502114984e+02, 3.7653227760e+02
    2009, -1.2190668983e+03, -1.0631002528e+03, -6.7730405224e+03
    2010, 9.3230347447e+02, -1.3217853387e+03, 6.5447054012e+02
    2011, -1.1494128559e+03, 1.1380493560e+03, 1.5232217923e+02
    2012, 1.1453772113e+03, -1.1421108939e+03, -2.1411320736e+03
    2013, 9.8429249546e+02, -1.2835398449e+03, -3.2126400900e+03
    2014, 1.0869688444e+03, -1.1978334530e+03, -2.9450414637e+03
    2015, 1.6108902667e+03, 1.4607805715e+02, -1.0656036682e+03
    2016, 1.6156879281e+03, -7.6542596332e+01, -1.0654066921e+03
    2017, 1.6147227502e+03, 9.4745395819e+01, -8.5273189105e+02
    2018, 1.4651240111e+03, 6.8535967353e+02, -4.2711985131e+03
    2019, 1.4929970393e+03, 6.2230707112e+02, -4.0696513180e+03
    2020, 1.5170209986e+03, 5.6120721643e+02, -3.8671330119e+03
    2021, -1.5816445663e+03, -3.3868379925e+02, -4.3783520621e+03
    2022, -1.5187578004e+03, -5.5648988655e+02, -4.4583537491e+03
    2023, -1.2994968785e+03, -9.6312725684e+02, -4.2047134928e+03
    2024, -1.3747062703e+03, -8.5234319410e+02, -4.3732123770e+03
    2025, -8.0861358985e+02, -1.4008748382e+03, -7.1673824928e+03
    2026, -9.2563618160e+02, -1.3264629317e+03, -5.6773376629e+03
    2027, -1.0086892795e+03, -1.2644572699e+03, -5.8574059142e+03
    2028, -1.1287002133e+03, -1.1585948724e+03, -5.6673020822e+03
    2029, 3.0316834211e+02, -1.5888345434e+03, -2.8001244457e+03
    2030, 2.3132623534e+02, -1.6008730190e+03, -2.6374532761e+03
    2031, -8.6433414372e+02, -1.3671988656e+03, -6.9692757519e+03
    2032, -1.2143808950e+03, -1.0684499482e+03, -5.7520664625e+03
    2033, 3.8341353242e+02, -1.5714007487e+03, -4.6936399802e+03
    2034, 1.9981901912e+02, -1.6051101550e+03, -4.6162184530e+03
    2035, 5.5668653997e+02, 1.5186857299e+03, -2.1197396736e+03
    2036, 8.8277727982e+02, -1.3553636133e+03, -4.8265703753e+03
    2037, 7.7935809021e+02, -1.4173592407e+03, -4.7151486777e+03
    2038, 1.0443202530e+03, -1.2351928834e+03, -4.7631155546e+03
    2039, 1.3440107771e+03, -8.9996737770e+02, -4.0300072374e+03
    2040, -1.3573532655e+03, -8.7971493256e+02, -6.5499621358e+03
    2041, -1.2526744256e+03, 1.0232854116e+03, 3.8509254839e+02
    2042, 1.4456579789e+03, 7.2551999140e+02, -7.1999091280e+03
    2043, 4.7042781356e+02, 1.5475800213e+03, -2.3050288439e+03
    2044, 1.6158593585e+03, -7.2833945073e+01, -1.2825243840e+03
    2045, 1.2042394788e+03, -1.0798673658e+03, -3.9046693254e+03
    2046, 1.2522157386e+03, -1.0238466652e+03, -4.0292576547e+03
    2047, 1.3519050289e+03, -8.8806477404e+02, -4.2061631013e+03
    2048, 1.6060292702e+03, 1.9229205196e+02, -1.3498321574e+03
    2049, 2.8539138467e+02, 1.5921237413e+03, -3.4099832952e+03
    2050, 2.1247896549e+02, 1.6034833767e+03, -3.6117274769e+03
    2051, 4.4399446795e+02, 1.5553697832e+03, -3.4891736197e+03
    2052, 1.5996261332e+03, 2.3979675573e+02, -4.2035550166e+03
    2053, 1.6134997729e+03, 1.1368699544e+02, -4.4727397988e+03
    2054, 1.6173428853e+03, 2.2544212186e+01, -4.2605059350e+03
    2055, 1.6160347593e+03, -6.8832453548e+01, -4.5434919613e+03
    2056, 1.5860560671e+03, 3.1738368264e+02, -4.4127668450e+03
    2057, 1.5654221162e+03, 4.0713615436e+02, -4.6082377211e+03
    2058, 1.9093960668e+02, -1.6061906227e+03, -4.3606526367e+03
    2059, -2.5342121833e+02, -1.5975243147e+03, -5.7099679507e+03
    2060, 1.4554987167e+03, -7.0557050371e+02, -2.0180827081e+03
    2061, 1.3749164470e+03, -8.5200411608e+02, -2.1505352184e+03
    2062, 1.3876927592e+03, -8.3103252402e+02, -1.8472384790e+03
    2063, 1.2893377253e+03, -9.7668545611e+02, -1.9904377456e+03
    2064, 1.4368455929e+03, 7.4281962281e+02, -1.7378327299e+03
    2065, 1.4902445201e+03, 6.2887003454e+02, -1.5814410865e+03
    2066, 6.6263773854e+02, -1.4755397241e+03, -5.4111525505e+03
    2067, -5.2329792582e+00, 1.6174915350e+03, -1.3131650080e+03
    2068, -2.4335261133e+02, 1.5990890396e+03, -1.3064811188e+03
    2069, -1.5554515868e+02, 1.6100037123e+03, -1.4799369886e+03
    2070, 1.5194128118e+03, 5.5469897890e+02, -7.0619279199e+03
    2071, 1.5451904438e+03, 4.7821829992e+02, -6.8488116584e+03
    2072, 1.4528630070e+03, 7.1098194979e+02, -6.8957405039e+03
    2073, 5.2578911122e+02, -1.5296574978e+03, -4.7368830753e+03
    2074, 3.9971295511e+02, -1.5673339796e+03, -3.8572208380e+03
    2075, 5.8524914227e+02, -1.5079090462e+03, -3.9459001830e+03
    2076, -1.4509740395e+03, -7.1482906112e+02, -8.3751039536e+02
    2077, 5.9367487734e+01, 1.6164101433e+03, -3.3728271980e+03
    2078, 4.6189343493e+02, 1.5501486073e+03, -3.2363077522e+03
    2079, -1.5887539147e+03, 3.0359059374e+02, -7.0513190538e+03
    2080, -1.5922573070e+03, 2.8464524980e+02, -7.1887437430e+03
    2081, -7.4505090869e+02, -1.4356898667e+03, -8.1464460459e+02
    2082, -9.5190716940e+02, -1.3077381201e+03, -9.2230403643e+02
    2083, 1.0765343863e+03, -1.2072199323e+03, -1.9761125948e+03
    2084, -8.1889104033e+02, -1.3948920080e+03, -6.0808565381e+02
    2085, 1.5620940009e+03, -4.1972441247e+02, -5.9403587619e+03
    2086, 1.5292964921e+03, -5.2683820020e+02, -5.7440361607e+03
    2087, 1.5950801398e+03, -2.6837585125e+02, -5.7115469961e+03
    2088, 9.7747425627e+02, -1.2887398218e+03, -2.7879708969e+03
    2089, -1.4070155943e+03, 7.9788054708e+02, -8.0350820970e+02
    2090, -1.3577715717e+03, 8.7906917200e+02, -4.5876942593e+02
    2091, -1.3743926113e+03, 8.5284887286e+02, -9.5093571253e+02
    2092, -6.4547312839e+02, -1.4831286831e+03, -4.8368505743e+02
    2093, 4.5349736631e+02, 1.5526256435e+03, -5.6947536185e+03
    2094, -3.9037195679e+02, 1.5696865883e+03, -1.4984937918e+03
    2095, 1.3694463771e+03, -8.6076876701e+02, -4.3936534469e+03
    2096, 1.4525112263e+03, -7.1170034949e+02, -4.2262619362e+03
    2097, -1.6174359171e+03, 1.4398053404e+01, -5.8755560801e+03
    2098, -1.6023288652e+03, -2.2101687237e+02, -5.8390205748e+03
    2099, -1.6002687831e+03, -2.3546989574e+02, -6.0690780256e+03
    2100, -1.5513877819e+03, -4.5771410325e+02, -6.0616167667e+03
    2101, -1.6024731556e+03, 2.1996826016e+02, -5.9126709754e+03
    2102, 1.1050484027e+03, -1.1811749565e+03, 4.7825381303e+02
    2103, 1.6075255947e+03, -1.7935359566e+02, -2.5526594716e+03
    2104, 1.5857668043e+03, -3.1882580256e+02, -2.5875941482e+03
    2105, 1.6089764079e+03, -1.6583476330e+02, -2.4068301832e+03
    2106, 1.5668188879e+03, -4.0172729884e+02, -2.3658643429e+03
    2107, 1.1627905942e+03, 1.1243772873e+03, -5.7491140311e+03
    2108, 9.9973342404e+02, 1.2715499718e+03, -5.6579285947e+03
    2109, 9.9111444773e+02, 1.2782794692e+03, -5.8735038836e+03
    2110, 7.6985568829e+02, 1.4225429587e+03, -5.7786784193e+03
    2111, 1.1894282898e+03, 1.0961599306e+03, -5.5368380707e+03
    2112, 1.0349707922e+03, 1.2430372920e+03, -5.4463490085e+03
    2113, 1.0402381336e+03, -1.2386326636e+03, -4.9959277908e+03
    2114, 8.6468908069e+02, -1.3669744122e+03, -4.9833842797e+03
    2115, 6.1684636295e+02, -1.4952614536e+03, -4.9387362980e+03
    2116, 1.6149737175e+03, -9.0366707281e+01, -5.8177285934e+03
    2117, 1.3147446952e+03, 9.4220625998e+02, -2.5214688477e+03
    2118, 1.2724559584e+03, 9.9858003387e+02, -2.7091473767e+03
    2119, -8.1157642749e+02, -1.3991604455e+03, -6.1495544455e+03
    2120, 1.1921715197e+03, 1.0931757944e+03, -2.4854185025e+03
    2121, -6.4118150320e+02, -1.4849890673e+03, -5.4949688557e+03
    2122, -7.6344420253e+02, -1.4259941093e+03, -5.6367698240e+03
    2123, 1.4239106572e+03, 7.6732306774e+02, -5.8823902621e+03
    2124, 1.5276206406e+03, 5.3167793668e+02, -6.0874409364e+03
    2125, 1.5120967733e+03, 5.7434275323e+02, -5.8820140673e+03
    2126, -6.7659906682e+02, -1.4691902371e+03, -1.0267604594e+03
    2127, -6.1220990308e+02, -1.4971657505e+03, -1.2332839586e+03
    2128, 9.9987352895e+02, 1.2714398044e+03, -2.6697280366e+03
    2129, 1.1464867358e+03, 1.1409971142e+03, -2.6751491432e+03
    2130, 1.0503216770e+03, 1.2300937463e+03, -2.4677146916e+03
    2131, -1.0565059656e+03, -1.2247862649e+03, -6.7826784846e+03
    2132, -1.3451646964e+03, -8.9824172116e+02, -5.1268852195e+03
    2133, -1.2796466066e+03, -9.8934868083e+02, -4.9505235494e+03
    2134, -1.2386903911e+03, -1.0401693924e+03, -5.2370030187e+03
    2135, -1.1526027406e+03, -1.1348185636e+03, -5.0701287150e+03
    2136, -4.2540752141e+02, -1.5605558916e+03, -5.5945794989e+03
    2137, 1.5121973304e+03, 5.7407794251e+02, -3.4301945739e+03
    2138, -1.6028755631e+03, -2.1701654156e+02, -6.7021417251e+03
    2139, -1.6174795848e+03, 8.1266729380e+00, -6.8760450204e+03
    2140, -1.6098741682e+03, 1.5688024930e+02, -6.7002477287e+03
    2141, 1.4754706818e+03, 6.6279145833e+02, -3.5861581068e+03
    2142, 4.9106033048e+02, 1.5411573579e+03, -4.3619336669e+03
    2143, 5.6159580925e+02, 1.5168771859e+03, -4.5515691638e+03
    2144, 6.8917661996e+02, 1.4633324422e+03, -4.2891225449e+03
    2145, 3.7647252364e+02, 1.5730780937e+03, -4.5966930703e+03
    2146, 1.4426177537e+03, 7.3154648985e+02, -2.9966358189e+03
    2147, 1.4970931635e+03, 6.1238738540e+02, -3.1816846218e+03
    2148, 1.5199048729e+03, 5.5334928148e+02, -3.0584709330e+03
    2149, -9.0841012315e+02, -1.3383188328e+03, -3.9965024030e+02
    2150, 1.0981127864e+03, -1.1876255969e+03, -1.6758533277e+03
    2151, 1.4722313112e+03, 6.6995613015e+02, -3.3505093959e+03
    2152, -1.4629896286e+03, 6.8990404895e+02, -4.4862997194e+03
    2153, -1.3720846788e+03, 8.5655699421e+02, -4.4747573229e+03
    2154, 1.3779139213e+02, -1.6116202351e+03, -2.4773900438e+03
    2155, 3.6557811746e+02, -1.5756455471e+03, -2.4868444342e+03
    2156, 1.5753789681e+03, 3.6672517908e+02, 4.1111052080e+02
    2157, 1.5642641978e+03, 4.1156259480e+02, 5.9730764547e+02
    2158, -1.3891412603e+03, -8.2860896020e+02, -4.8554947017e+03
    2159, -1.3321531976e+03, -9.1742798528e+02, -4.6683325269e+03
    2160, -1.2132888183e+03, -1.0696899053e+03, -4.7662866248e+03
    2161, -5.0656901134e+02, 1.5361295801e+03, -5.6927691789e+03
    2162, 1.5947543557e+03, -2.7030500372e+02, -6.2517115850e+02
    2163, 1.6016047111e+03, -2.2620477347e+02, -4.4558527510e+02
    2164, 1.6153548549e+03, -8.3276303258e+01, -6.8450539164e+02
    2165, 1.5121479891e+03, 5.7420789719e+02, -4.9565136952e+03
    2166, 1.5441365946e+03, 4.8161024412e+02, -4.7440456258e+03
    2167, 1.0953048504e+03, 1.1902157514e+03, -3.8776048573e+03
    2168, 8.7742666996e+02, 1.3588335766e+03, -3.8988877441e+03
    2169, 1.1689487558e+03, 1.1179736385e+03, -3.9793395701e+03
    2170, -1.2013458237e+03, -1.0830856208e+03, -1.0771305113e+03
    2171, 1.3552792112e+03, -8.8290685218e+02, -3.7962107183e+02
    2172, 1.2782873000e+03, -9.9110434804e+02, -1.5385116190e+02
    2173, 1.1356494998e+03, -1.1517840351e+03, -2.2533575910e+02
    2174, 9.7120655425e+02, 1.2934697828e+03, -4.3455250341e+03
    2175, 7.8831200700e+02, 1.4123988210e+03, -4.5104970097e+03
    2176, 5.3531655605e+02, 1.5263493816e+03, -5.9468347090e+03
    2177, -2.3806669006e+02, -1.5998845274e+03, 2.1154695945e+02
    2178, 1.6168854007e+03, 4.4585321501e+01, -6.3491398109e+03
    2179, 1.6131315074e+03, -1.1879810554e+02, -6.5624408389e+03
    2180, 1.5978908858e+03, -2.5109951655e+02, -6.4628446761e+03
    2181, -1.0177889378e+03, -1.2571443545e+03, -6.1302886732e+03
    2182, -1.4605895969e+03, -6.9497070394e+02, -5.8562016091e+03
    2183, 1.4248959221e+03, 7.6549190800e+02, -4.4608215014e+03
    2184, -3.0258546922e+02, 1.5889456516e+03, -1.0679936927e+03
    2185, 8.1325365415e+02, -1.3981862337e+03, -6.7336740018e+03
    2186, 9.5443281938e+02, -1.3058959542e+03, -6.7482546533e+03
    2187, 7.7469803674e+02, -1.4199116881e+03, -6.5805965190e+03
    2188, 2.5864880843e+02, -1.5966862697e+03, -3.5410392257e+03
    2189, -1.3059261973e+03, 9.5439143809e+02, -7.1571082065e+03
    2190, -2.0403863125e+02, 1.6045792243e+03, -9.1586680202e+02
    2191, 1.5017413995e+03, -6.0089850985e+02, -2.4931548990e+03
    2192, 1.5121636785e+03, -5.7416657809e+02, -2.1883091925e+03
    2193, 1.1217161273e+03, 1.1653579620e+03, -3.4521400748e+03
    2194, 9.9579948578e+02, 1.2746331371e+03, -3.4076846104e+03
    2195, 9.8593876517e+02, 1.2822757119e+03, -3.5356508274e+03
    2196, -1.4753727290e+03, 6.6300947250e+02, -2.8718681983e+02
    2197, -1.5646514050e+03, 4.1008807709e+02, -2.6929084681e+02
    2198, 1.5846269499e+03, 3.2444364655e+02, -6.8011271811e+03
    2199, 1.5125402708e+03, 5.7317377761e+02, -6.7238444003e+03
    2200, 5.8954735998e+02, 1.5062337668e+03, -5.7315826792e+03
    2201, -6.9409796404e+02, 1.4610045401e+03, 3.1079716794e+01
    2202, -8.8240430297e+02, 1.3556064680e+03, -9.5262484311e+00
    2203, -1.1497671540e+03, -1.1376914087e+03, -1.6979763362e+03
    2204, -9.4788359694e+02, -1.3106574444e+03, -1.9411152958e+03
    2205, -1.0741269621e+03, -1.2093624433e+03, -1.9230590548e+03
    2206, -9.4208979425e+02, -1.3148281521e+03, -2.1772276646e+03
    2207, 7.2271603423e+02, 1.4470617761e+03, -5.9114253263e+03
    2208, 1.6141693891e+03, 1.0374696686e+02, -3.7802241644e+03
    2209, 1.6087550984e+03, 1.6796810226e+02, -3.9904935012e+03
    2210, -1.6149516757e+03, 9.0759765779e+01, -4.2019131393e+03
    2211, -1.5454371640e+03, 4.7742038315e+02, -4.3017235063e+03
    2212, 1.5620800649e+03, -4.1977627464e+02, -2.0706138410e+03
    2213, 1.6167501186e+03, 4.9247376028e+01, -7.2157260857e+02
    2214, 1.5950435637e+03, 2.6859314928e+02, -7.7300766763e+02
    2215, -1.3028123848e+03, 9.5863764790e+02, -5.7388915145e+03
    2216, -1.2876335422e+03, 9.7893110640e+02, -5.9445083495e+03
    2217, -1.3940688754e+03, 8.2029154615e+02, -5.9660148636e+03
    2218, 1.4924055471e+03, 6.2372424436e+02, -1.0493740898e+03
    2219, 1.3917192642e+03, 8.2427164183e+02, -1.1419747164e+03
    2220, 1.5118744707e+03, 5.7492767791e+02, -1.2026962709e+03
    2221, 1.5664125982e+03, 4.0330859445e+02, -9.8680850750e+02
    2222, 1.0032374954e+02, 1.6143857641e+03, -3.7964918691e+03
    2223, 1.4309296072e+02, 1.6111581718e+03, -4.0052387211e+03
    2224, 3.0730448819e+02, 1.5880397355e+03, -3.8366707685e+03
    2225, -5.3707184243e+01, 1.6166081122e+03, -4.0204459923e+03
    2226, 1.4338571379e+03, -7.4857194582e+02, -6.8964313107e+03
    2227, 1.5303593414e+03, -5.2374281499e+02, -6.8958064969e+03
    2228, 1.5901069079e+03, -2.9642245457e+02, -7.1645371661e+03
    2229, 1.5310223152e+03, -5.2180161016e+02, -7.1507685675e+03
    2230, 1.3976223576e+03, 8.1422232556e+02, -3.4238982837e+03
    2231, -5.5327006696e+02, -1.5199337101e+03, -1.4310818579e+03
    2232, -3.8860619001e+02, -1.5701246699e+03, -1.3164365173e+03
    2233, 2.7038089185e+02, 1.5947414911e+03, -2.4639900556e+03
    2234, 1.3975790881e+02, 1.6114508919e+03, -2.1987147486e+03
    2235, 7.2708559470e+01, 1.6158650053e+03, -2.3570264634e+03
    2236, 2.9885430384e+02, 1.5896516458e+03, -4.4272788739e+03
    2237, 3.1044167934e+02, 1.5874294358e+03, -2.2525207563e+03
    2238, 4.2491221592e+02, 1.5606908274e+03, -2.4260402581e+03
    2239, 4.3265233582e+02, -1.5585628657e+03, -2.2288412917e+03
    2240, -4.6437024276e+02, 1.5494084444e+03, -5.9314703326e+03
    2241, 2.2614566952e+02, -1.6016130576e+03, -5.7192652648e+03
    2242, 2.0797073023e+02, -1.6040743204e+03, -5.9443905285e+03
    2243, 5.5485923586e+02, 1.5193542965e+03, -1.1012141003e+03
    2244, -6.6931095276e+02, 1.4725247361e+03, -5.7485100881e+03
    2245, 1.6149403263e+03, 9.0961489858e+01, -1.5782277919e+03
    2246, 1.6134571217e+03, -1.1429071039e+02, -1.4703599160e+03
    2247, 1.5865459978e+03, 3.1492546255e+02, -2.3298635333e+03
    2248, 1.5210767440e+03, 5.5011979505e+02, -2.4544418462e+03
    2249, 1.5739180708e+03, 3.7294524582e+02, -2.5073028936e+03
    2250, 1.6051807600e+03, 1.9925104234e+02, -2.5243048854e+03
    2251, -2.2192466525e+02, -1.6022033869e+03, -5.4611192914e+03
    2252, -1.3565542684e+03, 8.8094651765e+02, -1.7603077118e+03
    2253, -1.2835098440e+03, 9.8433161605e+02, -1.7831147485e+03
    2254, -1.2526059093e+03, 1.0233692813e+03, -1.8991296809e+03
    2255, -1.4245211117e+03, 7.6618917534e+02, -1.5325248768e+03
    2256, -1.4448023725e+03, 7.2722235563e+02, -1.7197230727e+03
    2257, -1.5257292524e+03, 5.3708146340e+02, -1.6745422465e+03
    2258, -1.5540073433e+03, -4.4873982105e+02, -6.2374932836e+03
    2259, -1.5996917304e+03, -2.3935876343e+02, -6.3272543481e+03
    2260, 1.2322643965e+03, 1.0477741680e+03, -5.3272337931e+03
    2261, 1.3524675195e+03, 8.8720790050e+02, -5.4041767530e+03
    2262, 1.4316329211e+03, 7.5281699586e+02, -5.6581771876e+03
    2263, 1.4504463303e+03, 7.1589921986e+02, -5.4520034442e+03
    2264, 1.5132762264e+03, 5.7122789901e+02, -5.6809677455e+03
    2265, 1.6172993925e+03, 2.5474005640e+01, -2.4769364099e+03
    2266, -8.2362035352e+02, -1.3921047961e+03, -3.0868967094e+03
    2267, -1.0066725729e+03, -1.2660634190e+03, -3.1297850448e+03
    2268, -1.5807630342e+03, -3.4277467758e+02, -1.1511994964e+03
    2269, -1.6099134340e+03, -1.5647678800e+02, -1.0124589090e+03
    2270, -1.5604552491e+03, -4.2577654399e+02, -9.2651056555e+02
    2271, 1.5905710825e+03, -2.9392155698e+02, -5.4459980895e+03
    2272, 1.5502953972e+03, -4.6140051099e+02, -5.5493991362e+03
    2273, 1.5322680936e+03, -5.1813197097e+02, -5.2981253336e+03
    2274, 1.5907590396e+03, -2.9290259121e+02, -5.2489194625e+03
    2275, 1.5662698728e+03, -4.0386252065e+02, -5.0964965498e+03
    2276, 1.4475075033e+03, -7.2182288546e+02, -2.3190053089e+03
    2277, 1.0324806969e+03, 1.2451063651e+03, -6.5650361316e+03
    2278, -2.6898185088e+02, -1.5949780606e+03, -4.1390938264e+03
    2279, -1.5073933030e+03, -5.8657623557e+02, -3.6472571093e+03
    2280, 1.4566724705e+01, 1.6174344069e+03, -3.5525728788e+03
    2281, -1.4554512810e+03, -7.0566834881e+02, -3.7780577733e+03
    2282, -1.5175637018e+03, -5.5973802878e+02, -1.3225562549e+03
    2283, -1.5434495560e+03, -4.8380752170e+02, -1.5645815097e+03
    2284, -1.5876610571e+03, -3.0925493995e+02, -1.3136344259e+03
    2285, 1.5897909470e+03, -2.9811238631e+02, -6.9386059314e+03
    2286, 1.6004145839e+03, -2.3447688506e+02, -6.7371053279e+03
    2287, 1.5552434325e+03, -4.4443685236e+02, -6.5825991896e+03
    2288, -1.5956050879e+03, -2.6523697631e+02, -1.5208329626e+03
    2289, -1.5717595713e+03, 3.8193991693e+02, -9.4083215741e+02
    2290, -1.5181035160e+03, 5.5827230338e+02, -7.5695873874e+02
    2291, -1.5656008954e+03, 4.0644813488e+02, -7.4756092775e+02
    2292, -1.5620017704e+03, 4.2006751745e+02, -5.3010136598e+02
    2293, -1.4620355471e+03, -6.9192362944e+02, 3.4129169591e+02
    2294, -1.5203246417e+03, -5.5219492388e+02, 3.4308776213e+02
    2295, 8.0599309874e+02, 1.4023841752e+03, -8.4785200710e+01
    2296, -8.0069229498e+02, -1.4054174109e+03, -4.1452842666e+03
    2297, 1.1978819761e+03, -1.0869153699e+03, -1.8316554419e+03
    2298, -7.1958514575e+02, -1.4486212300e+03, -2.4311361272e+03
    2299, -6.9626060460e+02, -1.4599751438e+03, -2.6756271501e+03
    2300, 1.4423814736e+03, -7.3201225032e+02, -5.3070981625e+03
    2301, 1.3452036502e+03, -8.9818338299e+02, -5.5458848754e+03
    2302, 1.4557003956e+03, -7.0515431520e+02, -5.5312889301e+03
    2303, -8.1146403216e+02, 1.3992256339e+03, -5.8067547659e+03
    2304, -1.1285142986e+03, 1.1587759610e+03, -5.9869458452e+03
    2305, -1.4521709136e+03, -7.1239447488e+02, -7.1797760463e+03
    2306, -1.4652457886e+03, -6.8509928412e+02, -6.9696690045e+03
    2307, -1.4118535948e+03, -7.8928808232e+02, -9.9867102442e+02
    2308, -1.4534876835e+03, -7.0970402566e+02, -1.1351744649e+03
    2309, -1.5109890298e+03, -5.7725072696e+02, -1.0321277690e+03
    2310, 4.4326661024e+02, 1.5555773726e+03, -7.1562945763e+03
    2311, -1.4935244033e+03, 6.2104034228e+02, -5.7754885358e+03
    2312, -1.3712535198e+03, -8.5788695908e+02, -1.2247296789e+03
    2313, -4.7665352705e+02, -1.5456738547e+03, -2.7214550452e+03
    2314, -1.0165323949e+03, -1.2581606177e+03, -5.5412955181e+03
    2315, -8.9523564612e+02, -1.3471671715e+03, -5.4149311399e+03
    2316, 3.0853774296e+02, 1.5878005892e+03, -1.2759909999e+03
    2317, -1.1284970409e+03, -1.1587927678e+03, -5.3794263851e+03
    2318, -1.0216751384e+03, -1.2539881026e+03, -5.2310694666e+03
    2319, -1.0397417820e+03, -1.2390493440e+03, -6.9789622887e+03
    2320, -1.5960182938e+03, -2.6273914034e+02, -5.0265407244e+03
    2321, -1.6013617640e+03, 2.2791829880e+02, -5.1122416192e+03
    2322, 1.3685744735e+03, 8.6215437159e+02, -8.9429475506e+02
    2323, 1.4673384029e+03, 6.8060580479e+02, -8.5363848768e+02
    2324, -1.2396395426e+02, 1.6127427532e+03, -3.3465770269e+03
    2325, 1.3544919266e+03, 8.8411417292e+02, -7.4124006985e+02
    2326, -6.5216509449e+02, 1.4801982771e+03, -4.7436980303e+03
    2327, -5.3568087935e+02, 1.5262215585e+03, -4.9893314610e+03
    2328, -9.7947687673e+02, 1.2872184344e+03, -9.5410992522e+02
    2329, 1.4333419271e+03, -7.4955798317e+02, -2.6190027706e+03
    2330, -7.5170882814e+02, 1.4322150983e+03, -9.2364437679e+02
    2331, -5.7102523022e+02, 1.5133527138e+03, -4.3066594951e+03
    2332, -7.4023581054e+02, 1.4381784294e+03, -4.2600922228e+03
    2333, 4.6423189320e+02, -1.5494499022e+03, -2.6629169273e+03
    2334, -5.2049122437e+01, 1.6166623453e+03, -1.9793599512e+03
    2335, -2.2255306496e+02, 1.6021162203e+03, -2.0909915118e+03
    2336, 5.6918522101e+00, 1.6174899854e+03, -1.7784739160e+03
    2337, -2.0227659242e+02, 1.6048023025e+03, -1.8547556028e+03
    2338, -1.6088329811e+03, 1.6722047983e+02, -5.2802520997e+03
    2339, -1.6154502801e+03, -8.1404192969e+01, -5.2263037879e+03
    2340, 1.6134213353e+03, 1.1479479405e+02, -4.9350565718e+03
    2341, 1.6073388595e+03, -1.8101944892e+02, -5.0373163535e+03
    2342, 1.6134855028e+03, -1.1388934182e+02, -4.7976549914e+03
    2343, -1.5644654340e+03, -4.1079697645e+02, -1.7651364948e+03
    2344, -1.5042296730e+03, -5.9464219558e+02, -1.8219191261e+03
    2345, -1.4676808907e+03, -6.7986693767e+02, -1.6383854041e+03
    2346, 1.5878617587e+03, 3.0822278512e+02, -6.0111096744e+03
    2347, 1.6165662448e+03, 5.4952944054e+01, -6.0587379322e+03
    2348, 1.6060345804e+03, 1.9224769547e+02, -5.7532740219e+03
    2349, 1.5868534579e+03, 3.1337254689e+02, -6.2821164453e+03
    2350, 5.5714422727e+00, 1.6174904046e+03, -2.1475849713e+03
    2351, -8.4653782613e+01, 1.6152832529e+03, -2.2400288031e+03
    2352, -1.3368650678e+03, 9.1054820882e+02, -1.1654700347e+03
    2353, -1.1800328717e+03, 1.1062679023e+03, -1.0469051942e+03
    2354, -1.2968730650e+03, 9.6665738666e+02, -9.7659842463e+02
    2355, -1.2357670104e+03, 1.0436408127e+03, -1.2413502511e+03
    2356, -1.3550638870e+03, -8.8323729092e+02, -2.0629946676e+03
    2357, -1.4027938459e+03, -8.0527987435e+02, -2.3104385668e+03
    2358, -1.4153133167e+03, -7.8306734421e+02, -2.1578036007e+03
    2359, -1.2987560412e+03, -9.6412602670e+02, -2.2573180965e+03
    2360, -1.4773788932e+03, -6.5852703497e+02, -4.7574500186e+03
    2361, 1.5523135361e+03, -4.5456455614e+02, -6.2596161539e+03
    2362, 1.4584695377e+03, -6.9940893450e+02, -6.2316767570e+03
    2363, 1.4714876948e+03, -6.7158783058e+02, -5.9681816761e+03
    2364, -1.5171478464e+03, -5.6086421000e+02, -4.9449924338e+03
    2365, -1.4410039739e+03, -7.3472021697e+02, -5.0361573515e+03
    2366, -1.6171955831e+03, 3.1379868145e+01, -8.7585885700e+02
    2367, -1.5986882800e+03, 2.4597161082e+02, -9.1957272638e+02
    2368, -1.6031214233e+03, 2.1519282555e+02, -7.7626461167e+02
    2369, -1.4224012640e+03, -7.7011745487e+02, -1.4333688891e+03
    2370, -6.6911596037e+02, 1.4726133510e+03, -2.0243704427e+03
    2371, -6.2370347849e+02, 1.4924142257e+03, -2.2595356448e+03
    2372, -4.8043356546e+02, 1.5445031043e+03, -2.0471830734e+03
    2373, -1.5409522232e+03, -4.9170366657e+02, -1.1586777916e+03
    2374, -1.4204113553e+03, 7.7378151423e+02, -1.0842157495e+03
    2375, -1.3850363530e+03, 8.3545230316e+02, -1.3478606097e+03
    2376, 1.6088771658e+03, 1.6679482981e+02, -6.5445043981e+03
    2377, 1.2375511523e+03, -1.0415245534e+03, -5.8833549081e+02
    2378, 1.1779923478e+03, -1.1084404713e+03, -7.2008167226e+02
    2379, 1.1895001139e+03, -1.0960819902e+03, -4.3667009027e+02
    2380, 1.0041538795e+03, -1.2680620002e+03, -5.7038958455e+02
    2381, -7.3093330199e+02, -1.4429285353e+03, -2.6329429385e+02
    2382, -1.3106040104e+03, -9.4795747687e+02, -1.5446919430e+03
    2383, 7.4696238309e+02, 1.4346962913e+03, -4.6840349891e+03
    2384, 6.2033040795e+02, 1.4938194118e+03, -4.7289386540e+03
    2385, 1.5970410159e+03, -2.5644929984e+02, -1.9737393810e+03
    2386, 1.6166486510e+03, 5.2472747262e+01, -2.0180168866e+03
    2387, 1.6123441230e+03, -1.2904526021e+02, -2.1806000093e+03
    2388, 1.1068783083e+03, -1.1794603260e+03, -6.7901384809e+03
    2389, 8.7704078645e+02, 1.3590826718e+03, -1.6649109093e+03
    2390, 7.2047797632e+02, 1.4481773840e+03, -1.8676804475e+03
    2391, -1.5295678411e+03, -5.2604987363e+02, -7.2677246690e+02
    2392, -1.2881339518e+03, 9.7827254492e+02, -1.4251066134e+03
    2393, 1.6165995272e+03, -5.3964977112e+01, -4.0345787520e+03
    2394, 1.5914448537e+03, -2.8915312117e+02, -4.0590624599e+03
    2395, 7.4450950905e+02, 1.4359706964e+03, -3.4033367460e+03
    2396, 5.5668602107e+02, 1.5186859201e+03, -3.3914411045e+03
    2397, -9.7576541163e+02, -1.2900341513e+03, -3.5160966452e+03
    2398, -1.1373753551e+03, -1.1500798022e+03, -3.4874689963e+03
    2399, -1.0994639089e+03, -1.1863748830e+03, -3.3436207999e+03
    2400, -9.6997242806e+02, -1.2943955110e+03, -3.3229892228e+03
    2401, 1.3772648533e+03, 8.4820267262e+02, -4.1943699369e+03
    2402, -8.0153887041e+02, -1.4049347633e+03, -3.5456542878e+03
    2403, 1.1892247293e+03, 1.0963807702e+03, -7.1650712454e+03
    2404, 2.2530572343e+02, -1.6017314322e+03, -6.0945881788e+02
    2405, -1.4866744308e+03, -6.3726398523e+02, -5.2147022368e+03
    2406, -1.5219791863e+03, -5.4761812105e+02, -5.4008564335e+03
    2407, -1.5543738246e+03, -4.4746872880e+02, -5.1302700611e+03
    2408, -1.4369531044e+03, -7.4261162512e+02, -5.4570958716e+03
    2409, 1.6172008847e+02, 1.6093951855e+03, -2.0250191181e+03
    2410, -1.5831678885e+03, -3.3149010053e+02, -5.3271149941e+03
    2411, -1.5043948908e+03, 5.9422408450e+02, -1.4689476922e+03
    2412, -1.4678965306e+03, 6.7940122563e+02, -1.2707506328e+03
    2413, -8.5074259042e+02, -1.3756973849e+03, -4.7528784185e+03
    2414, -1.0510436709e+03, -1.2294769017e+03, -4.6651540529e+03
    2415, 1.5420949656e+03, -4.8810794626e+02, -2.6582490165e+03
    2416, -5.0315191719e+02, -1.5372522234e+03, -3.1795438491e+03
    2417, -7.0831551132e+02, -1.4541648416e+03, -3.8396100776e+03
    2418, 1.5950152432e+03, -2.6876127683e+02, -1.3946551859e+03
    2419, 1.6072679267e+03, -1.8164818133e+02, -1.6339478129e+03
    2420, 1.5840130548e+03, -3.2742769016e+02, -4.5676373648e+03
    2421, 1.5111979672e+03, -5.7670352332e+02, -4.5052582614e+03
    2422, 1.5336360350e+03, -5.1406883007e+02, -4.2726230055e+03
    2423, -1.5001897934e+03, 6.0476179925e+02, -2.5221822511e+03
    2424, -1.4490528792e+03, 7.1871552318e+02, -2.6910086780e+03
    2425, -1.3627799074e+03, 8.7128478345e+02, -2.5774889435e+03
    2426, -1.5509372253e+03, 4.5923847093e+02, -2.6469850795e+03
    2427, -1.3736156721e+03, 8.5409966361e+02, -6.9304734256e+03
    2428, 1.6149916333e+03, -9.0045957714e+01, -6.9734752095e+03
    2429, 1.6164806030e+03, -5.7416985855e+01, -7.1773839385e+03
    2430, -1.3321419790e+03, -9.1744427502e+02, -7.1799897384e+03
    2431, 2.8166368642e+02, -1.5927874365e+03, -2.2415653056e+03
    2432, -7.9971504231e+02, 1.4059737199e+03, -5.7827601280e+02
    2433, -1.9743331933e+02, -1.6054053489e+03, -1.2867196719e+03
    2434, -1.6068513157e+03, 1.8529732618e+02, -6.9850665416e+03
    2435, -1.6151641724e+03, 8.6896180164e+01, -7.1669098047e+03
    2436, 1.5413993389e+03, -4.9030024263e+02, -3.2086485722e+03
    2437, 1.3183013576e+03, -9.3722344222e+02, -7.1640039372e+03
    2438, 2.1773947462e+02, -1.6027775177e+03, -3.7127939921e+03
    2439, 1.6023128503e+03, -2.2113294585e+02, -1.7586801899e+03
    2440, -1.2620078038e+03, 1.0117522193e+03, -4.6180315626e+03
    2441, 1.1614923628e+03, 1.1257183223e+03, 7.0454145221e+02
    2442, 1.2771291315e+03, 9.9259630844e+02, 7.3590989523e+02
    2443, 1.1993044504e+03, 1.0853456064e+03, 5.3766825866e+02
    2444, -1.0652635127e+03, 1.2171770202e+03, -1.8486782217e+01
    2445, 1.6089275495e+03, -1.6630811932e+02, -6.0341730849e+03
    2446, -8.9890383277e+02, -1.3447223317e+03, -3.9669118248e+03
    2447, -1.5766927932e+03, -3.6103474343e+02, -5.9409175161e+02
    2448, -1.6161921548e+03, -6.5032058348e+01, -6.7231602771e+02
    2449, -1.6072491779e+03, -1.8181399864e+02, -4.6036403774e+02
    2450, -1.6174843735e+03, -7.1099674558e+00, -3.3968857029e+02
    2451, -1.1797151246e+03, -1.1066067390e+03, -7.1811229494e+03
    2452, -1.6092196262e+03, 1.6345777598e+02, -5.2450898838e+02
    2453, 4.4301630351e+02, -1.5556486765e+03, -5.1547834425e+03
    2454, 6.3491058997e+02, 1.4876810118e+03, -5.5526996122e+03
    2455, -8.9830702815e+02, -1.3451210849e+03, -2.6686608029e+03
    2456, 1.3596769177e+03, 8.7611924393e+02, -5.7281461898e+01
    2457, 1.1825942453e+03, 1.1035293838e+03, -5.8628432786e+01
    2458, 1.4531839757e+03, 7.1032568790e+02, -4.6306283426e+02
    2459, -1.5451675768e+03, -4.7829218019e+02, -4.6576701388e+03
    2460, -1.4334026482e+03, -7.4944185772e+02, -4.5615360790e+03
    2461, 1.5137100553e+03, 5.7007729180e+02, -4.0588907926e+02
    2462, -1.5709344230e+03, -3.8531972279e+02, -4.8429290603e+03
    2463, -2.8020671899e+02, -1.5930443951e+03, -1.4890471974e+03
    2464, -1.6022650296e+03, -2.2147917462e+02, -4.7451011136e+03
    2465, -1.9531826123e+02, -1.6056640454e+03, -1.0712190133e+01
    2466, -1.6053121657e+03, -1.9818955717e+02, -5.5664192504e+03
    2467, -1.6169059881e+03, -4.3832356658e+01, -5.4209646688e+03
    2468, -9.7544580779e+02, 1.2902758333e+03, 6.2319092709e+01
    2469, -2.7069873233e+02, -1.5946875701e+03, -3.0145140150e+03
    2470, -1.9835181131e+02, -1.6052921257e+03, -3.2111364975e+03
    2471, 6.4784023509e+02, 1.4820962451e+03, -6.3424255631e+03
    2472, -4.7702175202e+02, -1.5455602538e+03, -2.9480850109e+03
    2473, -4.6216417154e+02, -1.5500679109e+03, 4.1262365508e+02
    2474, -1.5419541076e+03, -4.8855274018e+02, -5.6094281482e+03
    2475, -6.8080892647e+02, -1.4672441704e+03, -3.0507281208e+03
    2476, 3.8348263890e+02, 1.5713838855e+03, -2.6352965542e+03
    2477, 3.6248472352e+02, 1.5763600716e+03, -2.8515830711e+03
    2478, -1.5905598642e+03, -2.9398225886e+02, -4.5762033703e+03
    2479, -1.6135281988e+03, -1.1328283963e+02, -4.5377882805e+03
    2480, 5.0918742937e+02, 1.5352636294e+03, -2.5140974726e+03
    2481, 1.3562010689e+03, 8.8149016481e+02, 6.2041985922e+02
    2482, 1.4387489517e+03, -7.3912631130e+02, -7.1504660832e+03
    2483, 1.5660012355e+03, 4.0490292723e+02, -4.8597161603e+03
    2484, 1.2462984150e+03, 1.0310414689e+03, 3.6458766363e+02
    2485, -1.3260042441e+03, -9.2629314722e+02, -3.8763568050e+03
    2486, -1.1789279177e+03, -1.1074453553e+03, -3.6858731934e+03
    2487, -1.2073438222e+03, -1.0763954408e+03, -3.8759720744e+03
    2488, -1.3458172798e+03, -8.9726367331e+02, -3.6507692188e+03
    2489, 1.3457006905e+03, 8.9743852239e+02, 4.2582871136e+02
    2490, -4.6962786108e+02, 1.5478229621e+03, -5.2741897004e+03
    2491, -1.5855425938e+03, 3.1993895230e+02, -6.8403601700e+03
    2492, -7.8531046473e+02, -1.4140699148e+03, -1.3341866546e+03
    2493, 7.3148189174e+02, 1.4426505093e+03, -1.1365508463e+03
    2494, -1.5629182947e+03, -4.1664451752e+02, -3.2944945933e+03
    2495, -1.6099908957e+03, -1.5567776285e+02, -3.2216580405e+03
    2496, -1.5674422004e+03, -3.9928836509e+02, -3.1053137589e+03
    2497, -1.5774604961e+03, -3.5766553262e+02, -7.1788254298e+03
    2498, -1.6138434814e+03, -1.0869897627e+02, -7.0941677860e+03
    2499, -7.5651627057e+02, -1.4296815668e+03, -5.2842854221e+03
    2500, 1.0210595364e+03, 1.2544894073e+03, -8.2055016308e+02
    2501, 1.2581585139e+03, 1.0165349989e+03, -6.8398617993e+02
    2502, 1.0742718038e+03, 1.2092337828e+03, -5.7668103532e+02
    2503, 1.2146688346e+03, 1.0681225923e+03, -9.2967481980e+02
    2504, 1.4860998895e+03, 6.3860266875e+02, 6.5730740721e+01
    2505, -1.4918485529e+03, -6.2505531365e+02, -2.0953481018e+03
    2506, -1.4884874635e+03, -6.3301763087e+02, -2.3182121819e+03
    2507, 2.6566760995e+02, 1.5955334440e+03, -2.7673945786e+03
    2508, -6.9952346074e+02, 1.4584146111e+03, -1.1629292696e+03
    2509, -6.3554169215e+02, 1.4874115125e+03, -1.3675301167e+03
    2510, -5.4790958894e+02, 1.5218742827e+03, -1.0640471260e+03
    2511, -1.5560032584e+03, -4.4176929491e+02, -2.3333347852e+03
    2512, -4.2069622348e+02, 1.5618325575e+03, -1.2624120786e+03
    2513, 1.4336997932e+03, 7.4887325564e+02, -6.3557663126e+02
    2514, 1.5466799611e+03, 4.7337865162e+02, -6.2958308791e+02
    2515, -1.4338248010e+03, -7.4863388254e+02, -1.9244566070e+03
    2516, -1.3404201297e+03, -9.0530664748e+02, -3.0407138851e+03
    2517, -1.4552161020e+03, -7.0615320325e+02, -2.9323448026e+03
    2518, -1.3684248135e+03, -8.6239189459e+02, -2.8256863581e+03
    2519, -1.4627562057e+03, -6.9039882149e+02, -3.1512427955e+03
    2520, -1.3757810989e+03, -8.5060720549e+02, -3.3141639104e+03
    2521, -1.3140136313e+03, -9.4322554389e+02, -3.1862529030e+03
    2522, 1.5277306520e+03, 5.3136174591e+02, -8.2057625556e+02
    2523, 8.9310781036e+02, 1.3485787664e+03, -2.4570569298e+03
    2524, -1.2094340292e+03, -1.0740463580e+03, -2.9717323425e+03
    2525, 1.6093213068e+03, -1.6245362822e+02, -5.5288642932e+03
    2526, 1.6174905506e+03, 5.5288868142e+00, -5.6348562763e+03
    2527, 9.2511338841e+02, 1.3268275957e+03, -2.2481317511e+03
    2528, 1.6135079352e+02, 1.6094322513e+03, -1.4379560649e+03
    2529, 6.7050345103e+01, 1.6161096811e+03, -1.6008607763e+03
    2530, -1.5070960764e+03, 5.8733948142e+02, -5.3483604281e+03
    2531, -1.4980908166e+03, 6.0994274746e+02, -5.5807166650e+03
    2532, -1.4340538494e+03, 7.4819503267e+02, -5.4146319553e+03
    2533, 3.4427896052e+02, 1.5804360940e+03, -2.0694547054e+03
    2534, 3.5741559544e+02, 1.5775171448e+03, -1.8869516540e+03
    2535, 1.8668943867e+02, 1.6066901703e+03, -1.8490341709e+03
    2536, -1.5776513749e+03, 3.5682262988e+02, -5.4875478157e+03
    2537, -1.1428685114e+03, -1.1446212542e+03, -2.1356561823e+03
    2538, -1.1070727714e+03, -1.1792777997e+03, -2.4444317989e+03
    2539, -9.2420430774e+02, -1.3274609778e+03, -2.4268666124e+03
    2540, -1.6170122727e+03, -3.9718510645e+01, -1.4891005838e+03
    2541, -1.6171184571e+03, -3.5130409182e+01, -1.2360844829e+03
    2542, -1.6119132823e+03, 1.3431984386e+02, -1.4660946285e+03
    2543, -1.5178366018e+03, 5.5899758520e+02, -2.1111846235e+03
    2544, -1.5062957695e+03, 5.8938892501e+02, -2.2704436637e+03
    2545, -1.5932265495e+03, 2.7916914607e+02, -1.6188669502e+03
    2546, -1.6172703630e+03, 2.7254777125e+01, -1.6934502251e+03
    2547, -1.5864455436e+03, 3.1543111304e+02, -1.8864719954e+03
    2548, -1.6043007713e+03, 2.0621659792e+02, -1.3188994639e+03
    2549, 1.9464774207e+02, -1.6057454675e+03, -8.6994877195e+02
    2550, 4.1641954673e+02, -1.5629782504e+03, -9.2184290964e+02
    2551, -1.1454942998e+03, 1.1419934584e+03, -4.4808443651e+03
    2552, -9.6487649769e+02, 1.2981985958e+03, -4.6476910621e+03
    2553, -1.4006137665e+03, 8.0906571240e+02, -2.9769054826e+02
    2554, 1.2344945888e+03, 1.0451456167e+03, -3.5457755483e+03
    2555, 1.0680314462e+03, 1.2147489781e+03, -3.6112827409e+03
    2556, 1.4898044534e+03, -6.2991185139e+02, -2.7682063445e+03
    2557, 8.1573513804e+02, 1.3967399309e+03, -5.5915790171e+03
    2558, 8.2601387224e+02, 1.3906859217e+03, -5.3497198359e+03
    2559, -9.0643540200e+02, 1.3396570875e+03, -5.4989083789e+03
    2560, -3.7344386282e+02, 1.5737998384e+03, -1.6835546637e+03
    2561, -5.7921476324e+02, 1.5102372357e+03, -1.8026372456e+03
    2562, -3.7155657235e+02, 1.5742464748e+03, -1.9025031124e+03
    2563, -4.0941187309e+02, 1.5648284788e+03, -2.9479640157e+03
    2564, -3.8233482762e+02, 1.5716635548e+03, -2.8156492013e+03
    2565, -5.5512620930e+02, 1.5192567728e+03, -2.8316122369e+03
    2566, -5.7315337273e+02, 1.5125480030e+03, -2.6430246665e+03
    2567, -1.2378235106e+03, -1.0412008483e+03, -4.0450829256e+03
    2568, -1.1015134903e+03, -1.1844721528e+03, -3.9049475611e+03
    2569, -1.0802313575e+03, -1.2039129803e+03, -4.0955607836e+03
    2570, 1.2094044671e+03, 1.0740796455e+03, -4.0011086623e+02
    2571, -1.4234866145e+03, 7.6810943774e+02, -5.5641170997e+03
    2572, 1.5915911725e+03, -2.8834664859e+02, -8.1620474548e+02
    2573, -1.3300773965e+03, 9.2043488051e+02, -5.5346144667e+03
    2574, 1.5387273933e+03, -4.9862236125e+02, -2.8721978456e+03
    2575, 1.5645405772e+03, -4.1051069691e+02, -2.7684054773e+03
    2576, 1.5406855789e+03, -4.9253852333e+02, -7.5774595980e+02
    2577, 1.5491098038e+03, -4.6536551856e+02, -5.5857917808e+02
    2578, -5.6555149866e+02, 1.5154067943e+03, -1.5529864439e+03
    2579, -5.0676178945e+02, 1.5360659943e+03, -1.6810000882e+03
    2580, 1.5406619237e+03, -4.9261251173e+02, -9.7535485422e+02
    2581, 1.5919132629e+03, -2.8656310542e+02, -1.0240320744e+03
    2582, 1.4439057712e+03, -7.2900094228e+02, -9.5970403058e+02
    2583, -1.5438222159e+03, 4.8261704868e+02, -5.6076267394e+03
    2584, -1.5945934879e+03, 2.7125238852e+02, -5.7106798725e+03
    2585, 1.1024549366e+03, -1.1835959457e+03, 1.5201702600e+02
    2586, 1.1129498135e+03, -1.1737329179e+03, -7.0368116510e+01
    2587, 5.6761318698e+02, -1.5146357714e+03, -6.9321919734e+02
    2588, -1.5539016324e+03, 4.4910574113e+02, -5.7576250814e+03
    2589, 4.1925808671e+02, -1.5622192249e+03, -7.5055975478e+02
    2590, 1.8412114851e+01, 1.6173952034e+03, -2.8162790227e+03
    2591, 1.2766644681e+02, 1.6124538841e+03, -2.6446956747e+03
    2592, -1.4033358582e+02, 1.6114008610e+03, -2.6963634665e+03
    2593, -3.3752123105e+01, 1.6171478115e+03, -2.5195526381e+03
    2594, -7.4334016167e+02, 1.4365763655e+03, -2.8908201078e+03
    2595, -7.7641528285e+02, 1.4189734171e+03, -2.6985832943e+03
    2596, -5.2878098383e+02, 1.5286258277e+03, -2.9988080116e+03
    2597, -1.5357641823e+03, -5.0767570982e+02, -2.5242197295e+03
    2598, -1.4846811853e+03, -6.4189409406e+02, -2.4646850191e+03
    2599, 1.5719471202e+03, -3.8116728782e+02, -1.8715608689e+02
    2600, 1.1870318389e+03, -1.0987545965e+03, 2.8105925222e+02
    2601, 1.0056982028e+03, -1.2668375487e+03, 2.8367664204e+02
    2602, -3.3448165141e+02, 1.5825385540e+03, -3.8781890729e+03
    2603, -2.4009571255e+02, 1.5995812886e+03, -4.0636274358e+03
    2604, -1.3350685207e+02, 1.6119808220e+03, -3.8496162436e+03
    2605, -8.1110572196e+02, 1.3994333703e+03, -1.4796078764e+03
    2606, -8.7066076929e+02, 1.3631786658e+03, -1.2553967810e+03
    2607, -1.0081996392e+03, 1.2648477132e+03, -1.3899423238e+03
    2608, -1.0487796326e+03, 1.2314087592e+03, -1.1401528449e+03
    2609, -7.1727121901e+02, 1.4497683430e+03, -1.6699612141e+03
    2610, -1.0789809199e+03, 1.2050337856e+03, -3.2647943475e+03
    2611, -9.7718014903e+02, 1.2889628413e+03, -3.3969265746e+03
    2612, -8.8361762776e+02, 1.3548159055e+03, -3.1582268278e+03
    2613, -1.1551866883e+03, 1.1321881316e+03, -3.4902695727e+03
    2614, 1.6086238991e+03, -1.6921997839e+02, -2.6237598695e+02
    2615, -8.3266551795e+02, 1.3867135195e+03, -3.8319728604e+03
    2616, -9.2884718568e+02, 1.3242164308e+03, -4.0797884492e+03
    2617, -7.1879408176e+02, 1.4490139123e+03, -4.0499696249e+03
    2618, -9.8675296798e+02, 1.2816492618e+03, -3.8994588030e+03
    2619, 9.8701536212e+02, 1.2814471994e+03, 6.8605312980e+02
    2620, -1.2704168609e+03, 1.0011729368e+03, -2.9131329022e+03
    2621, -1.1401282220e+03, 1.1473508127e+03, -2.8379987483e+03
    2622, -1.3088304210e+03, 9.5040474487e+02, -2.7490981103e+03
    2623, -1.1920681708e+03, 1.0932884917e+03, -2.6602465580e+03
    2624, -1.3504401927e+03, 8.9029070302e+02, -2.9641120350e+03
    2625, -1.2432589797e+03, 1.0347044793e+03, -3.0961503992e+03
    2626, -1.3794231279e+03, 8.4468815794e+02, -3.1587907391e+03
    2627, -4.5922823894e+02, 1.5509402550e+03, -3.1452601211e+03
    2628, -3.2679340560e+02, 1.5841440339e+03, -3.0256270312e+03
    2629, -1.2705457632e+03, -1.0010093474e+03, -1.9115431927e+03
    2630, -1.3748582675e+03, -8.5209799567e+02, -1.7533995892e+03
    2631, -1.6054910014e+03, -1.9673559529e+02, -1.7338818126e+03
    2632, -1.5900893348e+03, -2.9651670649e+02, -3.6798550633e+03
    2633, -1.5585173507e+03, -4.3281626319e+02, -3.5249494650e+03
    2634, -1.2180586888e+03, 1.0642552704e+03, -3.2470697782e+03
    2635, -1.1021163405e+03, 1.1839112391e+03, -3.0318969633e+03
    2636, 1.1942041726e+03, -1.0909549231e+03, -5.0155391566e+03
    2637, -8.0882858051e+02, 1.4007507192e+03, -2.2877651867e+03
    2638, -8.0997362740e+02, 1.4000889161e+03, -2.1337747004e+03
    2639, -8.0362877427e+02, 1.4037403760e+03, -2.4903990755e+03
    2640, -1.5878034197e+03, 3.0852317641e+02, -1.1264503630e+03
    2641, -1.5383233919e+03, 4.9986737445e+02, -1.1933679377e+03
    2642, -1.6109714102e+03, 1.4518045901e+02, -1.0321194488e+03
    2643, -1.2053838999e+03, 1.0785897755e+03, -3.7340635197e+03
    2644, -1.3118755935e+03, 9.4619695474e+02, -3.6242456080e+03
    2645, -1.0255229420e+03, 1.2508432937e+03, -3.7187322588e+03
    2646, 1.2321853084e+03, -1.0478671747e+03, -3.2509343458e+03
    2647, -6.9879727815e+02, 1.4587626997e+03, -3.0750901202e+03
    2648, -1.0366302549e+03, 1.2416537217e+03, -5.4269304368e+03
    2649, -1.2091472639e+03, 1.0743691843e+03, -5.4871323550e+03
    2650, 1.3660083178e+03, -8.6621448019e+02, -1.1609511724e+03
    2651, 1.4908111493e+03, -6.2752559083e+02, -1.1742461876e+03
    2652, -9.3100705386e+02, 1.3226988001e+03, -2.9627967158e+03
    2653, -9.7282337820e+02, 1.2922542029e+03, -2.7615923721e+03
    2654, -3.3319013274e+02, 1.5828109759e+03, -2.5643655044e+03
    2655, -2.3177273481e+02, 1.6008084362e+03, -2.8752596338e+03
    2656, -1.6137564005e+03, 1.0998422555e+02, -2.8313513752e+03
    2657, -1.6173663046e+03, -2.0796316211e+01, -3.0296281579e+03
    2658, -1.6088338880e+03, 1.6721175457e+02, -3.1529774098e+03
    2659, 6.5239527309e+02, -1.4800968406e+03, -5.1786466100e+03
    2660, 4.4925767467e+02, -1.5538577128e+03, -5.3721480624e+03
    2661, 8.6471223732e+02, -1.3669597641e+03, -5.2003321783e+03
    2662, 4.7771717059e+01, 1.6167943942e+03, -4.6652244500e+03
    2663, -4.0314144489e+01, 1.6169975324e+03, -4.8808975107e+03
    2664, 1.3248037108e+03, 9.2800936295e+02, -5.6096722631e+03
    2665, -1.1133735216e+03, 1.1733310067e+03, -1.3251814412e+03
    2666, -1.1752289471e+03, 1.1113699528e+03, -1.5095091808e+03
    2667, -1.5437420769e+03, 4.8287332722e+02, -3.2033220296e+03
    2668, -1.5922142514e+03, 2.8488599088e+02, -3.2571423225e+03
    2669, -1.4746885134e+03, 6.6452993799e+02, -3.3509154202e+03
    2670, -1.4696139711e+03, 6.7567819701e+02, -3.0008128258e+03
    2671, 1.3061780953e+03, 9.5404666207e+02, -5.8293819593e+03
    2672, 1.4750215095e+03, -6.6379047633e+02, -4.8547319661e+02
    2673, -1.3423749630e+02, 1.6119201421e+03, -8.0987764811e+02
    2674, -3.1402912156e+02, 1.5867236561e+03, -7.7275921094e+02
    2675, -1.5665981284e+03, 4.0258732474e+02, -1.3952381436e+03
    2676, -1.6071534914e+03, 1.8265789048e+02, -2.3387729624e+03
    2677, -1.6105756295e+03, 1.4950716301e+02, -2.0702954911e+03
    2678, -1.6172584828e+03, 2.7950849011e+01, -2.1807978579e+03
    2679, -1.5828289912e+03, 3.3310454014e+02, -2.1498444710e+03
    2680, 1.5536741024e+03, 4.4989224652e+02, 1.7347549792e+02
    2681, 1.6039909999e+03, 2.0861237332e+02, 2.3701963970e+02
    2682, 1.5676837572e+03, -3.9833891011e+02, 2.0665198892e+02
    2683, 7.6358756130e+02, -1.4259173490e+03, -6.1372657819e+02
    2684, 9.4135065009e+02, -1.3153574433e+03, -8.3375057171e+02
    2685, -1.0069037629e+03, 1.2658795607e+03, -4.4614727491e+03
    2686, -5.8156534570e+02, 1.5093336274e+03, -5.1258372311e+03
    2687, -3.7900969627e+02, 1.5724687279e+03, -5.0740776821e+03
    2688, -1.2535481834e+03, 1.0222148512e+03, -2.4919584934e+03
    2689, -1.3963048427e+03, 8.1647966061e+02, -2.8558839170e+03
    2690, -1.4010707039e+03, -8.0827416921e+02, -5.2936154976e+03
    2691, 9.5057181423e+02, 1.3087090876e+03, -4.6548879449e+03
    2692, 6.8314899714e+02, -1.4661560960e+03, -3.7112021075e+02
    2693, -4.1048366952e+02, 1.5645476685e+03, -3.6610720534e+03
    2694, -3.0349326334e+02, 1.5887725102e+03, -3.4980291207e+03
    2695, -5.3336535491e+02, 1.5270323010e+03, -3.4282718628e+03
    2696, -2.3703802566e+02, 1.6000372572e+03, -3.6944386371e+03
    2697, -6.2467648497e+02, 1.4920072182e+03, -3.2504079489e+03
    2698, -6.6523819721e+02, 1.4743691502e+03, -3.4998680612e+03
    2699, -8.1000426136e+02, 1.4000711934e+03, -3.3841427450e+03
    2700, 3.1691827019e+02, 1.5861491292e+03, -1.5478400127e+03
    2701, 2.3868012042e+02, 1.5997931273e+03, -1.6903516586e+03
    2702, -1.5975637272e+03, -2.5317264375e+02, -8.0347669052e+02
    2703, -1.5010154051e+03, 6.0270971766e+02, -9.4937337086e+02
    2704, 1.3105498427e+03, -9.4803236218e+02, -8.2801907524e+02
    2705, 1.3430422946e+03, -9.0141202839e+02, -6.2867856452e+02
    2706, 1.4571865794e+03, -7.0207800340e+02, -6.9740709679e+02
    2707, 1.2510493727e+03, -1.0252715333e+03, -1.0254110005e+03
    2708, 1.1081351284e+03, -1.1782795879e+03, -9.1718942575e+02
    2709, 1.6665024628e+02, 1.6088921485e+03, -4.2259254604e+03
    2710, 1.5127948842e+02, 1.6104101237e+03, -4.5230409615e+03
    2711, 9.6197485724e+00, 1.6174713940e+03, -4.3840164838e+03
    2712, -1.4121713195e+03, -7.8871947766e+02, -2.5609380441e+03
    2713, 1.3039263907e+03, -9.5712184052e+02, -1.6777021559e+03
    2714, -1.2667670885e+03, -1.0057869523e+03, -2.4982280885e+03
    2715, 1.4709294630e+03, -6.7280960533e+02, -1.6941646894e+03
    2716, 1.6040372914e+03, 2.0825613481e+02, -2.1708968699e+03
    2717, 1.6059545312e+03, 1.9291524996e+02, -1.8726639854e+03
    2718, 1.5263370756e+03, 5.3535164297e+02, -1.8194746926e+03
    2719, 1.2008651891e+03, 1.0836184972e+03, -1.9013034685e+02
    2720, 1.3374808956e+03, 9.0964339380e+02, -4.3686797059e+03
    2721, 1.6153643688e+03, 8.3091552578e+01, -2.3055496220e+03
    2722, 1.6051536226e+03, 1.9946954086e+02, -2.3847576128e+03
    2723, 1.0145050575e+03, 1.2597959114e+03, -1.2901282486e+03
    2724, -1.3630027356e+03, -8.7093615888e+02, -5.4945870888e+03
    2725, -1.3239511063e+03, -9.2922533228e+02, -5.6582923420e+03
    2726, -1.4521911606e+03, -7.1235320117e+02, -5.6458931460e+03
    2727, -1.2234397526e+03, -1.0580649422e+03, -5.5174430930e+03
    2728, 1.6149771805e+03, -9.0304797036e+01, -8.5734047248e+02
    2729, 1.3959023585e+03, 8.1716758112e+02, -5.2165039712e+03
    2730, 1.4737569811e+03, 6.6659328736e+02, -5.2696412347e+03
    2731, -6.6227986940e+02, 1.4757003844e+03, -6.9699540601e+02
    2732, -1.0007083909e+03, -1.2707828164e+03, -3.7584148706e+03
    2733, -8.3851457080e+02, -1.3831845736e+03, -3.7059484123e+03
    2734, -5.3046317532e+02, 1.5280428887e+03, -3.9322357678e+03
    2735, 8.2653840044e+02, 1.3903742383e+03, -1.3112492380e+03
    2736, -5.5894625951e+02, 1.5178555033e+03, -4.1641425919e+03
    2737, -1.4473202978e+03, -7.2219817617e+02, -3.4870306661e+03
    2738, -1.6162627658e+03, 6.3252841120e+01, -5.6581174216e+03
    2739, 1.5290446070e+03, 5.2756880103e+02, 3.5885256618e+02
    2740, 1.5818211941e+03, 3.3785789907e+02, 2.6634569421e+02
    2741, 8.4834208590e+02, 1.3771789845e+03, -3.2218515585e+03
    2742, 8.3418477787e+02, 1.3858001322e+03, -2.9461798207e+03
    2743, 6.2516777390e+02, 1.4918014293e+03, -3.1098575548e+03
    2744, 9.8144113832e+02, 1.2857214092e+03, -3.7540930503e+03
    2745, 8.4899230996e+02, 1.3767782347e+03, -3.6014860460e+03
    2746, 1.3228153607e+03, 9.3084143201e+02, -5.1540141123e+02
    2747, 6.9860500643e+02, 1.4588547889e+03, -3.2803830739e+03
    2748, -1.6131969748e+03, -1.1790576978e+02, -4.3481312223e+03
    2749, 8.5645473640e+02, 1.3721485104e+03, -3.4018597233e+03
    2750, 1.3543217311e+03, 8.8437486323e+02, -2.3369715301e+03
    2751, 1.4326666818e+03, 7.5084780669e+02, 3.1805690920e+02
    2752, -1.5863619823e+03, 3.1585109024e+02, -5.3139516917e+03
    2753, -1.5659183319e+03, 4.0522342965e+02, -5.1976850836e+03
    2754, -8.9198979804e+02, 1.3493185132e+03, -2.1020551781e+03
    2755, -8.9422259608e+02, 1.3478398268e+03, -1.8466974779e+03
    2756, -1.0751998465e+03, 1.2084086809e+03, -1.9906994138e+03
    2757, -1.1485284239e+03, 1.1389419254e+03, -1.7997222705e+03
    2758, -1.2113916240e+03, 1.0718379463e+03, -2.0739766101e+03
    2759, -1.0137352646e+03, 1.2604154328e+03, -1.5993230588e+03
    2760, 1.3281527437e+03, -9.2320991075e+02, -5.0575334386e+03
    2761, 2.2232903506e+02, 1.6021473247e+03, -7.1679652583e+03
    2762, -3.3412360321e+02, 1.5826141879e+03, -4.3593243562e+03
    2763, -1.2198392718e+02, 1.6128937260e+03, -4.5380683135e+03
    2764, -1.2542698410e+03, -1.0213292397e+03, -1.3136662706e+03
    2765, -1.3315900146e+03, -9.1824521937e+02, -1.0199091830e+03
    2766, 1.1441326044e+03, -1.1433577015e+03, -5.7591529910e+03
    2767, 4.7953922872e+02, -1.5447810130e+03, -4.8309694763e+02
    2768, 2.3061539718e+02, -1.6009755740e+03, -5.5074330887e+03
    2769, 6.5254378622e+02, 1.4800313703e+03, -6.1098907677e+02
    2770, -1.2705325503e+03, -1.0010261178e+03, -3.4191619580e+03
    2771, -1.3031532631e+03, 9.5817421321e+02, -3.4160217897e+03
    2772, -1.4301662169e+03, 7.5559965728e+02, -3.5201346062e+03
    2773, -1.5199733266e+03, 5.5316122107e+02, -3.4717936772e+03
    2774, -1.5822731272e+03, 3.3573501578e+02, -2.4914296036e+03
    2775, -1.5455790634e+03, 4.7696080420e+02, -2.3598732243e+03
    2776, -1.4300728664e+03, 7.5577632059e+02, -2.3576185701e+03
    2777, -1.1607294602e+03, 1.1265049357e+03, -2.4272192970e+03
    2778, -1.3022190116e+03, 9.5944353446e+02, -2.3080914886e+03
    2779, -1.5970121739e+03, 2.5662884964e+02, -1.5560709921e+02
    2780, -1.6000418335e+03, 2.3700713283e+02, -3.3960631223e+02
    2781, -1.8884139634e+02, 1.6064386627e+03, -4.9713611166e+03
    2782, 1.3986459422e+03, 8.1246278582e+02, -2.1595496069e+03
    2783, 1.2942064184e+03, 9.7022471450e+02, -2.0889498636e+03
    2784, -1.2717437403e+03, 9.9948692288e+02, -4.2975837847e+03
    2785, -8.9417837410e+02, 1.3478691647e+03, -4.2593754343e+03
    2786, -1.4605403253e+03, 6.9507424652e+02, -4.0034941011e+03
    2787, -1.3946729054e+03, 8.1926414356e+02, -3.7027471933e+03
    2788, -1.5185965033e+03, -5.5692989702e+02, -3.3654264612e+03
    2789, -1.5887275630e+03, -3.0372846528e+02, -2.6047197782e+03
    2790, -1.5624835885e+03, -4.1827178436e+02, -2.8011249148e+03
    2791, -1.5013068817e+03, -6.0198330289e+02, -2.7070170944e+03
    2792, 1.3254820039e+03, 9.2704029435e+02, -1.3535999670e+03
    2793, 1.2211697989e+03, 1.0606840115e+03, -1.2387001760e+03
    2794, 1.1006136234e+03, -1.1853083573e+03, 3.5104844985e+02
    2795, -6.0220732907e+02, -1.5012170339e+03, -5.1364271250e+03
    2796, -4.8968871961e+02, -1.5415937234e+03, -5.0087907739e+03
    2797, -1.3761495038e+03, 8.5001105471e+02, -4.2847096921e+03
    2798, 1.4548083522e+03, 7.0699286292e+02, -2.0001709206e+03
    2799, -6.5628613238e+02, -1.4783757176e+03, -4.6205400422e+03
    2800, 8.9628774410e+02, 1.3464674262e+03, -1.4561012869e+03
    2801, 7.0097199078e+02, 1.4577189435e+03, -1.4738382899e+03
    2802, 1.4739563922e+03, 6.6615223777e+02, 5.7403185774e+02
    2803, 1.5246529472e+03, 5.4012928137e+02, 5.1793184056e+02
    2804, -1.0398978702e+03, -1.2389183466e+03, -4.8625532176e+03
    2805, -8.7487257176e+02, 1.3604794130e+03, -1.0376380036e+03
    2806, 4.8678792993e+02, 1.5425121592e+03, -1.6656976493e+03
    2807, -4.4972983366e+02, 1.5537211226e+03, -2.4181170345e+03
    2808, -2.0292003005e+02, 1.6047210697e+03, -2.3877520396e+03
    2809, 1.5930994191e+03, -2.7989371346e+02, -1.2354244908e+03
    2810, 8.7593287846e+02, -1.3597969857e+03, -5.4350689094e+03
    2811, 1.0540774782e+03, -1.2268768969e+03, -5.1974530184e+03
    2812, 1.2361451934e+03, -1.0431928446e+03, -5.6192515879e+03
    2813, 1.0498011797e+03, -1.2305379852e+03, -5.6503379387e+03
    2814, 1.5359486981e+03, 5.0711719228e+02, -1.6471604814e+03
    2815, 1.5331870125e+03, 5.1540647519e+02, -1.4282627025e+03
    2816, 1.5814167157e+03, 3.3974611324e+02, -1.5584148072e+03
    2817, -1.1471334384e+03, -1.1403469316e+03, -4.5924770382e+03
    2818, -1.2646472497e+03, -1.0084510815e+03, -4.4878503162e+03
    2819, -1.1836652339e+03, -1.1023805441e+03, -4.3112756086e+03
    2820, -1.4743645857e+03, 6.6524831332e+02, -5.7580442633e+02
    2821, -1.8427893399e+02, 1.6069684267e+03, -1.7131686229e+03
    2822, 3.5634693005e+02, 1.5777588901e+03, -1.7527715780e+03
    2823, -2.4099252760e+02, -1.5994464204e+03, -2.8196498135e+03
    2824, 9.8930376488e+02, 1.2796813317e+03, -2.8116590998e+03
    2825, 5.3544747747e+02, 1.5263034590e+03, -1.8860326981e+03
    2826, -9.6746582687e+01, 1.6146040842e+03, -3.2124745376e+03
    2827, -8.9636443050e+01, 1.6150144142e+03, -2.9838070583e+03
    2828, 1.4125839474e+03, -7.8798022922e+02, -6.5712294252e+03
    2829, -1.5490305798e+03, -4.6562915792e+02, -5.8379418216e+03
    2830, 1.5397382202e+03, -4.9549214261e+02, -3.0702605230e+03
    2831, 1.4976704593e+03, -6.1097417723e+02, -3.0144766943e+03
    2832, 1.6138739084e+03, -1.0824628359e+02, -1.8725697742e+03
    2833, 1.8575518555e+02, 1.6067984507e+03, -4.9282373235e+03
    2834, -1.2668118943e+03, 1.0057305178e+03, -4.4774242829e+03
    2835, -1.3234410922e+01, 1.6174458570e+03, -4.1551862647e+03
    2836, -5.5438448629e+02, -1.5195275882e+03, -4.8618698088e+03
    2837, -7.3490936154e+02, -1.4409075197e+03, -4.9523262222e+03
    2838, -8.9079378274e+02, -1.3501083981e+03, -5.0845111371e+03
    2839, 1.2958482821e+03, -9.6803072254e+02, -5.7417967694e+03
    2840, 1.6147529870e+03, -9.4228663599e+01, -6.8195493515e+03
    2841, 1.3737509594e+03, -8.5388204776e+02, -5.7427894845e+03
    2842, 1.3689628510e+03, -8.6153755730e+02, -5.9388210590e+03
    2843, 1.4896035742e+03, 6.3038673984e+02, -5.1474852628e+03
    2844, 1.5380936472e+03, 5.0057385314e+02, -5.2853685268e+03
    2845, 1.5350384707e+03, 5.0986580914e+02, -5.1103928112e+03
    2846, 1.5952115188e+03, 2.6759383426e+02, -5.2879191317e+03
    2847, 1.5843741380e+03, 3.2567597505e+02, -5.0397638346e+03
    2848, 1.6172736073e+03, 2.7061579655e+01, -5.1468754693e+03
    2849, -1.3721447659e+03, 8.5646073552e+02, -4.1346106793e+03
    2850, 1.2788298763e+03, 9.9040415861e+02, -1.1094314246e+03
    2851, 1.5458104309e+03, -4.7621041752e+02, -1.2050433761e+03
    2852, 1.5593200193e+03, 4.2991548861e+02, -1.2463411015e+03
    2853, 1.4726339338e+03, 6.6907065921e+02, -1.3121967339e+03
    2854, -1.5636958689e+03, 4.1371666568e+02, -3.4557389706e+03
    2855, 1.4690334418e+03, -6.7693943359e+02, -4.7510295666e+03
    2856, 1.5243178050e+03, -5.4107437507e+02, -4.7418709074e+03
    2857, 1.5240998905e+03, -5.4168789329e+02, -4.9229883844e+03
    2858, 1.5598993980e+03, 4.2780850634e+02, -2.6972917222e+03
    2859, 4.9094782035e+02, 1.5411932026e+03, -5.0757657324e+02
    2860, -4.9521634904e+02, 1.5398269441e+03, -6.2924145183e+03
    2861, 7.0493555269e+02, 1.4558063458e+03, -1.6659085120e+03
    2862, 1.5572192599e+03, 4.3746362897e+02, -4.1399476637e+03
    2863, 1.2010288479e+03, -1.0834371032e+03, 1.6452668260e+01
    2864, -6.6766594212e+02, 1.4732713395e+03, -3.6978441901e+03
    2865, 3.6614653892e+02, 1.5755135550e+03, -1.0528186823e+03
    2866, 1.5846487776e+03, -3.2433701886e+02, -2.1992489845e+03
    2867, -1.4102746404e+03, 7.9210585696e+02, -5.7636080013e+03
    2868, 9.1010315994e+02, 1.3371680853e+03, 6.0743962464e+01
    2869, 1.1351119130e+03, 1.1523138440e+03, 1.2358816211e+02
    2870, 1.5349156541e+03, 5.1023542088e+02, -4.3422286736e+03
    2871, 1.6047215807e+03, 2.0291598822e+02, -4.7072652666e+03
    2872, 1.1845402691e+03, 1.1014402394e+03, -3.0816959049e+03
    2873, 1.0951814714e+03, 1.1903292799e+03, -2.8508159432e+03
    2874, 1.0423976061e+03, 1.2368158638e+03, -3.0321535309e+03
    2875, 1.2281977221e+03, 1.0525381729e+03, -2.8958388423e+03
    2876, -5.3674276164e+02, 1.5258484387e+03, -8.0605911857e+02
    2877, 1.2999805897e+03, 9.6247426791e+02, 1.8533821503e+02
    2878, 1.5996357993e+03, -2.3973226636e+02, -4.3399372376e+03
    2879, 1.6166953768e+03, 5.1012829050e+01, -5.8823559547e+03
    2880, 1.2614572249e+03, 1.0124386005e+03, -1.7983416561e+03
    2881, -7.2954714842e+02, -1.4436298723e+03, -3.3037761949e+03
    2882, 1.5777833512e+03, 3.5623860897e+02, -5.5206485535e+03
    2883, 1.6019534524e+03, 2.2372167195e+02, -5.5662090907e+03
    2884, 1.6138439771e+03, 1.0869161724e+02, -5.4673556605e+03
    2885, -4.2382845487e+02, 1.5609854871e+03, -9.3138971904e+02
    2886, 1.6156306910e+03, 7.7741367122e+01, -6.7365821530e+03
    2887, 1.2376367918e+03, 1.0414227872e+03, -2.2881151948e+03
    2888, 1.0903208570e+03, 1.1947831095e+03, -2.2557607676e+03
    2889, 8.9135385768e+02, -1.3497386971e+03, -6.2637112977e+03
    2890, -1.6171042015e+03, -3.5780601184e+01, -6.5412705632e+03
    2891, -4.0959870877e+02, 1.5647795844e+03, -6.5101093909e+03
    2892, -1.6076829931e+03, -1.7793718999e+02, -3.8611511520e+03
    2893, -1.5807472305e+03, 3.4284755116e+02, -2.7333111899e+03
    2894, -1.5822793121e+03, 3.3570586587e+02, -2.9375963168e+03
    2895, -3.7313291699e+01, 1.6170695620e+03, -3.6752488569e+03
    2896, -1.6927900344e+02, 1.6086176889e+03, -3.5171102992e+03
    2897, 1.0103244378e+03, 1.2631511313e+03, -3.2273830388e+03
    2898, 2.4129750076e+02, -1.5994004396e+03, -4.1697198596e+02
    2899, -6.0826701453e+02, 1.4987719937e+03, -9.3152063582e+02
    2900, 1.5913590527e+03, 2.8962495664e+02, -1.7046930277e+03
    2901, 1.1308076699e+03, 1.1565380511e+03, -1.9947919316e+03
    2902, -6.8378861966e+02, -1.4658578968e+03, -2.8979498359e+03
    2903, 1.6076292206e+03, -1.7842236181e+02, -4.6213640746e+03
    2904, 1.5794497518e+03, -3.4877604802e+02, -4.7675668315e+03
    2905, -1.5352675606e+03, -5.0917557619e+02, -7.1824291963e+03
    2906, -3.3254798219e+02, -1.5829460160e+03, -4.8238920809e+03
    2907, 1.4471693786e+03, -7.2250054645e+02, -4.3707342979e+03
    2908, 8.9371069284e+02, 1.3481793084e+03, -6.0152191796e+02
    2909, -1.3126469726e+03, -9.4512653932e+02, -5.3909496237e+03
    2910, 1.3909985138e+03, 8.2548736179e+02, -6.7407864401e+03
    2911, -1.6157385608e+03, -7.5466238800e+01, -4.1054600521e+03
    2912, 1.6028080962e+03, -2.1751426797e+02, -6.2796221622e+03
    2913, 5.4638783331e+02, 1.5224212905e+03, -2.9371858664e+03
    2914, 1.4668001293e+03, -6.8176508478e+02, -5.7457239655e+03
    2915, 1.5764457767e+03, -3.6211181018e+02, -1.7946192338e+03
    2916, -1.5087770898e+03, 5.8300767008e+02, -3.6095930762e+03
    2917, -9.9767965520e+02, 1.2731620304e+03, -2.2283480126e+03
    2918, -1.1752425684e+03, 1.1113555486e+03, -2.2698636659e+03
    2919, 1.2581141210e+03, -1.0165899412e+03, -5.8738986473e+03
    2920, -1.3712360508e+03, 8.5791488099e+02, -5.3470048174e+03
    2921, 1.5247321421e+03, -5.3990568140e+02, -1.8896591099e+03
    2922, 1.4480873969e+03, 7.2065882419e+02, -2.3957026285e+03
    2923, 1.4092562501e+03, -7.9391628756e+02, -4.6200305547e+03
    2924, -1.4691073235e+03, 6.7677907913e+02, -4.2800768799e+03
    2925, -7.5373622796e+02, -1.4311491707e+03, -2.1859889231e+03
    2926, -4.0180594976e+02, 1.5667987199e+03, -2.2373249554e+03
    2927, -1.5277643434e+03, 5.3126486890e+02, -1.8964488972e+03
    2928, -3.4320613540e+02, 1.5806694147e+03, -3.3018995674e+03
    2929, 1.2039027608e+03, -1.0802427470e+03, -1.5173885318e+03
    2930, -2.0452313811e+02, 1.6045175399e+03, -3.1305181133e+03
    2931, -1.0785068584e+01, 1.6174640436e+03, -8.7428438277e+02
    2932, 1.6174724510e+03, 9.4403527625e+00, -4.6767662206e+03
    2933, -1.3315156392e+03, 9.1835306525e+02, -1.5969027457e+03
    2934, -1.6113228130e+03, -1.4122691721e+02, -1.9873572745e+03
    2935, 1.5745469733e+03, -3.7028108103e+02, -4.9608351212e+03
    2936, 1.6174986753e+03, 2.0701171376e+00, -1.7399521297e+03
    2937, 2.3069768034e+02, -1.6009637192e+03, -5.3389113430e+03
    2938, -1.5184665216e+03, 5.5728419385e+02, -2.8220366871e+03
    2939, 1.5051129519e+03, 5.9240294741e+02, -4.5382241771e+03
    2940, -1.0348429413e+03, 1.2431437314e+03, -2.5179949124e+03
    2941, 1.5589405715e+03, 4.3128939765e+02, -5.8588188429e+03
    2942, -1.1875610200e+03, -1.0981826231e+03, -3.2120649568e+03
    2943, 1.5264521033e+03, 5.3502357555e+02, -5.4830167466e+03
    2944, -1.6145731802e+03, 9.7260966625e+01, -1.9111163126e+03
    2945, -1.6131405725e+03, 1.1867494892e+02, -5.4596972636e+03
    2946, -1.5351901516e+03, -5.0940892069e+02, -2.9390098956e+03
    2947, -4.2476175428e+02, 1.5607317842e+03, -4.1236198711e+03
    2948, -1.3278942714e+02, 1.6120400795e+03, -4.2345654274e+03
    2949, -1.6173948005e+03, -1.8447478489e+01, -6.0970996725e+03
    2950, 1.6160420344e+03, -6.8661437011e+01, -5.3487474436e+03
    2951, -8.6455955618e+02, 1.3670563353e+03, -3.5908986443e+03
    2952, -1.6016147901e+03, -2.2613339895e+02, -2.9085650143e+03
    2953, 1.3450216217e+03, 8.9845594608e+02, -2.9459769791e+03
    2954, -6.0306005304e+02, 1.5008746858e+03, -2.4511782002e+03
    2955, 1.5743075602e+03, 3.7129766482e+02, -3.9348157379e+03
    2956, 1.5678391335e+03, 3.9772691827e+02, -5.7134278900e+03
    2957, -9.0612242848e+02, 1.3398687975e+03, -3.7122691255e+03
    2958, -6.0750251281e+02, -1.4990820348e+03, -5.9751692827e+03
    2959, 1.5415042878e+03, 4.8997018354e+02, -2.8851770590e+03
    2960, -1.2374968147e+03, 1.0415891146e+03, -1.6735332819e+03
    2961, -1.0103300465e+03, 1.2631466452e+03, -3.5396208252e+03
    2962, 1.4156367936e+03, 7.8248240784e+02, -1.4685259544e+03
    2963, 1.6133094233e+03, -1.1635701436e+02, -3.8101718525e+03
    2964, 1.1395125126e+03, -1.1479623180e+03, -1.2889584200e+03
    2965, 1.1155226524e+03, -1.1712879501e+03, -1.1602106137e+03
    2966, 1.0250555073e+03, -1.2512263812e+03, -1.1872793399e+03
    2967, 1.0507182816e+03, -1.2297549929e+03, -1.3160271462e+03
    2968, 1.6002734874e+03, 2.3543792275e+02, -7.1875868855e+03
    2969, 1.5867217639e+03, 3.1403868244e+02, -7.1037890179e+03
    2970, 1.6033801929e+03, 2.1325620018e+02, -7.0036493189e+03
    2971, 1.6119434952e+03, 1.3395677717e+02, -7.0874471866e+03
    2972, -8.1532209624e+02, 1.3969810770e+03, 6.8224630792e+02
    2973, -6.9898120436e+02, 1.4586745785e+03, 5.9644131765e+02
    2974, -7.7917764487e+02, 1.4174584466e+03, 4.9702117624e+02
    2975, -8.9189999113e+02, 1.3493778773e+03, 5.8282616652e+02
    2976, -3.0401711278e+02, -1.5886723530e+03, -4.4026014600e+03
    2977, -4.5402371695e+02, -1.5524718079e+03, -4.5227145744e+03
    2978, -3.3697215950e+02, -1.5820101181e+03, -4.6335774791e+03
    2979, -1.8468342265e+02, -1.6069219905e+03, -4.5134643647e+03
    2980, 1.5929852454e+03, 2.8054279165e+02, -3.6436010982e+03
    2981, 1.5661500249e+03, 4.0432703295e+02, -3.7077027948e+03
    2982, 1.5497128879e+03, 4.6335322928e+02, -3.5912835925e+03
    2983, 1.5812170532e+03, 3.4067415599e+02, -3.5271818959e+03
    2984, 7.8814285704e+02, -1.4124932166e+03, -1.8080991676e+03
    2985, 7.6347811560e+02, -1.4259759525e+03, -1.6204823110e+03
    2986, 5.8406208568e+02, -1.5083692287e+03, -1.6464779344e+03
    2987, 6.1018571597e+02, -1.4979918698e+03, -1.8340947910e+03
    2988, -1.5564731488e+03, 4.4011088047e+02, -6.4722017243e+03
    2989, -1.5013876085e+03, 6.0178193645e+02, -6.4778372362e+03
    2990, -1.5100120128e+03, 5.7980166532e+02, -6.6324645946e+03
    2991, -1.5627317286e+03, 4.1734373644e+02, -6.6268290827e+03
    2992, -1.5580676015e+03, 4.3443250254e+02, -4.7526006881e+03
    2993, -1.5909532959e+03, 2.9184561050e+02, -4.6437367670e+03
    2994, -1.5687587987e+03, 3.9408385103e+02, -4.5279691411e+03
    2995, -1.5267242258e+03, 5.3424656135e+02, -4.6368330622e+03
    2996, 1.4267750640e+03, -7.6198370505e+02, -3.4490545377e+03
    2997, 1.4618645739e+03, -6.9228478077e+02, -3.3286035682e+03
    2998, 1.4052458707e+03, -8.0099331645e+02, -3.2693121238e+03
    2999, 1.3649793240e+03, -8.6783506215e+02, -3.3897630933e+03
    3000, 1.6147718869e+03, 9.3904224610e+01, 4.3910326035e+02
    3001, 1.6046412225e+03, 2.0355047771e+02, 5.4400739064e+02
    3002, 1.6143350129e+03, 1.0113711544e+02, 6.5183376630e+02
    3003, 1.6174753416e+03, -8.9313610334e+00, 5.4692963601e+02
    3004, -5.1420984822e+02, -1.5335887591e+03, -6.1223255167e+03
    3005, -5.9528451667e+02, -1.5039755963e+03, -6.2934011851e+03
    3006, -4.8005534703e+02, -1.5446207022e+03, -6.3770576381e+03
    3007, -3.9697659179e+02, -1.5680292840e+03, -6.2059819698e+03
    3008, -1.2783397242e+03, -9.9103672968e+02, -1.0325727068e+02
    3009, -1.2042449510e+03, -1.0798612633e+03, -1.1066154014e+02
    3010, -1.1986349449e+03, -1.0860849501e+03, -5.3681426910e+00
    3011, -1.2731888488e+03, -9.9764543071e+02, 2.0361267711e+00
    3012, -1.3938267177e+03, -8.2070294930e+02, 1.3558567026e+02
    3013, -1.4221750215e+03, -7.7053517656e+02, 5.5338910192e+00
    3014, -1.3584915714e+03, -8.7795609258e+02, -6.5016064140e+01
    3015, -1.3263574325e+03, -9.2578734666e+02, 6.5035715100e+01
    3016, -1.6078592661e+03, 1.7633726321e+02, -4.3405083007e+03
    3017, -1.5931265175e+03, 2.7973943118e+02, -4.4373964250e+03
    3018, -1.6073963665e+03, 1.8050809156e+02, -4.5378473110e+03
    3019, -1.6156950631e+03, 7.6391839902e+01, -4.4409591867e+03
    3020, 5.5925261386e+02, 1.5177426540e+03, -2.9529340074e+02
    3021, 4.6662206407e+02, 1.5487317713e+03, -2.0227118344e+02
    3022, 5.5972068613e+02, 1.5175700984e+03, -1.0838545388e+02
    3023, 6.5030057042e+02, 1.4810183720e+03, -2.0140767118e+02
    3024, -4.8747045969e+02, -1.5422965995e+03, 7.5955397539e+02
    3025, -7.2257696626e+02, -1.4471312234e+03, 7.5229958801e+02
    3026, -5.9475374582e+02, -1.5041855709e+03, 6.4435356340e+02
    3027, -1.0112987693e+02, -1.6143354664e+03, -6.2965478377e+03
    3028, -2.8981500167e+02, -1.5913244530e+03, -6.2805760265e+03
    3029, -3.0169572982e+02, -1.5891148280e+03, -6.4351560581e+03
    3030, -1.1318778673e+02, -1.6135348695e+03, -6.4511278693e+03
    3031, -1.5496842547e+03, 4.6344898382e+02, -7.0733260079e+03
    3032, -1.5294992424e+03, 5.2624929217e+02, -6.9291600677e+03
    3033, -1.4686727563e+03, 6.7772161317e+02, -6.9861257302e+03
    3034, -1.4950843730e+03, 6.1727543913e+02, -7.1302916704e+03
    3035, -1.2042900314e+03, -1.0798109882e+03, -2.6119264426e+02
    3036, -1.2982838112e+03, -9.6476183363e+02, -2.3460910394e+02
    3037, -1.3148487068e+03, -9.4206110639e+02, -3.7574085576e+02
    3038, -1.2228678652e+03, -1.0587258541e+03, -4.0232439608e+02
    3039, 1.5537506052e+03, 4.4962796477e+02, -2.1544983248e+03
    3040, 1.5128073100e+03, 5.7246859558e+02, -2.2424890413e+03
    3041, 1.4893415252e+03, 6.3100560328e+02, -2.1489011634e+03
    3042, 1.5350422636e+03, 5.0985438988e+02, -2.0609104469e+03
    3043, 1.3676511869e+03, -8.6361824954e+02, 6.0769828011e+02
    3044, 1.4407631769e+03, -7.3519230006e+02, 7.2129188149e+02
    3045, 1.2962558997e+03, -9.6748482799e+02, 7.5390639862e+02
    3046, -3.2292821903e+02, 1.5849364704e+03, -4.6559304915e+03
    3047, -2.6952357006e+02, 1.5948866089e+03, -4.8031945879e+03
    3048, -3.9472565157e+02, 1.5685974340e+03, -4.8472029527e+03
    3049, -4.4717689328e+02, 1.5544578078e+03, -4.6999388562e+03
    3050, -7.0012261458e+02, -1.4581270776e+03, -1.6397548180e+03
    3051, -8.2553393596e+02, -1.3909708734e+03, -1.6086641863e+03
    3052, -8.5422160257e+02, -1.3735398442e+03, -1.7391751058e+03
    3053, -7.3023091430e+02, -1.4432841237e+03, -1.7702657375e+03
    3054, -1.0542608797e+03, 1.2267193026e+03, -4.2075983028e+03
    3055, -1.0979248664e+03, 1.1877993255e+03, -4.2961062806e+03
    3056, -1.1611804199e+03, 1.1260400892e+03, -4.2403036727e+03
    3057, -1.1197080432e+03, 1.1672875173e+03, -4.1517956950e+03
    3058, 9.8453184229e+02, 1.2833562645e+03, 3.0333376534e+02
    3059, 8.5538062108e+02, 1.3728183576e+03, 3.8652515102e+02
    3060, 9.3368358549e+02, 1.3208108162e+03, 4.9121218487e+02
    3061, 1.0574198344e+03, 1.2239973627e+03, 4.0802079919e+02
    3062, -1.1973229697e+03, 1.0875311288e+03, -7.7603770537e+02
    3063, -1.2184310894e+03, 1.0638289009e+03, -5.9845824259e+02
    3064, -1.0980088210e+03, 1.1877217178e+03, -5.6184197893e+02
    3065, -1.0744929636e+03, 1.2090372704e+03, -7.3942144171e+02
    3066, 4.6980269094e+02, 1.5477699059e+03, -6.9460373566e+03
    3067, 3.0300712909e+02, 1.5888652963e+03, -6.9576585758e+03
    3068, 2.7583816987e+02, 1.5938066238e+03, -6.8106897916e+03
    3069, 4.4331099650e+02, 1.5555647239e+03, -6.7990685724e+03
    3070, 1.1319539124e+03, -1.1554161979e+03, -4.0831510420e+03
    3071, 9.8677714826e+02, -1.2816306448e+03, -4.0348115594e+03
    3072, 9.4985320027e+02, -1.3092307466e+03, -4.1832032182e+03
    3073, 1.0985677909e+03, -1.1872047249e+03, -4.2315427009e+03
    3074, 1.1722721244e+02, 1.6132464259e+03, -3.0385812379e+03
    3075, 2.6085856805e+02, 1.5963267389e+03, -2.9845319571e+03
    3076, 2.9326019043e+02, 1.5906931542e+03, -3.1158122782e+03
    3077, 1.5000252478e+02, 1.6105295690e+03, -3.1698615589e+03
    3078, -1.2785614821e+03, -9.9075061772e+02, -6.1190580063e+03
    3079, -1.2005844310e+03, -1.0839295522e+03, -6.0193950492e+03
    3080, -1.2749319172e+03, -9.9541692591e+02, -5.9010870826e+03
    3081, -1.3460550871e+03, -8.9690688058e+02, -6.0007500397e+03
    3082, -1.5699858717e+03, -3.8916656163e+02, -4.0625172088e+03
    3083, -1.5338747238e+03, -5.1335619369e+02, -4.1891947208e+03
    3084, -1.4901026382e+03, -6.2920614865e+02, -4.1012889685e+03
    3085, -1.5356095192e+03, -5.0814334058e+02, -3.9746114566e+03
    3086, -1.9776005152e+02, -1.6053651336e+03, -2.2129083294e+03
    3087, -3.0864459253e+02, -1.5877798227e+03, -2.1046537659e+03
    3088, -3.6530996149e+02, -1.5757077400e+03, -2.2090414577e+03
    3089, -2.5512633746e+02, -1.5972528923e+03, -2.3172960213e+03
    3090, -1.4627093185e+03, -6.9049815320e+02, -3.9626076819e+03
    3091, -1.4337796903e+03, -7.4872027463e+02, -4.1512073013e+03
    3092, -1.4014754722e+03, -8.0757213343e+02, -4.0125260147e+03
    3093, 3.0133041095e+02, -1.5891841408e+03, -6.8317555421e+03
    3094, 4.8066597924e+02, -1.5444307904e+03, -6.7634302564e+03
    3095, 4.4686292365e+02, -1.5545480943e+03, -6.6522505523e+03
    3096, 2.6659381961e+02, -1.5953789473e+03, -6.7205758380e+03
    3097, 5.9427624280e+02, -1.5043742876e+03, -6.9528689766e+03
    3098, 6.2803995118e+02, -1.4905945357e+03, -6.7943759902e+03
    3099, 4.4572603681e+02, -1.5548744483e+03, -6.9219232427e+03
    3100, 6.2727842590e+02, 1.4909151641e+03, -2.3131820643e+03
    3101, 7.1088236654e+02, 1.4529117354e+03, -2.2523113717e+03
    3102, 7.5299186466e+02, 1.4315409536e+03, -2.3418094180e+03
    3103, 6.7053292368e+02, 1.4719686981e+03, -2.4026801106e+03
    3104, -1.3866849021e+03, 8.3271317526e+02, -2.1144479759e+03
    3105, -1.4419361200e+03, 7.3288912935e+02, -2.0142595817e+03
    3106, -1.4028100973e+03, 8.0525156378e+02, -1.9203965273e+03
    3107, -1.3425551256e+03, 9.0213745338e+02, -2.0205849215e+03
    3108, -9.6668081020e+02, 1.2968556054e+03, 4.7019489267e+02
    3109, -8.5655830929e+02, 1.3720838578e+03, 4.2008674229e+02
    3110, -9.0458279904e+02, 1.3409087253e+03, 2.9309524270e+02
    3111, -1.0119738114e+03, 1.2618301213e+03, 3.4320339309e+02
    3112, 1.0404766208e+03, -1.2384323363e+03, -4.3788516787e+03
    3113, 9.1018834103e+02, -1.3371101054e+03, -4.3363739560e+03
    3114, 8.7187990390e+02, -1.3623992378e+03, -4.4823014416e+03
    3115, 1.0049158056e+03, -1.2674582729e+03, -4.5247791643e+03
    3116, -1.4592902397e+03, -6.9769495215e+02, -3.1202728448e+02
    3117, -1.3914716390e+03, -8.2468959488e+02, -3.4863629851e+02
    3118, -1.3761129703e+03, -8.5007019887e+02, -1.9636789740e+02
    3119, -1.4462492207e+03, -7.2434069450e+02, -1.5975888337e+02
    3120, 1.5969284955e+03, 2.5714904315e+02, -2.5265602539e+02
    3121, 1.5583123112e+03, 4.3355390764e+02, -2.1919672722e+02
    3122, 1.5722072596e+03, 3.8009286102e+02, -8.6610450984e+01
    3123, 1.6047776203e+03, 2.0247231743e+02, -1.2006974916e+02
    3124, 1.3338602126e+03, 9.1494436070e+02, -5.0378043216e+03
    3125, 1.2222270255e+03, 1.0594655955e+03, -5.0655193087e+03
    3126, 1.2123631799e+03, 1.0707388898e+03, -4.9094063779e+03
    3127, 1.3253299535e+03, 9.2725765808e+02, -4.8816913909e+03
    3128, -8.0864820893e+02, 1.4008548548e+03, -7.0658627715e+03
    3129, -9.2878942163e+02, 1.3242569465e+03, -7.1392619327e+03
    3130, -9.6846431635e+02, 1.2955242637e+03, -7.0455737843e+03
    3131, -8.5069771987e+02, 1.3757251322e+03, -6.9721746231e+03
    3132, 1.6146619907e+03, 9.5775287202e+01, -2.7957027390e+02
    3133, 1.6106753655e+03, 1.4842882806e+02, -4.1984232018e+02
    3134, 1.5876838796e+03, 3.0913774984e+02, -3.9292807166e+02
    3135, 2.2142596631e+02, 1.6022723837e+03, -6.3618410502e+03
    3136, 2.6068199970e+02, 1.5963555823e+03, -6.2216837134e+03
    3137, 4.1063206378e+02, 1.5645087274e+03, -6.2902450535e+03
    3138, 3.7211244664e+02, 1.5741151727e+03, -6.4304023903e+03
    3139, -7.3699838039e+02, 1.4398401430e+03, -5.3846931057e+03
    3140, -8.5600907923e+02, 1.3724265759e+03, -5.3477772663e+03
    3141, -8.2252544141e+02, 1.3927520053e+03, -5.2030207294e+03
    3142, -7.0191725140e+02, 1.4572640194e+03, -5.2399365688e+03
    3143, -6.3468408585e+02, -1.4877776585e+03, -6.5497885548e+03
    3144, -5.8389281111e+02, -1.5084347633e+03, -6.7326062639e+03
    3145, -4.5017925706e+02, -1.5535909650e+03, -6.6953954190e+03
    3146, -5.0257787918e+02, -1.5374399908e+03, -6.5125777099e+03
    3147, -1.5676985021e+02, 1.6098849226e+03, -6.3995207875e+03
    3148, -2.5275791043e+02, 1.5976293965e+03, -6.3027298840e+03
    3149, -1.7932573681e+02, 1.6075287027e+03, -6.2201583621e+03
    3150, -8.2877122454e+01, 1.6153753844e+03, -6.3169492656e+03
    3151, -1.3368709305e+03, -9.1053960112e+02, 6.1827777472e+02
    3152, -1.3833642385e+03, -8.3821813007e+02, 4.9361188865e+02
    3153, -1.3054073727e+03, -9.5510095866e+02, 3.7942056080e+02
    3154, -1.2528135776e+03, -1.0231150423e+03, 5.0408644687e+02
    3155, -1.0091071255e+03, -1.2641238307e+03, -4.5041871788e+03
    3156, -8.9008822521e+02, -1.3505736564e+03, -4.5095968162e+03
    3157, -8.8455308954e+02, -1.3542053322e+03, -4.3630779734e+03
    3158, -1.0039248182e+03, -1.2682433558e+03, -4.3576683361e+03
    3159, 1.2652349300e+03, -1.0077136607e+03, 5.4165814607e+02
    3160, 1.3116915434e+03, -9.4645208277e+02, 3.9072004105e+02
    3161, 1.4071447776e+03, -7.9765269684e+02, 4.5676017509e+02
    3162, 3.1125376493e+02, -1.5872704066e+03, 2.1946841046e+02
    3163, 1.0538501942e+02, -1.6140632725e+03, 1.8056732692e+02
    3164, 1.2905778319e+02, -1.6123431206e+03, 4.1039428750e+01
    3165, 3.3451121661e+02, -1.5825323049e+03, 7.9940512284e+01
    3166, -1.5341201787e+03, 5.1262220729e+02, -6.1289844919e+03
    3167, -1.5728085756e+03, 3.7759692052e+02, -6.1674991883e+03
    3168, -1.5744441101e+03, 3.7071821407e+02, -6.0297271853e+03
    3169, -1.5363463085e+03, 5.0591132649e+02, -5.9912124889e+03
    3170, -1.4248058031e+03, 7.6565963297e+02, -5.0018803898e+03
    3171, -1.3733862833e+03, 8.5446847044e+02, -4.9092938692e+03
    3172, -1.3191023978e+03, 9.3609567576e+02, -5.0095629020e+03
    3173, -1.3758073114e+03, 8.5056480763e+02, -5.1021494226e+03
    3174, -8.6161815026e+00, 1.6174770513e+03, -6.2922671351e+03
    3175, 5.3501257440e+01, 1.6166149404e+03, -6.4019990534e+03
    3176, -2.0785616230e+01, 1.6173664421e+03, -6.4266811839e+03
    3177, 4.0075034046e+02, 1.5670690523e+03, 3.6082435149e+02
    3178, 4.9415012274e+02, 1.5401694407e+03, 4.6531776903e+02
    3179, 6.3040234908e+02, 1.4895969684e+03, 3.7329284679e+02
    3180, 5.3979412174e+02, 1.5247716407e+03, 2.6879942924e+02
    3181, 7.5380897212e+02, -1.4311108565e+03, -2.0469816641e+03
    3182, 8.6164662944e+02, -1.3688942019e+03, -2.1313443114e+03
    3183, 9.1762009968e+02, -1.3320208717e+03, -2.0189678964e+03
    3184, 8.1245266608e+02, -1.3986518206e+03, -1.9346052491e+03
    3185, -1.2052930059e+03, 1.0786913459e+03, -4.7786250154e+03
    3186, -1.1005517409e+03, 1.1853658151e+03, -4.8160908221e+03
    3187, -1.1240135415e+03, 1.1631422133e+03, -4.9695897557e+03
    3188, -1.2266027400e+03, 1.0543964948e+03, -4.9321239489e+03
    3189, -1.4929377181e+03, 6.2244937142e+02, -5.0652811249e+03
    3190, -1.5270222932e+03, 5.3339400627e+02, -4.8820286581e+03
    3191, -1.4674476639e+03, 6.8037019614e+02, -4.8186279229e+03
    3192, 1.1258245497e+03, 1.1613893978e+03, -4.5915090208e+03
    3193, 1.1363449429e+03, 1.1510979197e+03, -4.4476819154e+03
    3194, 1.2326935007e+03, 1.0472692984e+03, -4.4515244811e+03
    3195, 1.2231138124e+03, 1.0584417093e+03, -4.5953515866e+03
    3196, 1.2251784691e+03, 1.0560511204e+03, -4.7421389042e+03
    3197, 1.1024362708e+03, 1.1836133316e+03, -4.9040711483e+03
    3198, 1.1166197764e+03, 1.1702420797e+03, -4.7368036745e+03
    3199, -1.3088335280e+03, 9.5040046612e+02, -2.3523045855e+02
    3200, -1.3117543840e+03, 9.4636498566e+02, -7.0349565674e+01
    3201, -1.2209033955e+03, 1.0609906450e+03, -7.0105833817e+01
    3202, -1.2176299439e+03, 1.0647457771e+03, -2.3498672669e+02
    3203, -7.2982144014e+02, 1.4434912246e+03, -4.5514140494e+03
    3204, -8.3953873404e+02, 1.3825631863e+03, -4.5051514113e+03
    3205, -8.0887712514e+02, 1.4007226872e+03, -4.4065361496e+03
    3206, -6.9784421408e+02, 1.4592188674e+03, -4.4527987876e+03
    3207, 4.7445815454e+02, 1.5463491551e+03, -5.0400970028e+03
    3208, 6.1765897061e+02, 1.4949259667e+03, -5.0726624456e+03
    3209, 5.9018435187e+02, 1.5059842897e+03, -5.2259072825e+03
    3210, 4.4606601680e+02, 1.5547769482e+03, -5.1933418397e+03
    3211, 3.7589492989e+02, -1.5732162126e+03, -1.3910955891e+03
    3212, 2.3062112970e+02, -1.6009747483e+03, -1.4504603098e+03
    3213, 3.0207894444e+02, -1.5890420263e+03, -1.5554970974e+03
    3214, 4.4596404298e+02, -1.5548062009e+03, -1.4961323767e+03
    3215, 1.4389639124e+03, -7.3870772889e+02, -3.9375891516e+03
    3216, 1.4938469447e+03, -6.2026410164e+02, -4.0442639343e+03
    3217, 1.5259320118e+03, -5.3650512139e+02, -3.9459291403e+03
    3218, 1.4776988024e+03, -6.5780886237e+02, -3.8392543576e+03
    3219, 1.4156284953e+03, -7.8249742069e+02, -3.7436031018e+03
    3220, 1.5088044140e+03, -5.8293695233e+02, -3.7353531042e+03
    3221, 1.4530600617e+03, -7.1057913499e+02, -3.6397018484e+03
    3222, -5.0020553380e+02, -1.5382134683e+03, -2.4788432136e+02
    3223, -3.3453919975e+02, -1.5825263896e+03, -2.9755583521e+02
    3224, -2.9311900743e+02, -1.5907191762e+03, -1.2191065792e+02
    3225, -4.5988552984e+02, -1.5507454818e+03, -7.2239144058e+01
    3226, -4.0317977791e+02, 1.5664457593e+03, 5.5061918863e+01
    3227, -4.0851348550e+02, 1.5650632518e+03, -1.9397183360e+02
    3228, -5.3391528124e+02, 1.5268401103e+03, -6.6409914738e+01
    3229, 8.8298512687e+02, 1.3552282154e+03, -4.2857590744e+02
    3230, 7.2617564753e+02, 1.4453287442e+03, -3.9969287068e+02
    3231, 7.5935172732e+02, 1.4281775815e+03, -2.6192536727e+02
    3232, 9.1403917244e+02, 1.3344806635e+03, -2.9080840404e+02
    3233, 2.6682858255e+02, -1.5953396997e+03, -1.9437107332e+03
    3234, 4.3238892140e+02, -1.5586359648e+03, -1.8671941358e+03
    3235, 3.9229427967e+02, -1.5692072674e+03, -1.7416368723e+03
    3236, 2.2584751260e+02, -1.6016551286e+03, -1.8181534696e+03
    3237, -8.2455451556e+01, -1.6153969631e+03, -7.1807295333e+03
    3238, -1.0516505207e+02, -1.6140776195e+03, -6.9461967377e+03
    3239, -1.8730930739e+02, -1.6066180235e+03, -7.1287622085e+03
    3240, -1.5902558592e+03, 2.9562231381e+02, -3.9176177087e+03
    3241, -1.5587939628e+03, 4.3181897998e+02, -3.9821177038e+03
    3242, -1.5799509851e+03, 3.4649839043e+02, -4.1182777554e+03
    3243, -1.6039674122e+03, 2.0879365549e+02, -4.0537777604e+03
    3244, -1.3720142300e+03, 8.5666983290e+02, -6.6484367271e+03
    3245, -1.2898483934e+03, 9.7601094876e+02, -6.5462784871e+03
    3246, -1.2463491468e+03, 1.0309801425e+03, -6.6503578673e+03
    3247, -1.3336085605e+03, 9.1531112604e+02, -6.7525161073e+03
    3248, -1.2145854225e+03, -1.0682174411e+03, -6.4575355016e+03
    3249, -1.1389760431e+03, -1.1484945900e+03, -6.5740987213e+03
    3250, -1.0453083630e+03, -1.2343567865e+03, -6.4755528176e+03
    3251, -1.1269859428e+03, -1.1602624422e+03, -6.3589895980e+03
    3252, 9.4779473862e+02, 1.3107217033e+03, -1.6221859735e+02
    3253, 1.0674386838e+03, 1.2152698903e+03, -1.9127152835e+02
    3254, 1.0360798918e+03, 1.2421130012e+03, -3.1986133504e+02
    3255, 8.0998556681e+02, -1.4000820089e+03, -4.1334934813e+03
    3256, 7.6766068909e+02, -1.4237286667e+03, -4.2866642191e+03
    3257, -7.8065952791e+02, -1.4166428454e+03, -6.6370167718e+03
    3258, -7.1222863741e+02, -1.4522522570e+03, -6.4121432865e+03
    3259, -8.5425130728e+02, -1.3735213701e+03, -6.4993715035e+03
    3260, -9.0944931704e+02, 1.3376128699e+03, -6.4659744085e+03
    3261, -1.0368490250e+03, 1.2414710425e+03, -6.4514519150e+03
    3262, -1.0423495207e+03, 1.2368563888e+03, -6.2844516482e+03
    3263, -9.1537782755e+02, 1.3335627780e+03, -6.2989741417e+03
    3264, -9.1905241628e+02, 1.3310330222e+03, -6.1424679059e+03
    3265, -7.9123618036e+02, 1.4107627571e+03, -6.1612386937e+03
    3266, -7.8734217695e+02, 1.4129396825e+03, -6.3177449295e+03
    3267, 4.8566502032e+02, -1.5428660791e+03, -2.9130374794e+03
    3268, 4.4902156540e+02, -1.5539259583e+03, -3.0840538577e+03
    3269, 5.9707548745e+02, -1.5032654830e+03, -3.1253803303e+03
    3270, 6.3247875519e+02, -1.4887165191e+03, -2.9543639520e+03
    3271, -5.2151007486e+02, -1.5311216450e+03, -8.1066611344e+02
    3272, -3.6777579184e+02, -1.5751340314e+03, -8.6661319239e+02
    3273, -3.2126604899e+02, -1.5852742273e+03, -6.9389645670e+02
    3274, -4.7622888227e+02, -1.5458047424e+03, -6.3794937775e+02
    3275, -1.4903863245e+03, 6.2853389222e+02, -6.3234676907e+03
    3276, -1.4233132705e+03, 7.6843059801e+02, -6.3408868597e+03
    3277, -1.4368269466e+03, 7.4285568951e+02, -6.4952564052e+03
    3278, 8.7696472720e+02, 1.3591317512e+03, -4.9731794444e+03
    3279, 7.6132096372e+02, 1.4271288100e+03, -4.9583329531e+03
    3280, 7.7033813670e+02, 1.4222817601e+03, -4.8351580132e+03
    3281, 8.8554922472e+02, 1.3535541439e+03, -4.8500045045e+03
    3282, 9.9755149505e+02, 1.2732624493e+03, -4.8607137119e+03
    3283, 1.0774041369e+03, 1.2064437723e+03, -5.0130748866e+03
    3284, 9.7066470449e+02, 1.2938764553e+03, -4.9697174503e+03
    3285, 6.8627528252e+02, -1.4646953562e+03, -3.6907978510e+03
    3286, 7.6088213233e+02, -1.4273628238e+03, -3.6125835579e+03
    3287, 6.8809572062e+02, -1.4638410191e+03, -3.5259797337e+03
    3288, 6.1170486899e+02, -1.4973721659e+03, -3.6041940268e+03
    3289, -1.0106695987e+03, 1.2628749788e+03, 6.6811658685e+02
    3290, -1.1242983079e+03, 1.1628669592e+03, 7.6314588752e+02
    3291, -9.3090515672e+02, 1.3227705164e+03, 7.7247069933e+02
    3292, 6.0222886211e+02, -1.5012083958e+03, -3.2632394172e+03
    3293, 4.5758705672e+02, -1.5514252594e+03, -3.3230106107e+03
    3294, 5.2134338184e+02, -1.5311784116e+03, -3.4775763183e+03
    3295, 6.6378514849e+02, -1.4750239071e+03, -3.4178051248e+03
    3296, 2.7896636521e+02, -1.5932620679e+03, -3.2695001117e+03
    3297, 3.3786198541e+02, -1.5818203213e+03, -3.4048509205e+03
    3298, 3.9973630312e+02, -1.5673280250e+03, -3.1876598019e+03
    3299, 5.2817715784e+02, 1.5288345692e+03, -6.5024560744e+03
    3300, 4.6909205680e+02, 1.5479854302e+03, -6.6486846402e+03
    3301, 3.1140397307e+02, 1.5872409444e+03, -6.5766309561e+03
    3302, 8.5833973689e+02, 1.3709701478e+03, -6.2089950920e+03
    3303, 9.7625453654e+02, 1.2896640376e+03, -6.2239787565e+03
    3304, 9.7355251402e+02, 1.2917049789e+03, -6.3505758622e+03
    3305, 8.5546776021e+02, 1.3727640588e+03, -6.3355921977e+03
    3306, 6.2727228494e+02, 1.4909177477e+03, -6.8414874514e+03
    3307, 6.5195399299e+02, 1.4802912690e+03, -6.6911035191e+03
    3308, 7.9135223562e+01, -1.6155630184e+03, -1.9332826126e+03
    3309, 7.8093441545e+01, -1.6156137114e+03, -2.0226957368e+03
    3310, 2.6579980214e+02, -1.5955114275e+03, -2.0331238574e+03
    3311, -1.5284426242e+03, 5.2931030093e+02, 2.1806877343e+02
    3312, -1.4830373393e+03, 6.4568297195e+02, 1.3071796016e+02
    3313, -1.5085247644e+03, 5.8366024816e+02, -3.1827818345e+00
    3314, -1.5490676999e+03, 4.6550565099e+02, 8.4168031438e+01
    3315, -8.7944776763e+02, -1.3575263806e+03, -6.6993287738e+03
    3316, -8.2195671204e+02, -1.3930877264e+03, -6.7940161560e+03
    3317, -7.2078462010e+02, -1.4480247862e+03, -6.7317041540e+03
    3318, 1.0655223141e+03, -1.2169504707e+03, -7.0756687919e+03
    3319, 1.0005362972e+03, -1.2709183168e+03, -6.9560573329e+03
    3320, 9.2277040670e+02, -1.3284581388e+03, -7.0160451477e+03
    3321, 9.9086643697e+02, -1.2784717260e+03, -7.1356566067e+03
    3322, 6.0749457474e+02, 1.4990852516e+03, -3.9315209265e+03
    3323, 7.1680865059e+02, 1.4499971064e+03, -3.9740381573e+03
    3324, 6.8050240974e+02, 1.4673863569e+03, -4.0705030169e+03
    3325, 5.7000059355e+02, 1.5137389383e+03, -4.0279857861e+03
    3326, 6.5247069562e+02, -1.4800635937e+03, -6.2594348310e+03
    3327, 5.1907039889e+02, -1.5319504467e+03, -6.2573333986e+03
    3328, 5.0679910023e+02, -1.5360536846e+03, -6.4213179951e+03
    3329, 6.4061019263e+02, -1.4852356147e+03, -6.4234194275e+03
    3330, -1.4685923467e+03, -6.7789583959e+02, -6.6302442940e+03
    3331, -1.4679564439e+03, -6.7927176368e+02, -6.4433280242e+03
    3332, -1.5269968979e+03, -5.3346670365e+02, -6.4367599111e+03
    3333, -1.5274961404e+03, -5.3203551661e+02, -6.6236761810e+03
    3334, 4.5681131330e+02, -1.5516538512e+03, 5.4488046762e+02
    3335, 3.1831769605e+02, -1.5858688768e+03, 6.7584874773e+02
    3336, 1.9519624035e+02, -1.6056788838e+03, 6.0059818464e+02
    3337, 3.3591418167e+02, -1.5822351003e+03, 4.6962990453e+02
    3338, 2.0989970402e+02, -1.6038230464e+03, 7.8090709466e+02
    3339, 4.8352286917e+02, -1.5435387540e+03, 7.6244165307e+02
    3340, -7.8654350230e+02, -1.4133844378e+03, -1.8811879260e+03
    3341, -7.0006900374e+02, -1.4581528178e+03, -1.9511503408e+03
    3342, -6.4205927209e+02, -1.4846097606e+03, -1.8402281523e+03
    3343, 1.1214913471e+03, -1.1655742827e+03, -7.1788450910e+03
    3344, 1.1906966058e+03, -1.0947820983e+03, -7.0781734605e+03
    3345, 1.1379754251e+03, -1.1494860512e+03, -6.9749971614e+03
    3346, 8.7876062203e+02, 1.3579712880e+03, -7.0670017348e+03
    3347, 9.8147642841e+02, 1.2856944701e+03, -6.9763265259e+03
    3348, 1.0553330861e+03, 1.2257970172e+03, -7.0846949269e+03
    3349, 9.5704206989e+02, 1.3039849410e+03, -7.1753701357e+03
    3350, 3.9227038936e+02, -1.5692132397e+03, -4.2846400996e+03
    3351, 5.0032645417e+02, -1.5381741414e+03, -4.4712354387e+03
    3352, 5.9628926228e+02, -1.5035775223e+03, -4.3913088716e+03
    3353, 4.9040461096e+02, -1.5413661368e+03, -4.2047135324e+03
    3354, 6.4824135276e+02, -1.4819208476e+03, -4.2282707848e+03
    3355, 7.1766094447e+02, -1.4495754616e+03, -4.4497023059e+03
    3356, 4.7486664011e+02, -1.5462237626e+03, -2.0174934844e+03
    3357, 6.5093785196e+02, -1.4807383844e+03, -1.9843941395e+03
    3358, -9.5412384692e+02, -1.3061217151e+03, 1.1567750622e+02
    3359, -1.0098902804e+03, -1.2634982673e+03, -4.4251917131e+01
    3360, -9.1571738570e+02, -1.3333296365e+03, -9.5096050042e+01
    3361, -8.5701005544e+02, -1.3718017404e+03, 6.4833373309e+01
    3362, -1.1350468715e+03, -1.1523779109e+03, 4.3491887952e+01
    3363, -1.0899979570e+03, -1.1950776977e+03, -9.6940612764e+01
    3364, -1.0576232637e+03, -1.2238215891e+03, 9.6180583585e+01
    3365, 1.1688714127e+03, -1.1180545025e+03, -3.4936994491e+03
    3366, 1.1170744222e+03, -1.1698080976e+03, -3.6187006741e+03
    3367, 1.2165896529e+03, -1.0659342693e+03, -3.6990504247e+03
    3368, 1.2635837020e+03, -1.0097833817e+03, -3.5740491997e+03
    3369, 1.5660913958e+03, 4.0455406300e+02, -3.4434596891e+03
    3370, 1.5907206380e+03, 2.9311107401e+02, -3.3597045661e+03
    3371, 1.6013040295e+03, 2.2832357569e+02, -3.4434267729e+03
    3372, 6.7780328002e+02, 1.4686350682e+03, -6.5549841469e+03
    3373, 8.2755743150e+02, 1.3897679474e+03, -6.5924190509e+03
    3374, 8.0306767156e+02, 1.4040614534e+03, -6.7285384231e+03
    3375, 9.2146266778e+02, 1.3293655637e+03, -6.8805697596e+03
    3376, 1.0674294691e+03, 1.2152779840e+03, -6.7850947516e+03
    3377, 1.1220558576e+03, 1.1650308590e+03, -6.8808515180e+03
    3378, 9.2977577947e+02, 1.3235645998e+03, -6.7357165619e+03
    3379, 7.9425256995e+02, 1.4090667497e+03, -6.8733916208e+03
    3380, -9.6351656299e+02, 1.2992082523e+03, -6.9120192049e+03
    3381, -9.2475959066e+02, 1.3270742065e+03, -6.7918563601e+03
    3382, -8.0973199488e+02, 1.4002286765e+03, -6.8520117782e+03
    3383, 2.4432529300e+02, 1.5989407122e+03, -6.6716228587e+03
    3384, 9.5376625554e+01, 1.6146855884e+03, -6.5616267748e+03
    3385, 1.6324994383e+02, 1.6092407234e+03, -6.4666348723e+03
    3386, 1.2582875423e+03, 1.0163752805e+03, -6.1592883179e+03
    3387, 1.3603851098e+03, 8.7501920152e+02, -6.1119245213e+03
    3388, 1.3944784544e+03, 8.1959507692e+02, -6.2844040494e+03
    3389, 1.2981489881e+03, 9.6494323914e+02, -6.3317678460e+03
    3390, 1.1936856249e+03, 1.0915222759e+03, -6.3461293788e+03
    3391, 1.0923654314e+03, 1.1929140850e+03, -6.3610752131e+03
    3392, 1.0694343283e+03, 1.2135140986e+03, -6.2197610927e+03
    3393, 1.1726682936e+03, 1.1140715072e+03, -6.2048152584e+03
    3394, -2.1586554280e+02, -1.6030309783e+03, -6.9787702652e+02
    3395, -1.2672026689e+02, -1.6125285188e+03, -8.7511603617e+02
    3396, -8.9615351214e+01, -1.6150155847e+03, -6.3155005285e+02
    3397, 1.3362899101e+03, -9.1139208151e+02, 2.4713837982e+02
    3398, 1.3573992531e+03, -8.7964397218e+02, 5.7566242031e+01
    3399, 1.4502431861e+03, -7.1631065262e+02, 7.6759477812e+01
    3400, 1.4329576457e+03, -7.5029236679e+02, 2.6633161560e+02
    3401, -1.2335587086e+03, -1.0462500478e+03, 1.0213485153e+02
    3402, -1.2894728690e+03, -9.7650702516e+02, 1.6513443986e+02
    3403, -5.0822158670e+02, 1.5355836248e+03, -4.4874961316e+02
    3404, -3.6847349910e+02, 1.5749709618e+03, -3.9626726115e+02
    3405, -3.5167861967e+02, 1.5788060041e+03, -5.2228663483e+02
    3406, -4.9183826990e+02, 1.5409092661e+03, -5.7476898684e+02
    3407, 1.3918361110e+03, 8.2407432325e+02, -3.7214630362e+03
    3408, 1.4230871488e+03, 7.6884928097e+02, -3.8847804761e+03
    3409, 1.3471687698e+03, 8.9523324087e+02, -3.9485526013e+03
    3410, 1.3110190885e+03, 9.4738334350e+02, -3.7852351614e+03
    3411, 1.2734138882e+03, 9.9735817004e+02, -4.2288690561e+03
    3412, 1.2326536781e+03, 1.0473161699e+03, -4.3413262394e+03
    3413, 1.1624588717e+03, 1.1247202415e+03, -4.2764313234e+03
    3414, 1.2063596962e+03, 1.0774982754e+03, -4.1639741402e+03
    3415, 1.5508262737e+03, -4.5961300967e+02, 5.2496137691e+02
    3416, 1.4983902646e+03, -6.0920675064e+02, 6.0430111547e+02
    3417, 1.4713427017e+03, -6.7190542793e+02, 4.8718233065e+02
    3418, 1.5300457866e+03, -5.2465811819e+02, 4.0784259208e+02
    3419, -1.0753140523e+03, -1.2083070549e+03, 4.9622908422e+02
    3420, -9.7712383789e+02, -1.2890055296e+03, 4.1131234458e+02
    3421, -9.0963983887e+02, -1.3374833134e+03, 5.4975518117e+02
    3422, -1.0118446315e+03, -1.2619337113e+03, 6.3467192081e+02
    3423, -2.6198449635e+02, -1.5961423413e+03, -7.2215640471e+03
    3424, -4.2951390352e+02, -1.5594306835e+03, -7.2968892013e+03
    3425, -2.0894385389e+02, -1.6039478532e+03, -7.3096748458e+03
    3426, 2.1804709435e+02, -1.6027356971e+03, -7.3054668695e+03
    3427, 4.4510512158e+02, -1.5550523080e+03, -7.3069092286e+03
    3428, 2.8699412675e+02, -1.5918356138e+03, -7.2273760982e+03
    3429, 6.0722461052e+02, -1.4991946246e+03, -6.0045363833e+03
    3430, 5.2193233792e+02, -1.5309777545e+03, -5.8377128891e+03
    3431, 4.0179236185e+02, -1.5668022045e+03, -5.9297145208e+03
    3432, 4.8929000792e+02, -1.5417203177e+03, -6.0965380150e+03
    3433, 8.6162144328e+02, -1.3689100549e+03, -7.1152203367e+03
    3434, 8.7669916680e+02, -1.3593030644e+03, -7.2623970157e+03
    3435, 1.0049366645e+03, -1.2674417345e+03, -7.2828332857e+03
    3436, 2.5615774933e+02, -1.5970878052e+03, -6.5376743775e+03
    3437, 8.5176419133e+01, -1.6152557778e+03, -6.4020969948e+03
    3438, 1.7170081257e+02, -1.6083609921e+03, -6.6179601952e+03
    3439, -4.7357480866e+02, 1.5466199115e+03, -7.2829682019e+03
    3440, -3.4265540714e+02, 1.5807888923e+03, -7.1831116618e+03
    3441, -2.4482550848e+02, 1.5988641970e+03, -7.2851434599e+03
    3442, -4.2789329393e+02, 1.5598761422e+03, -7.1043326454e+03
    3443, -3.3033115470e+02, 1.5834101106e+03, -7.0119489974e+03
    3444, -2.4396040036e+02, 1.5989964268e+03, -7.0907280138e+03
    3445, 6.6832620805e+02, -1.4729719378e+03, -7.2877583929e+03
    3446, 7.0209311842e+02, -1.4571792968e+03, -7.1651554086e+03
    3447, 4.7820733015e+02, 1.5451938388e+03, -8.1153462920e+02
    3448, 3.3944367319e+02, 1.5814816606e+03, -8.4421760923e+02
    3449, 3.0175447611e+02, 1.5891036738e+03, -7.3189991094e+02
    3450, 4.4134151792e+02, 1.5561246462e+03, -6.9921693090e+02
    3451, -5.4888699837e+02, 1.5215220383e+03, 3.1030545048e+02
    3452, -3.5504693476e+02, 1.5780519396e+03, 1.8986780941e+02
    3453, -5.9519882602e+02, 1.5040095104e+03, 1.7549955994e+02
    3454, 1.3163620399e+03, -9.3994533343e+02, -2.8392967083e+03
    3455, 1.3118566864e+03, -9.4622316840e+02, -2.6635001613e+03
    3456, 1.2219319347e+03, -1.0598059242e+03, -2.6653116425e+03
    3457, 1.2269809250e+03, -1.0539563841e+03, -2.8411081895e+03
    3458, -6.7131882310e+02, 1.4716104402e+03, 3.9335335014e+02
    3459, -5.9622637062e+02, 1.5036024624e+03, 5.2472372251e+02
    3460, -4.7143256179e+02, 1.5472742451e+03, 4.4167582286e+02
    3461, -1.1873717208e+03, -1.0983872936e+03, 6.2736521782e+02
    3462, -1.1477438898e+03, -1.1397325184e+03, 3.7295031327e+02
    3463, -2.7326598697e+02, -1.5942496512e+03, -3.4133844181e+03
    3464, -4.2051334429e+02, -1.5618818064e+03, -3.5288870392e+03
    3465, -3.0606979407e+02, -1.5882781655e+03, -3.6424077915e+03
    3466, -1.5686189537e+02, -1.6098759566e+03, -3.5269051704e+03
    3467, -3.1775515999e+02, -1.5859816860e+03, -1.8793797367e+03
    3468, -4.1034423962e+02, -1.5645842435e+03, -2.0071169903e+03
    3469, -2.1486885841e+02, -1.6031648773e+03, -1.9769165122e+03
    3470, -5.5153164572e+02, 1.5205653862e+03, -7.1747706483e+03
    3471, -6.0639233306e+02, 1.4995314563e+03, -7.0354376639e+03
    3472, -4.8426325444e+02, 1.5433066288e+03, -6.9649996609e+03
    3473, -1.5648846506e+03, 4.0919711668e+02, 5.4238720880e+02
    3474, -1.5660623998e+03, 4.0466629445e+02, 3.7134874327e+02
    3475, -1.5919402492e+03, 2.8641315078e+02, 5.7270889395e+02
    3476, 5.2793252956e+02, 1.5289190607e+03, 7.6792657817e+02
    3477, 4.3858733449e+02, 1.5569031441e+03, 6.6628375586e+02
    3478, 2.8596515799e+02, 1.5920207845e+03, 7.6585717769e+02
    3479, 1.4296574844e+03, 7.5656178029e+02, -2.7898643723e+03
    3480, 1.3996285616e+03, 8.1076885712e+02, -2.6679581574e+03
    3481, 1.4597667950e+03, 6.9669731904e+02, -2.6078345773e+03
    3482, 1.4853821305e+03, 6.4027039313e+02, -2.7297407923e+03
    3483, 7.9651099717e+01, 1.6155376666e+03, -6.9484548400e+03
    3484, -6.2439368858e+01, 1.6162943962e+03, -6.9004697642e+03
    3485, -2.5056635001e+01, 1.6173059126e+03, -6.7836078810e+03
    3486, 1.1697836349e+02, 1.6132644893e+03, -6.8315929567e+03
    3487, 1.2050084419e+03, -1.0790092237e+03, 6.5124731999e+02
    3488, 1.1315857176e+03, -1.1557768010e+03, 7.6484092137e+02
    3489, -3.2450562158e+02, -1.5846142595e+03, -6.7896628251e+03
    3490, -1.9714064994e+02, -1.6054413144e+03, -6.6649435360e+03
    3491, -3.2488756795e+02, -1.5845359946e+03, -6.5706761299e+03
    3492, -4.4107446330e+02, -1.5562003624e+03, -6.9258432091e+03
    3493, -3.0771332649e+02, -1.5879605659e+03, -7.0383021635e+03
    3494, -1.8915711322e+02, -1.6064015178e+03, -6.9021217794e+03
    3495, -5.0741643315e+02, -1.5358498668e+03, -7.0875723948e+03
    3496, -5.8422925505e+02, -1.5083044877e+03, -6.8613874637e+03
    3497, -6.4838515506e+02, -1.4818579354e+03, -7.0231166494e+03
    3498, 4.1561180840e+01, 1.6169659608e+03, 4.5809576749e+02
    3499, 1.7153575123e+02, 1.6083786047e+03, 3.4671222306e+02
    3500, -3.2827072775e+01, 1.6171668539e+03, 3.8610984513e+02
    3501, -1.2880895068e+03, -9.7833106490e+02, 7.4545228260e+02
    3502, -1.4209306596e+03, -7.7282747788e+02, 7.4032549213e+02
    3503, -1.4467631800e+03, 7.2331359106e+02, 6.0954907964e+02
    3504, -1.5146575982e+03, 5.6755494024e+02, 7.2380885578e+02
    3505, -1.4211969621e+03, 7.7233764956e+02, 7.5324022386e+02
    3506, -2.3954354163e+02, 1.5996640715e+03, 3.4937997775e+02
    3507, -3.5972141268e+02, 1.5769929471e+03, 4.0202147646e+02
    3508, 5.0629448946e+02, 1.5362200819e+03, -4.1424329242e+03
    3509, 3.7781116745e+02, 1.5727571242e+03, -4.0770906881e+03
    3510, 4.4315500567e+02, 1.5556091704e+03, -3.9626435499e+03
    3511, -4.1963305336e+02, 1.5621185456e+03, -6.8294613654e+03
    3512, -2.6416569737e+02, 1.5957827967e+03, -6.8764107019e+03
    3513, -5.0149583595e+02, -1.5377932815e+03, -3.4314772731e+03
    3514, -6.0450306711e+02, -1.5002940685e+03, -3.5194358454e+03
    3515, -5.2533813274e+02, -1.5298124383e+03, -3.6168456115e+03
    3516, -1.0843555759e+02, 1.6138612022e+03, 5.5601917066e+02
    3517, -3.5577686956e+01, 1.6171086785e+03, 6.5806844115e+02
    3518, 1.1440653615e+02, 1.6134489129e+03, 5.6014503798e+02
    3519, -1.5185621002e+03, 5.5702369607e+02, 5.1890761041e+02
    3520, -1.5620055180e+03, 4.2005358180e+02, 7.4728845417e+02
    3521, 8.1232776384e+02, 1.3987243667e+03, -7.2775681411e+03
    3522, 6.8996961563e+02, 1.4629587074e+03, -7.2401980957e+03
    3523, 7.5963864486e+02, 1.4280249925e+03, -7.0296316894e+03
    3524, 5.9071111496e+02, 1.5057777488e+03, -6.9977275199e+03
    3525, -1.2906660035e+03, 9.7492949359e+02, 7.5755396817e+02
    3526, -1.3395809725e+03, 9.0654788523e+02, 6.4329419202e+02
    3527, -1.0193420592e+03, 1.2558853516e+03, -5.0169706549e+03
    3528, -1.0557547770e+03, 1.2254338419e+03, -5.1539302366e+03
    3529, -1.1576598103e+03, 1.1296592467e+03, -5.1065493374e+03
    3530, 3.1400872415e+02, -1.5867276928e+03, -7.1425283728e+03
    3531, 1.1906062099e+02, -1.6131121531e+03, -7.0916738317e+03
    3532, 9.1625734448e+01, -1.6149027756e+03, -7.1765215570e+03
    3533, -5.3904054240e+02, 1.5250382106e+03, 7.7698100868e+02
    3534, -6.4755261580e+02, 1.4822219334e+03, 6.8675661727e+02
    3535, -7.2508462888e+02, 1.4458763885e+03, 7.7727560859e+02
    3536, -5.4328974748e+02, 1.5235296191e+03, 6.1503902213e+02
    3537, -4.2327527571e+02, 1.5611355774e+03, 7.4095304088e+02
    3538, -4.2762555807e+02, 1.5599495608e+03, 5.7901105433e+02
    3539, 8.5112369309e+01, 1.6152591540e+03, -6.6925260238e+03
    3540, -5.5437503384e+02, -1.5195310368e+03, -7.2533575940e+03
    3541, -3.8138811848e+02, -1.5718935565e+03, -7.1311040021e+03
    3542, 4.9655409163e+02, -1.5393960777e+03, -7.2096676215e+03
    3543, 9.5734923398e+01, -1.6146643845e+03, -6.8428890803e+03
    3544, 5.4145688405e+02, -1.5241819749e+03, -7.0937057988e+03
    3545, 3.6037710983e+02, -1.5768432353e+03, -7.0265665501e+03
    3546, 1.1967296195e+03, 1.0881840229e+03, -1.4644631444e+03
    3547, 1.2059388843e+03, 1.0779692284e+03, -1.5987115636e+03
    3548, 1.1067760487e+03, 1.1795562844e+03, -1.6170112742e+03
    3549, 1.0967066022e+03, 1.1889242527e+03, -1.4827628550e+03
    3550, 2.1432711760e+02, -1.6032373925e+03, -6.9363988494e+03
    3551, -1.3874614495e+03, 8.3141865284e+02, 5.5569198159e+02
    3552, -1.4060866267e+03, 7.9951650900e+02, 4.2446789653e+02
    3553, -1.4629041075e+03, 6.9008537311e+02, 4.7832499459e+02
    3554, -2.0219540750e+02, 1.6048125333e+03, 7.6115932570e+02
    3555, -2.4888004093e+02, 1.5982380847e+03, 6.3461236658e+02
    3556, -8.4313424271e+01, -1.6153010544e+03, -6.6961984792e+03
    3557, -1.2846958300e+03, -9.8278322857e+02, -6.9749694405e+03
    3558, -1.2138699892e+03, -1.0690303547e+03, -6.8756300666e+03
    3559, -1.2931577711e+03, -9.7162195784e+02, -6.7660468073e+03
    3560, -1.3570780781e+03, -8.8013938659e+02, -6.8653861812e+03
    3561, -7.2930867547e+02, 1.4437503613e+03, 2.0445057766e+02
    3562, -8.8343637390e+02, 1.3549341029e+03, 1.8112690418e+02
    3563, -7.5186734546e+02, 1.4321318881e+03, 3.1641891618e+02
    3564, 1.1632465053e+03, -1.1239056090e+03, -2.4090200978e+03
    3565, 1.1657166095e+03, -1.1213434069e+03, -2.2461550509e+03
    3566, 1.0799991513e+03, -1.2041212909e+03, -2.2362534709e+03
    3567, 1.0773471191e+03, -1.2064946892e+03, -2.3991185178e+03
    3568, -3.1512100082e+02, 1.5865071714e+03, 5.3935670794e+02
    3569, -6.9410550066e+02, 1.4610009596e+03, -7.2768024464e+03
    3570, 5.9007778652e+02, -1.5060260475e+03, 6.5085858264e+02
    3571, 7.2178353015e+02, -1.4475271278e+03, 7.5591692957e+02
    3572, -1.2422736959e+02, 1.6127224841e+03, -7.1805046204e+03
    3573, -1.4740430590e+02, 1.6107694499e+03, -6.9848887504e+03
    3574, -2.7062710909e+01, 1.6172735884e+03, -7.0746653570e+03
    3575, 9.1424569692e+02, -1.3343391831e+03, -1.6066392465e+03
    3576, 9.0723002595e+02, -1.3391190873e+03, -1.4181355268e+03
    3577, 7.5598357925e+02, -1.4299633135e+03, -1.4319785914e+03
    3578, -1.7982760884e+02, 1.6074726377e+03, -6.7919917157e+03
    3579, 1.3445710422e+03, -8.9913011431e+02, -3.6606275394e+03
    3580, 1.3868584788e+03, -8.3242405646e+02, -3.5538364042e+03
    3581, 1.3113691383e+03, -9.4689874497e+02, -3.4672580645e+03
    3582, -1.5540217443e+03, -4.4868994670e+02, -4.4183529056e+03
    3583, -1.5003507637e+03, -6.0436233828e+02, -4.3362996194e+03
    3584, -1.5781193926e+03, -3.5474699806e+02, -4.2712480069e+03
    3585, 7.5247838382e+02, -1.4318109274e+03, -7.0243185863e+03
    3586, 1.3015279999e+03, -9.6038071382e+02, -3.7650711563e+03
    3587, 1.3779059685e+03, -8.4716078285e+02, -3.8480467187e+03
    3588, 8.1658991502e+02, -1.3962403664e+03, -6.9251433974e+03
    3589, -7.7771443674e+02, -1.4182617900e+03, -6.9468969313e+03
    3590, -8.3664332161e+02, -1.3843172333e+03, -7.0683291224e+03
    3591, -7.1010159521e+02, -1.4532934922e+03, -7.1445488404e+03
    3592, -1.3414877029e+03, -9.0372395839e+02, -4.1464413028e+03
    3593, -1.4310939580e+03, -7.5384105305e+02, -4.2937289334e+03
    3594, -1.3382484438e+03, -9.0851381537e+02, -4.2889629349e+03
    3595, -5.6178594033e+00, 1.6174902441e+03, -7.2803611605e+03
    3596, -1.2078555342e+03, -1.0758212019e+03, -5.8315986067e+03
    3597, -1.1086996440e+03, -1.1777484237e+03, -5.8842683326e+03
    3598, -1.0700047537e+03, -1.2130111612e+03, -5.7623539982e+03
    3599, -1.1724072658e+03, -1.1143461998e+03, -5.7096842724e+03
    3600, -1.5920471715e+03, -2.8581821774e+02, 5.7188745727e+02
    3601, -1.5670211568e+03, -4.0093758149e+02, 3.7040518953e+02
    3602, -1.5660056154e+03, -4.0488598697e+02, 5.4062223122e+02
    3603, -1.7544760591e+02, 1.6079565876e+03, 4.6076351202e+02
    3604, 2.0318336952e+02, -1.6046877479e+03, -4.7584458196e+03
    3605, 1.0010138443e+02, -1.6143995673e+03, -4.5822107890e+03
    3606, 1.0348542731e+02, -1.6141861777e+03, -4.8533834681e+03
    3607, -6.6595942426e+02, 1.4740435188e+03, -6.9358142486e+03
    3608, -7.5189772135e+02, 1.4321159404e+03, -7.1654861867e+03
    3609, 8.3164557447e+02, -1.3873254443e+03, -4.7708595265e+03
    3610, 9.6542036251e+02, -1.2977941954e+03, -4.7948429649e+03
    3611, 9.8512713167e+02, -1.2828993665e+03, -4.6693128805e+03
    3612, 8.5273522674e+02, -1.3744631254e+03, -4.6453294421e+03
    3613, -1.4042649512e+03, -8.0271177695e+02, -6.5453318423e+03
    3614, -1.4298506806e+03, -7.5619658889e+02, -6.7394200658e+03
    3615, -1.3588782809e+03, -8.7735743444e+02, -6.6545076140e+03
    3616, -1.4668851894e+03, -6.8158205016e+02, -5.9886282341e+02
    3617, -1.4111060294e+03, -7.9062381945e+02, -6.0871078202e+02
    3618, -1.4059779115e+03, -7.9970767300e+02, -4.8845703492e+02
    3619, -1.4624591276e+03, -6.9102789393e+02, -4.7860907632e+02
    3620, -1.0611328094e+03, 1.2207798371e+03, 1.9327505721e+02
    3621, -1.2024136217e+03, 1.0819000565e+03, 2.6870736381e+02
    3622, -1.1586417319e+03, 1.1286521107e+03, 4.1863569968e+02
    3623, -1.3162992866e+03, 9.4003321113e+02, 4.2874803193e+02
    3624, -1.3099566211e+03, 9.4885188556e+02, 2.8939822517e+02
    3625, -1.4006856047e+03, 8.0894133711e+02, 2.8511808977e+02
    3626, 1.4030844675e+03, 8.0477340109e+02, -7.1542524727e+03
    3627, 1.4434372368e+03, 7.2992821106e+02, -7.2924545640e+03
    3628, 1.3328269859e+03, 9.1644883958e+02, -7.2467979087e+03
    3629, -1.0758559749e+03, 1.2078245614e+03, -7.0492417412e+03
    3630, -1.0712418989e+03, 1.2119187448e+03, -6.9156871618e+03
    3631, 4.0102917977e+01, 1.6170027848e+03, 7.6440911546e+02
    3632, 2.0003167890e+02, 1.6050836668e+03, 6.6276629315e+02
    3633, -1.5938093017e+03, -2.7582269630e+02, 6.7348207430e+02
    3634, -1.5621623852e+03, -4.1946982299e+02, 7.4646701878e+02
    3635, -1.6006074388e+03, -2.3315676421e+02, 7.9451505552e+02
    3636, -1.6005757137e+03, 2.3337445145e+02, 7.9365321013e+02
    3637, -1.5936685053e+03, 2.7663503998e+02, 6.7344166430e+02
    3638, 1.6157747073e+03, -7.4688319888e+01, -1.1739655380e+03
    3639, 1.6163893505e+03, 5.9930939291e+01, -1.3161782707e+03
    3640, 1.6086257365e+03, 1.6920251182e+02, -1.2077179128e+03
    3641, 1.6171245161e+03, 3.4850386892e+01, -1.0655051801e+03
    3642, 1.6160639907e+03, 6.8142702183e+01, -4.3666228669e+03
    3643, 1.6030166806e+03, 2.1597169171e+02, -4.4427533219e+03
    3644, 1.5933134353e+03, 2.7867283129e+02, -4.3081609308e+03
    3645, 1.6121482820e+03, 1.3146926138e+02, -4.2320304758e+03
    3646, -1.6139665708e+03, -1.0685578240e+02, 6.6826505225e+02
    3647, -1.6175000000e+03, 2.5154605563e-05, 7.4124999673e+02
    3648, -1.6139520197e+03, 1.0707533790e+02, 6.6740320686e+02
    3649, 1.7281063998e+02, -1.6082421250e+03, -4.2489483227e+03
    3650, 2.8845572715e+02, -1.5915714070e+03, -4.3964057896e+03
    3651, 2.7796844706e+02, -1.5934364727e+03, -4.1371826327e+03
    3652, 8.4787664298e+01, 1.6152762309e+03, -6.1767492424e+03
    3653, 2.7314601610e+02, 1.5942702104e+03, -6.0896607717e+03
    3654, 1.4229791361e+03, -7.6904917149e+02, -1.9326605936e+03
    3655, 1.3404949638e+03, -9.0519583632e+02, -1.9188381123e+03
    3656, 1.3335849927e+03, -9.1534546334e+02, -2.0704864820e+03
    3657, 1.4171002789e+03, -7.7982885917e+02, -2.0843089632e+03
    3658, 1.3060432691e+03, 9.5423122418e+02, -1.7174177914e+03
    3659, 1.3944476330e+03, 8.1964751497e+02, -1.6871633282e+03
    3660, 1.4031827911e+03, 8.0460195420e+02, -1.8215582889e+03
    3661, 1.3162310721e+03, 9.4012872242e+02, -1.8518127520e+03
    3662, 6.9731180256e+02, -1.4594733639e+03, -4.6127303063e+03
    3663, 7.7418572489e+01, -1.6156461910e+03, -4.0848329419e+03
    3664, 2.9728265792e+02, -1.5899463108e+03, -4.0360300314e+03
    3665, 9.7017039198e+01, -1.6145878558e+03, -3.9836803406e+03
    3666, -1.4463453019e+03, -7.2414882294e+02, -7.4265568053e+02
    3667, -1.3849003943e+03, -8.3567765789e+02, -8.0075604321e+02
    3668, -1.3445412458e+03, -8.9917467060e+02, -6.6681114469e+02
    3669, -6.0811212330e+02, 1.4988348460e+03, -6.7373442767e+03
    3670, -7.5464740518e+02, 1.4306689148e+03, -6.6535418063e+03
    3671, -3.5634153003e+02, -1.5777601098e+03, -2.4984898828e+03
    3672, -2.0412623826e+02, -1.6045680817e+03, -2.4506875232e+03
    3673, -4.0641060673e+02, -1.5656106377e+03, -2.3650983809e+03
    3674, 4.9337654383e+02, -1.5404174226e+03, -3.9015605105e+03
    3675, 2.9732357191e+02, -1.5899386603e+03, -3.8960798220e+03
    3676, 4.9333690410e+02, -1.5404301182e+03, -4.0415107198e+03
    3677, 9.2129847314e+02, -1.3294793618e+03, -1.2882644805e+03
    3678, 1.0376940752e+03, -1.2407647869e+03, -1.4458981925e+03
    3679, -1.5905338191e+03, 2.9412313806e+02, -7.1200313984e+03
    3680, -1.5745483527e+03, 3.7027521529e+02, -7.0165713479e+03
    3681, -1.5701794310e+03, 3.8838486623e+02, -7.1767860584e+03
    3682, -1.1127284714e+03, -1.1739427580e+03, -7.1230295681e+02
    3683, -1.0507745477e+03, -1.2297069163e+03, -8.8325934468e+02
    3684, -9.4710765873e+02, -1.3112182628e+03, -8.1159872944e+02
    3685, -1.0133983429e+03, -1.2606863403e+03, -6.4064234157e+02
    3686, -1.2591047747e+03, 1.0153627018e+03, -6.2533610935e+03
    3687, -1.1574798537e+03, 1.1298436344e+03, -6.2755935144e+03
    3688, -1.1655882840e+03, 1.1214767952e+03, -6.4476567987e+03
    3689, -1.2663859426e+03, 1.0062668108e+03, -6.4254243778e+03
    3690, 1.1114326716e+03, -1.1751696330e+03, -2.0586223342e+03
    3691, 1.0096198507e+03, -1.2637143693e+03, -2.0343961579e+03
    3692, 9.7588269119e+02, -1.2899454341e+03, -2.2120272946e+03
    3693, -8.5088753197e+02, -1.3756077413e+03, -8.6847432051e+02
    3694, -7.8223699816e+02, -1.4157724142e+03, -7.1136512920e+02
    3695, -8.8150604147e+02, -1.3561907494e+03, -6.5448953813e+02
    3696, -9.9653745302e+01, -1.6144272610e+03, -1.7897562066e+03
    3697, -1.1569011327e+02, -1.6133573837e+03, -2.0275118682e+03
    3698, -8.2431384977e+01, -1.6153981914e+03, -2.2836386487e+03
    3699, 3.6515564333e+02, 1.5757435090e+03, -3.4495784574e+03
    3700, 4.6401873479e+02, 1.5495137507e+03, -3.5944415112e+03
    3701, 3.4951585739e+02, 1.5792862044e+03, -3.6557184398e+03
    3702, 2.4899996329e+02, 1.5982194056e+03, -3.5108553860e+03
    3703, 7.7107854979e+02, -1.4218804873e+03, -2.9917511300e+03
    3704, 7.9288639088e+02, -1.4098359554e+03, -2.8256222479e+03
    3705, 6.5533242086e+02, -1.4787987247e+03, -2.7882350698e+03
    3706, 1.0365168985e+03, -1.2417483517e+03, -3.0788407769e+03
    3707, 1.0332218160e+03, -1.2444914339e+03, -2.8665061803e+03
    3708, 9.1386344917e+02, -1.3346010064e+03, -2.8591446253e+03
    3709, 9.1739780005e+02, -1.3321739851e+03, -3.0714792219e+03
    3710, -4.2444321971e+02, -1.5608184402e+03, -4.6601875758e+02
    3711, -3.2358195277e+02, -1.5848031328e+03, -5.0267710113e+02
    3712, -2.3247194539e+02, -1.6007070452e+03, -3.3421417876e+02
    3713, 3.9239673504e+02, -1.5691816505e+03, -6.4987555156e+03
    3714, 3.3836380462e+02, -1.5817130542e+03, -6.2955259314e+03
    3715, 2.0124810998e+02, -1.6049316024e+03, -6.3344447933e+03
    3716, 1.6082652061e+03, -1.7259570390e+02, -2.4797448274e+03
    3717, 1.5922720441e+03, -2.8456280101e+02, -2.3863472631e+03
    3718, 1.5768377536e+03, -3.6040109443e+02, -2.4767292456e+03
    3719, 1.5981683924e+03, -2.4932717350e+02, -2.5701268099e+03
    3720, 1.0837631116e+03, 1.2007346784e+03, -5.7035213129e+03
    3721, 1.0174519916e+03, 1.2574170728e+03, -5.5521388016e+03
    3722, 1.1146214868e+03, 1.1721455503e+03, -5.4915935396e+03
    3723, 1.1761940632e+03, 1.1103484929e+03, -5.6429760509e+03
    3724, -1.1944244420e+03, 1.0907137582e+03, -5.2380222360e+03
    3725, -1.2835008171e+03, 9.8434338648e+02, -5.1783409941e+03
    3726, -1.2502089225e+03, 1.0262962049e+03, -5.0468680954e+03
    3727, 1.9538005979e+02, -1.6056565269e+03, -4.4884355449e+03
    3728, 9.5637120689e+01, -1.6146701803e+03, -4.3254825684e+03
    3729, -1.4183825168e+02, -1.6112691148e+03, -1.7172359261e+03
    3730, -3.5912120271e+02, -1.5771297384e+03, -1.8068594563e+03
    3731, -1.2975249314e+03, 9.6578222301e+02, -4.8948187555e+03
    3732, 1.0000441272e+03, -1.2713056256e+03, -2.4316470392e+03
    3733, 1.0312241667e+03, -1.2461472497e+03, -2.5813769752e+03
    3734, 1.1068982533e+03, -1.1794416081e+03, -2.5488484538e+03
    3735, 1.2424685268e+03, -1.0356535183e+03, -6.7933262269e+03
    3736, 1.2004721445e+03, -1.0840539103e+03, -6.9091980333e+03
    3737, 1.2605001646e+03, -1.0136299054e+03, -6.9616523374e+03
    3738, 1.2996600050e+03, -9.6290711986e+02, -6.8457805310e+03
    3739, 5.6963022969e+02, -1.5138783476e+03, -4.6235975051e+03
    3740, 3.8415673147e+02, -1.5712192258e+03, -4.5628994613e+03
    3741, 4.5508019793e+02, -1.5521624475e+03, -4.7152615277e+03
    3742, 2.9210294985e+02, -1.5909060678e+03, -4.6549292166e+03
    3743, -9.6432327208e+02, -1.2986095937e+03, -6.5949005250e+03
    3744, -9.4024653884e+02, -1.3161469128e+03, -6.3800237960e+03
    3745, 1.0253060371e+03, 1.2510210950e+03, -2.5687213641e+03
    3746, 1.1233345743e+03, 1.1637979568e+03, -2.4765665970e+03
    3747, 1.1695735670e+03, 1.1173199726e+03, -2.5802838229e+03
    3748, 1.0751601836e+03, 1.2084439704e+03, -2.6724385899e+03
    3749, -1.0548817864e+03, -1.2261854128e+03, -6.6827008511e+03
    3750, -9.7444536983e+02, -1.2910315531e+03, -6.7871290999e+03
    3751, 1.1201636151e+02, 1.6136166164e+03, -6.2972052312e+03
    3752, 1.5200084081e+03, 5.5306481468e+02, -5.9847275018e+03
    3753, 1.4827461835e+03, 6.4635130168e+02, -6.1270870366e+03
    3754, 1.4266031509e+03, 7.6230551606e+02, -6.0245616994e+03
    3755, 1.4711713899e+03, 6.7228044116e+02, -5.8822021647e+03
    3756, -1.2938750497e+03, -9.7066657806e+02, -5.1819441191e+03
    3757, -1.1965827706e+03, -1.0883454981e+03, -5.1535658669e+03
    3758, -1.2182978262e+03, -1.0639815114e+03, -5.0103261322e+03
    3759, -1.3131959921e+03, -9.4436356158e+02, -5.0387043845e+03
    3760, 1.5375145226e+03, 5.0234982116e+02, -3.4678834196e+03
    3761, 1.5298128077e+03, 5.2533705705e+02, -3.3638973648e+03
    3762, 1.5598521953e+03, 4.2798058223e+02, -3.3394736343e+03
    3763, 1.5096435912e+03, 5.8076025834e+02, -3.6315765133e+03
    3764, 1.4944924087e+03, 6.1870727357e+02, -3.5081763403e+03
    3765, 1.5087878122e+03, 5.8297992045e+02, -3.1200777774e+03
    3766, 1.4569636030e+03, 7.0254061058e+02, -3.1813086295e+03
    3767, 1.4273145376e+03, 7.6097270704e+02, -3.0887842281e+03
    3768, 1.4839385565e+03, 6.4360905098e+02, -3.0275533759e+03
    3769, -1.2549857698e+03, -1.0204493949e+03, -5.2876066643e+02
    3770, -1.1572734879e+03, -1.1300550093e+03, -5.8820500376e+02
    3771, -1.1218167637e+03, -1.1652610860e+03, -4.6176873342e+02
    3772, 3.0775463788e+02, -1.5879525600e+03, -1.1222790989e+03
    3773, 9.4238569603e+01, -1.6147524089e+03, -1.1404036519e+03
    3774, 1.3060014162e+02, -1.6122189222e+03, -1.2751147179e+03
    3775, 3.4345811156e+02, -1.5806146828e+03, -1.2569901650e+03
    3776, 1.0060230003e+02, -1.6143684298e+03, -1.4999159044e+03
    3777, 7.4223202827e+02, -1.4371492150e+03, -3.2627177709e+03
    3778, 7.3729758210e+02, -1.4396869540e+03, -3.1248586840e+03
    3779, -8.1459367746e+02, -1.3974059506e+03, 2.6261155903e+02
    3780, -7.1865118293e+02, -1.4490847895e+03, 2.3960464763e+01
    3781, -6.7393275465e+02, -1.4704152108e+03, 2.2173865048e+02
    3782, 9.1656217719e+02, -1.3327490482e+03, -1.7592892963e+03
    3783, 1.0415264254e+03, -1.2375495769e+03, -1.7510940057e+03
    3784, 1.0393751261e+03, -1.2393569289e+03, -1.5984439559e+03
    3785, 8.5497873614e+02, -1.3730686839e+03, -1.1815785350e+03
    3786, 7.7115965424e+02, -1.4218365017e+03, -9.9253709382e+02
    3787, 6.2686771321e+02, -1.4910878982e+03, -1.0754738757e+03
    3788, 7.1509607360e+02, -1.4508424641e+03, -1.2645153169e+03
    3789, -7.0293203410e+02, -1.4567747957e+03, -5.5658693399e+03
    3790, -7.5531469712e+02, -1.4303167336e+03, -5.7551450231e+03
    3791, -6.5172602786e+02, -1.4803916491e+03, -5.7853443985e+03
    3792, -5.9759504889e+02, -1.5030590167e+03, -5.5960687152e+03
    3793, 9.6244918009e+02, -1.2999991637e+03, -1.0805933943e+03
    3794, 1.8463702606e+02, -1.6069273221e+03, -2.5574216599e+03
    3795, 6.8958392129e+01, -1.6160293903e+03, -2.4812340844e+03
    3796, 1.1596150617e+02, -1.6133378998e+03, -2.6902110130e+03
    3797, 5.8191067527e+02, -1.5092005221e+03, 4.0002716727e+02
    3798, 4.2872113014e+02, -1.5596488203e+03, 3.0200396058e+02
    3799, 5.1832243240e+02, -1.5322036764e+03, 1.7231581189e+02
    3800, 6.6833337650e+02, -1.4729686853e+03, 2.7033901857e+02
    3801, -1.3368120601e+03, -9.1062602969e+02, -4.9030091256e+03
    3802, -1.2471148448e+03, -1.0300537917e+03, -4.8584050871e+03
    3803, -1.2749959557e+03, -9.9533489988e+02, -4.7173095759e+03
    3804, -1.3613717664e+03, -8.7348335048e+02, -4.7619136143e+03
    3805, -3.9185248788e+02, 1.5693176472e+03, -5.6388845895e+03
    3806, -5.4386079650e+02, 1.5233258627e+03, -5.6048264327e+03
    3807, -5.1808956887e+02, 1.5322824311e+03, -5.4893516427e+03
    3808, -3.6532714344e+02, 1.5757037565e+03, -5.5234097994e+03
    3809, -1.1727066949e+03, -1.1140310848e+03, -9.6067258213e+02
    3810, -1.1319487211e+03, -1.1554212837e+03, -1.1183577596e+03
    3811, -1.0059416100e+03, -1.2666442781e+03, -1.0409445221e+03
    3812, 9.1872413279e+02, 1.3312596358e+03, -4.2629498803e+03
    3813, 9.3205176503e+02, 1.3219628426e+03, -4.1052776133e+03
    3814, 1.0652718635e+03, 1.2171697116e+03, -4.1009413901e+03
    3815, 1.0529902729e+03, 1.2278101381e+03, -4.2586136571e+03
    3816, 1.1327028864e+03, 1.1546819567e+03, -3.9284722137e+03
    3817, 1.1498133143e+03, 1.1376447566e+03, -4.0755209251e+03
    3818, 1.0469837383e+03, 1.2329360493e+03, -3.9538926787e+03
    3819, 4.0656578856e+02, 1.5655703464e+03, -5.8784173545e+03
    3820, 4.4402473528e+02, 1.5553611428e+03, -6.0608518257e+03
    3821, 3.4787619134e+02, 1.5796481904e+03, 5.6234565739e+02
    3822, 2.6339432197e+02, 1.5959102986e+03, 4.5972440222e+02
    3823, -9.1743476740e+02, -1.3321485268e+03, -6.1399215593e+03
    3824, -7.7956990629e+02, -1.4172427496e+03, -6.0115373339e+03
    3825, -8.8203676005e+02, -1.3558456416e+03, -5.8654630683e+03
    3826, -1.0132457061e+03, -1.2608090216e+03, -5.9938472937e+03
    3827, -1.1121829298e+03, -1.1744596122e+03, -6.1289740103e+03
    3828, -1.2051445094e+03, -1.0788572479e+03, -6.2386280629e+03
    3829, -1.0275845630e+03, -1.2491501975e+03, -6.2493355454e+03
    3830, -1.4052302861e+03, -8.0102065714e+02, -5.8736225116e+03
    3831, -1.4644999488e+03, -6.8669217997e+02, -5.9681782934e+03
    3832, -1.4131402978e+03, -7.8698205115e+02, -6.0953058215e+03
    3833, -1.4728038848e+03, 6.6869646842e+02, 3.1851641896e+02
    3834, -1.4131114979e+03, 7.8703376334e+02, 9.7319630968e+01
    3835, 1.5751212954e+03, -3.6783033414e+02, -3.7222811845e+03
    3836, 1.5369081362e+03, -5.0420197433e+02, -3.6228249240e+03
    3837, 1.5540125346e+03, -4.4872184285e+02, -3.8348093647e+03
    3838, 4.1293964123e+02, -1.5639012445e+03, -3.5731428639e+03
    3839, 5.0544489878e+02, -1.5364998224e+03, -3.6997605724e+03
    3840, -1.4398063102e+03, 7.3706447422e+02, -7.2403774834e+03
    3841, -1.3763539902e+03, 8.4967990660e+02, -7.1264315867e+03
    3842, -1.3072568659e+03, 9.5256796949e+02, -7.2710541033e+03
    3843, -2.5343262801e+02, 1.5975225047e+03, -9.9193024738e+02
    3844, -1.3736138421e+02, 1.6116569424e+03, -9.7714791456e+02
    3845, -1.1611219180e+02, 1.6133270620e+03, -1.1148818596e+03
    3846, -2.3235961136e+02, 1.6007233556e+03, -1.1296641924e+03
    3847, 1.5327787193e+03, 5.1661944195e+02, -6.9553697891e+03
    3848, 1.5667963781e+03, 4.0181508133e+02, -6.8249694197e+03
    3849, 1.5854054136e+03, 3.2061803513e+02, -6.9107954699e+03
    3850, 1.5573433989e+03, 4.3702149583e+02, -7.0411958393e+03
    3851, -1.0122731077e+03, -1.2615900307e+03, -1.9320871753e+03
    3852, -9.3231927741e+02, -1.3217741921e+03, -1.8091323400e+03
    3853, -1.0377867792e+03, -1.2406872495e+03, -1.6875628602e+03
    3854, -1.1125243567e+03, -1.1741361956e+03, -1.8105176955e+03
    3855, -1.6152658819e+03, 8.4984591213e+01, -4.2736313744e+03
    3856, -1.6090206151e+03, 1.6540529106e+02, -4.1756481629e+03
    3857, -1.5970689746e+03, 2.5627512615e+02, -4.2425250892e+03
    3858, -1.3566972047e+03, -8.8072637336e+02, -6.4431764106e+03
    3859, -1.2913353073e+03, -9.7404279890e+02, -6.5577181804e+03
    3860, -1.2867668866e+03, -9.8007001260e+02, -6.3429937318e+03
    3861, 5.6252188125e+02, 1.5165340033e+03, -5.8392086941e+03
    3862, 6.8098839913e+02, 1.4671608808e+03, -5.7551305492e+03
    3863, 7.4638654852e+02, 1.4349959478e+03, -5.8450518728e+03
    3864, 6.3026433395e+02, 1.4896553693e+03, -5.9291300177e+03
    3865, 3.6483428966e+02, 1.5758179435e+03, -5.7523768092e+03
    3866, 5.2203795534e+02, 1.5309417439e+03, -5.7131681488e+03
    3867, 1.6072354239e+03, 1.8193554404e+02, -8.1286977934e+02
    3868, 1.6048111762e+03, 2.0220617848e+02, -7.0013809509e+02
    3869, 1.6148591043e+03, 9.2392225726e+01, -6.7442056556e+02
    3870, 1.6158965755e+03, 7.2003521731e+01, -7.8715224981e+02
    3871, 7.2195600822e+02, 1.4474411118e+03, 4.7602519926e+02
    3872, 5.8233518710e+02, 1.5090367722e+03, 5.6925586750e+02
    3873, 6.7068070649e+02, 1.4719013690e+03, 6.7116641125e+02
    3874, 8.0640867882e+02, 1.4021452467e+03, 5.7793574301e+02
    3875, -2.8147858005e+01, 1.6172550659e+03, -6.5359773526e+03
    3876, -1.6409662623e+02, 1.6091546064e+03, -6.5088169562e+03
    3877, 3.1108951902e+02, -1.5873026054e+03, -4.9117170796e+03
    3878, 3.9887537354e+02, -1.5675473474e+03, -4.8082004765e+03
    3879, -5.5347374008e+02, -1.5198595557e+03, -4.2021367828e+02
    3880, -6.0382257125e+02, -1.5005680766e+03, -5.9214429844e+02
    3881, 3.5750664796e+02, 1.5774965124e+03, -5.0204325297e+03
    3882, 3.6964167685e+02, 1.5746972029e+03, -4.8793876280e+03
    3883, 4.8634990400e+02, 1.5426503236e+03, -4.8990521010e+03
    3884, 3.0765314165e+02, -1.5879722272e+03, -6.1347305477e+03
    3885, 1.3989507803e+03, -8.1193778348e+02, -4.0325700040e+03
    3886, 1.3479710406e+03, -8.9402478921e+02, -4.1180851694e+03
    3887, 1.4049781976e+03, -8.0146273423e+02, -4.2162125187e+03
    3888, 1.4503290343e+03, -7.1613681803e+02, -4.1306973533e+03
    3889, 4.6987518002e+02, 1.5477479010e+03, -4.5741311171e+03
    3890, 3.3776508350e+02, 1.5818410155e+03, -4.5119859721e+03
    3891, 3.9570090519e+02, 1.5683516964e+03, -4.3946062704e+03
    3892, 5.2646806058e+02, 1.5294239540e+03, -4.4567514153e+03
    3893, 1.0625615811e+02, 1.6140061582e+03, -2.2778706060e+03
    3894, 2.2541999663e+02, 1.6017153540e+03, -2.2256177525e+03
    3895, 2.9043429780e+02, 1.5912115411e+03, -2.3582554059e+03
    3896, 1.7186955407e+02, 1.6083429691e+03, -2.4105082595e+03
    3897, -5.4501951316e+02, 1.5229116784e+03, -5.9064811180e+03
    3898, -6.4681423421e+02, 1.4825442983e+03, -5.8150009958e+03
    3899, -5.8879947057e+02, 1.5065262804e+03, -5.7206396335e+03
    3900, -4.8551502639e+02, 1.5429132863e+03, -5.8121197558e+03
    3901, 5.4082662660e+02, -1.5244057235e+03, -1.3206904532e+03
    3902, 5.8387208683e+02, -1.5084427852e+03, -1.4881537277e+03
    3903, -4.8987678726e+02, -1.5415339709e+03, -5.6458740368e+03
    3904, -4.2991296376e+02, -1.5593207154e+03, -5.4740004971e+03
    3905, -5.3903818116e+02, -1.5250390452e+03, -5.4241951756e+03
    3906, -5.2568218906e+02, -1.5296942460e+03, -1.9158894837e+03
    3907, -5.9048834126e+02, -1.5058651231e+03, -2.0543511607e+03
    3908, -4.7674453564e+02, -1.5456457866e+03, -2.1455786673e+03
    3909, -3.3858369553e+02, -1.5816659986e+03, -5.1852662734e+03
    3910, -3.2891072197e+02, -1.5837057766e+03, -5.4072703934e+03
    3911, -2.0291625150e+02, -1.6047215475e+03, -5.3448359125e+03
    3912, -2.1272002004e+02, -1.6034514159e+03, -5.1228317925e+03
    3913, -1.3210438104e+03, 9.3335389912e+02, -1.7717112302e+03
    3914, -1.2682080915e+03, 1.0039693654e+03, -1.8411222147e+03
    3915, -1.3047454985e+03, 9.5600493422e+02, -1.9132515343e+03
    3916, -1.3549126264e+03, 8.8346931169e+02, -1.8438405497e+03
    3917, -1.4782259207e+03, -6.5662346696e+02, -6.2130547386e+03
    3918, -1.4272574263e+03, -7.6107981786e+02, -6.3411725925e+03
    3919, -1.3529787714e+03, -8.8642805363e+02, -6.2234236753e+03
    3920, 1.6150044736e+03, -8.9815367612e+01, -2.6288297358e+03
    3921, 1.6174498474e+03, 1.2737397759e+01, -2.5909682049e+03
    3922, 1.6159714250e+03, -7.0303652755e+01, -2.4418832966e+03
    3923, -8.4816474143e+02, -1.3772882129e+03, -2.9875760948e+03
    3924, -9.6399496716e+02, -1.2988533225e+03, -2.9038857478e+03
    3925, -1.0289924330e+03, -1.2479907143e+03, -3.0246505301e+03
    3926, -9.1731382652e+02, -1.3322318093e+03, -3.1083408771e+03
    3927, 1.1612997458e+03, -1.1259170265e+03, -4.4462164135e+03
    3928, 1.2138662690e+03, -1.0690345789e+03, -4.2989074357e+03
    3929, 1.3607441481e+03, -8.7446075572e+02, -4.2999082741e+03
    3930, 1.2761575462e+03, -9.9384514256e+02, -4.1927966338e+03
    3931, 1.3055021156e+03, -9.5497145306e+02, -4.4060190759e+03
    3932, 1.5726642556e+03, -3.7819755327e+02, -5.4976986129e+03
    3933, 1.5906651426e+03, -2.9341208915e+02, -5.3474587760e+03
    3934, 1.5655691256e+03, -4.0657048953e+02, -5.2735223981e+03
    3935, 1.5415427446e+03, -4.8984917753e+02, -5.4237622349e+03
    3936, 1.4127122945e+03, -7.8775010191e+02, -2.2347702637e+03
    3937, 1.4816760686e+03, -6.4880064554e+02, -2.2536572507e+03
    3938, 1.4852850807e+03, -6.4049549499e+02, -2.1031959503e+03
    3939, 1.4385404861e+03, 7.3953195999e+02, -3.5050281952e+03
    3940, 1.4573582121e+03, 7.0172166261e+02, -3.6822910409e+03
    3941, 1.3698462705e+03, 8.6013222548e+02, -3.5442001905e+03
    3942, 1.5230016558e+03, 5.4476802982e+02, -3.2396423888e+03
    3943, 1.4929841713e+03, 6.2233794208e+02, -3.3903519849e+03
    3944, 1.4849412443e+03, 6.4129225076e+02, -3.2660970089e+03
    3945, 4.7468622132e+02, -1.5462791602e+03, -1.9401866695e+02
    3946, 4.8712555762e+02, -1.5424055696e+03, 2.3477151869e+01
    3947, 3.2175362426e+02, -1.5851753390e+03, -1.3755530654e+02
    3948, -1.5263955993e+03, -5.3518475737e+02, -3.8236566418e+03
    3949, -1.4807691007e+03, -6.5086797458e+02, -3.8162861719e+03
    3950, -1.4826185417e+03, -6.4664403645e+02, -3.7126574413e+03
    3951, -1.5279150716e+03, -5.3083121984e+02, -3.7200279112e+03
    3952, 1.5954200706e+03, -2.6634760823e+02, -6.8378556297e+03
    3953, 1.5813175443e+03, -3.4020739843e+02, -6.6598522587e+03
    3954, 1.5433108820e+03, -4.8424969960e+02, -6.7392028432e+03
    3955, 1.5641488830e+03, -4.1200063339e+02, -6.9172062142e+03
    3956, 1.5646280222e+03, -4.1017728154e+02, -7.1576528668e+03
    3957, 1.5899491520e+03, -2.9726746242e+02, -7.0515715488e+03
    3958, 1.5306911360e+03, -5.2277231767e+02, -7.0232875322e+03
    3959, -1.5576554963e+03, -4.3590779384e+02, -1.3180953404e+03
    3960, -1.5917852345e+03, -2.8727341918e+02, -1.4172336942e+03
    3961, -1.5733274564e+03, -3.7542904107e+02, -1.5427072361e+03
    3962, -1.5309774334e+03, -5.2193327959e+02, -1.4435688823e+03
    3963, 1.0730474518e+03, -1.2103203775e+03, -3.7603408673e+03
    3964, 1.0111794649e+03, -1.2624667678e+03, -3.5572957910e+03
    3965, 9.6379815962e+02, -1.2989993678e+03, -3.6989359842e+03
    3966, -1.4775974421e+03, -6.5803651043e+02, 4.5463163712e+02
    3967, -1.4169533525e+03, -7.8009579337e+02, 3.5768224448e+02
    3968, -1.4490207513e+03, -7.1878029485e+02, 5.9056128129e+02
    3969, -1.4844753799e+03, 6.4236990631e+02, -4.6966326975e+03
    3970, -1.4069009115e+03, 7.9808274969e+02, -4.6617156876e+03
    3971, -1.3858905637e+03, 8.3403452890e+02, -4.7837109130e+03
    3972, 1.3151365814e+03, -9.4165918590e+02, -5.4217684827e+03
    3973, 1.4037738150e+03, -8.0357036176e+02, -5.5385869027e+03
    3974, 1.4491031597e+03, -7.1861414033e+02, -5.4191935463e+03
    3975, 1.3688400391e+03, -8.6173267168e+02, -5.3023751263e+03
    3976, 4.7162961161e+02, 1.5472141931e+03, -7.2706472881e+03
    3977, 5.4531337913e+02, 1.5228064777e+03, -7.1258453838e+03
    3978, -7.0794563706e+02, -1.4543449470e+03, -2.5533816386e+03
    3979, -5.8802037151e+02, -1.5068305454e+03, -2.6985410976e+03
    3980, -4.7203168063e+02, -1.5470915753e+03, -2.5785747809e+03
    3981, -5.9559254889e+02, -1.5038536384e+03, -2.4334153219e+03
    3982, 4.5447667040e+02, 1.5523392690e+03, -1.4505891189e+03
    3983, 3.4734071806e+02, 1.5797660193e+03, -1.3585009922e+03
    3984, 4.1997166075e+02, 1.5620275459e+03, -1.2791263327e+03
    3985, 5.2572575393e+02, 1.5296792741e+03, -1.3712144594e+03
    3986, -9.5691943357e+02, -1.3040749394e+03, -5.4781133290e+03
    3987, -9.5958705893e+02, -1.3021132540e+03, -5.3230003032e+03
    3988, -1.0761392280e+03, -1.2075721974e+03, -5.3052479258e+03
    3989, -1.0736648977e+03, -1.2097726801e+03, -5.4603609516e+03
    3990, -1.6040587070e+03, 2.0809112059e+02, -4.9272051683e+03
    3991, -1.5970680652e+03, 2.5628079374e+02, -5.0265578867e+03
    3992, -1.6115789158e+03, 1.3827381556e+02, -5.0712492551e+03
    3993, -1.6150108397e+03, 8.9700823373e+01, -4.9718965367e+03
    3994, -8.8663095634e+02, 1.3528458143e+03, -5.8452750201e+03
    3995, -7.6583847455e+02, 1.4247096830e+03, -5.8863693275e+03
    3996, -7.8713731900e+02, 1.4130538175e+03, -6.0214156374e+03
    3997, -9.0683750415e+02, 1.3393849301e+03, -5.9803213300e+03
    3998, 1.4801452430e+03, 6.5228545109e+02, -9.5150628874e+02
    3999, 1.4455444637e+03, 7.2574613571e+02, -1.0956744031e+03
    4000, 1.3802768400e+03, 8.4329241371e+02, -1.0181347357e+03
    4001, 1.4208590469e+03, 7.7295913145e+02, -8.7396662137e+02
    4002, -5.0005210905e+02, 1.5382633514e+03, -2.9273909475e+02
    4003, -6.7250980607e+02, 1.4710665555e+03, -4.8339142528e+03
    4004, -5.6598083427e+02, 1.5152464965e+03, -4.7725113849e+03
    4005, -5.0689204026e+02, 1.5360230173e+03, -4.8953281002e+03
    4006, -6.1505161746e+02, 1.4960005875e+03, -4.9567309682e+03
    4007, -8.2493041683e+02, 1.3913288818e+03, -4.7838298310e+03
    4008, -7.1412314189e+02, 1.4513216005e+03, -4.7298538063e+03
    4009, -7.8498034068e+02, 1.4142532004e+03, -4.8878902775e+03
    4010, -7.4680858444e+02, 1.4347763548e+03, -4.3247096652e+03
    4011, -6.5670706751e+02, 1.4781887828e+03, -4.2833758590e+03
    4012, -6.0632567249e+02, 1.4995584113e+03, -4.4114649814e+03
    4013, 1.5868525237e+03, 3.1337727757e+02, 6.2251384417e+02
    4014, 1.5519267916e+03, 4.5588319070e+02, 7.3240382274e+02
    4015, 1.6005542188e+03, 2.3352182462e+02, 7.5761002143e+02
    4016, -6.5945957838e+02, 1.4769628683e+03, -5.5497282809e+03
    4017, -7.7407934476e+02, 1.4202490690e+03, -5.5035452151e+03
    4018, -6.2094680249e+02, 1.4935632958e+03, -5.4308761715e+03
    4019, 9.3280559880e+02, -1.3214310292e+03, -2.6956920713e+03
    4020, 8.1291390483e+02, -1.3983837933e+03, -2.6621696938e+03
    4021, -1.5370986244e+03, -5.0362095755e+02, -1.7935278104e+03
    4022, -1.4865661485e+03, -6.3751653787e+02, -1.7301522651e+03
    4023, -1.5087532819e+03, -5.8306927934e+02, -1.6014834569e+03
    4024, -1.5543862233e+03, -4.4742565730e+02, -1.6648590022e+03
    4025, -3.9556567319e+01, 1.6170162423e+03, -2.1938068872e+03
    4026, 7.2727395116e+01, 1.6158641577e+03, -2.1731498600e+03
    4027, -5.9796904561e+00, 1.6174889469e+03, -2.2985276333e+03
    4028, -1.2404186910e+03, 1.0381077599e+03, -1.0117518094e+03
    4029, -1.2083057584e+03, 1.0753155092e+03, -1.1441277226e+03
    4030, -1.2880362428e+03, 9.7840118932e+02, -1.2034101429e+03
    4031, -1.3171678701e+03, 9.3881577106e+02, -1.0710342297e+03
    4032, -1.4090973508e+03, -7.9419827875e+02, -2.2341210837e+03
    4033, -1.3531078941e+03, -8.8623093879e+02, -2.2838783316e+03
    4034, -1.3275261955e+03, -9.2411062660e+02, -2.1601563820e+03
    4035, -1.3860937801e+03, -8.3369675705e+02, -2.1103991341e+03
    4036, 1.6005273394e+03, -2.3370598182e+02, 5.4000177180e+02
    4037, 1.5764667525e+03, -3.6202048025e+02, 6.4127477602e+02
    4038, 1.5828407982e+03, -3.3304843102e+02, 4.2368837269e+02
    4039, -1.4980594466e+03, -6.1001979025e+02, -4.8512212262e+03
    4040, -1.4816281672e+03, -6.4891002781e+02, -4.9905748926e+03
    4041, -1.4158510817e+03, -7.8209460062e+02, -4.9458260266e+03
    4042, -1.4357807677e+03, -7.4487571917e+02, -4.8064723602e+03
    4043, 7.2976835520e+02, 1.4435180628e+03, -8.6346434573e+01
    4044, 8.3578904932e+02, 1.3848331723e+03, -1.4686413066e+02
    4045, -7.5276087556e+02, 1.4316624303e+03, -6.4811389878e+03
    4046, -6.7696388618e+02, 1.4690221737e+03, -6.3028359957e+03
    4047, -6.4105183774e+02, 1.4850450469e+03, -6.4662300541e+03
    4048, 1.2138321921e+03, -1.0690732713e+03, -5.1250279054e+02
    4049, 1.1001925929e+03, -1.1856991644e+03, -5.0352983741e+02
    4050, 1.0939882529e+03, -1.1914260164e+03, -6.4523562841e+02
    4051, 1.2082350911e+03, -1.0753949110e+03, -6.5420858153e+02
    4052, -1.0328235412e+03, -1.2448219884e+03, -1.3963090112e+03
    4053, -1.1304095279e+03, -1.1569272013e+03, -1.5439013824e+03
    4054, -9.3371078274e+02, -1.3207915900e+03, -1.5399704890e+03
    4055, 5.9107555436e+02, 1.5056347296e+03, -4.6402539089e+03
    4056, 6.7697245902e+02, 1.4690182231e+03, -4.5310330867e+03
    4057, 7.6771814979e+02, 1.4236976830e+03, -4.5972659994e+03
    4058, 6.8428523289e+02, 1.4656261358e+03, -4.7064868215e+03
    4059, -7.7123998095e+02, -1.4217929321e+03, -1.5084458315e+02
    4060, -6.3710409673e+02, -1.4867429569e+03, -2.0116031872e+02
    4061, -5.8222657344e+02, -1.5090786816e+03, -2.6355270801e+01
    4062, 9.3925687467e+02, -1.3168533606e+03, -6.8448491534e+03
    4063, 1.0903668785e+03, -1.1947411101e+03, -6.8804047467e+03
    4064, 1.0325925544e+03, -1.2450136010e+03, -6.7691965671e+03
    4065, 1.1554686724e+03, -1.1319003477e+03, -6.8146056185e+03
    4066, 1.1645430947e+02, -1.6133024031e+03, -6.1568399860e+03
    4067, 2.9558745819e+02, -1.5902623383e+03, -5.9978592635e+03
    4068, 1.0420181561e+02, -1.6141400905e+03, -6.0199687018e+03
    4069, -3.5892827065e+01, 1.6171017145e+03, -6.1718111462e+03
    4070, -1.5626328737e+03, -4.1771372001e+02, -1.1549386440e+03
    4071, -1.5265699879e+03, -5.3468712543e+02, -1.0954027803e+03
    4072, -1.5375885655e+03, -5.0212314553e+02, -9.7931916727e+02
    4073, -1.5711573452e+03, -3.8440973788e+02, -1.0388550310e+03
    4074, -3.6139919439e+02, -1.5766092960e+03, -3.8692249115e+03
    4075, -4.9082779101e+02, -1.5412314328e+03, -4.0097903718e+03
    4076, -3.9283991272e+02, -1.5690707610e+03, -4.1443556365e+03
    4077, -2.6144108342e+02, -1.5962314400e+03, -4.0037901762e+03
    4078, 8.0900435163e+02, 1.4006492098e+03, -1.8570227473e+03
    4079, 9.0947859527e+02, 1.3375929630e+03, -1.9439308238e+03
    4080, 8.3904158053e+02, 1.3828649522e+03, -2.0535539859e+03
    4081, 7.3543889043e+02, 1.4406373202e+03, -1.9666459094e+03
    4082, 6.1349228561e+02, 1.4966407269e+03, -3.4541206946e+03
    4083, 5.7778626964e+02, 1.5107843250e+03, -3.6082548437e+03
    4084, 5.0067632931e+02, 1.5380602925e+03, -3.4403073621e+03
    4085, -1.0588851590e+03, -1.2227299252e+03, -3.5017828208e+03
    4086, -9.7287136383e+02, -1.2922180774e+03, -3.4195429340e+03
    4087, -1.0361268273e+03, -1.2420738496e+03, -3.3333050113e+03
    4088, -1.1185668538e+03, -1.1683811208e+03, -3.4155448981e+03
    4089, 1.4793964799e+03, 6.5398188445e+02, -4.1704249155e+03
    4090, 1.4235248767e+03, 7.6803852461e+02, -4.2327842250e+03
    4091, 1.3925572454e+03, 8.2285513210e+02, -4.0927534571e+03
    4092, 1.4528251944e+03, 7.1105921303e+02, -4.0303941476e+03
    4093, 1.3463422891e+03, 8.9647570549e+02, -6.9855474776e+03
    4094, 1.2772230151e+03, 9.9247550075e+02, -7.1368335314e+03
    4095, 1.1984949764e+03, 1.0862394034e+03, -7.0889136312e+03
    4096, 1.2746775109e+03, 9.9574268425e+02, -6.9376275774e+03
    4097, 1.1667253499e+03, 1.1202938043e+03, -7.2750356227e+03
    4098, 5.4955737653e+01, 1.6165661499e+03, -2.0021895347e+03
    4099, 1.5074250295e+02, 1.6104604769e+03, -2.1118669334e+03
    4100, -2.3242528023e+01, 1.6173330006e+03, -2.0634724613e+03
    4101, -1.5234825837e+03, -5.4342162931e+02, -5.1724861489e+03
    4102, -1.5698422727e+03, -3.8974541559e+02, -5.2286925276e+03
    4103, -1.5563297913e+03, -4.4061755597e+02, -5.3639857138e+03
    4104, -1.5049944326e+03, -5.9270397998e+02, -5.3077793352e+03
    4105, -1.4669799711e+03, 6.8137802616e+02, -1.5007362845e+03
    4106, -1.4867558171e+03, 6.3707408535e+02, -1.3698491625e+03
    4107, -1.4285987870e+03, 7.5855899947e+02, -1.3093056212e+03
    4108, -1.4052055480e+03, 8.0106405359e+02, -1.4401927432e+03
    4109, -1.4883053864e+03, 6.3344559883e+02, -1.6971326596e+03
    4110, -1.5153314491e+03, 5.6575334681e+02, -1.5717449693e+03
    4111, -1.4347940331e+03, 7.4677461967e+02, -1.6261239747e+03
    4112, -2.1445356951e+02, -1.6032204828e+03, -4.2670351063e+03
    4113, -4.8020781934e+02, -1.5445733069e+03, -4.2799219902e+03
    4114, -1.2352227638e+03, -1.0442849103e+03, 2.7884515954e+02
    4115, -1.3547713764e+03, -8.8368589884e+02, 2.6570984112e+02
    4116, -1.1721756740e+03, -1.1145898077e+03, 1.5099488217e+02
    4117, -1.0792757938e+03, -1.2047696921e+03, 2.4510003590e+02
    4118, 1.5229626988e+03, -5.4487692917e+02, -2.5757019578e+03
    4119, 1.5662196282e+03, -4.0405733024e+02, -2.6229215824e+03
    4120, 1.5375086511e+03, -5.0236779150e+02, -2.4295096210e+03
    4121, -5.8967270875e+02, -1.5061846987e+03, -3.8547866873e+03
    4122, -6.9526833983e+02, -1.4604479401e+03, -3.9433572270e+03
    4123, -5.9916535195e+02, -1.5024337360e+03, -4.0983609115e+03
    4124, 7.2401011155e+02, -1.4464147429e+03, -2.4335848568e+03
    4125, 6.7804736291e+02, -1.4685223947e+03, -2.5975194185e+03
    4126, 8.5659826431e+02, -1.3720589140e+03, -2.4982351321e+03
    4127, 5.4210092623e+02, -1.5239530294e+03, -2.5685148111e+03
    4128, 5.1854777825e+02, -1.5321274267e+03, -2.7592304624e+03
    4129, -1.2172355977e+03, 1.0651965779e+03, -6.9688234137e+03
    4130, -1.2760844033e+03, 9.9393905527e+02, -6.8607683686e+03
    4131, -1.2182708575e+03, 1.0640123908e+03, -6.7831012776e+03
    4132, -1.1555143815e+03, 1.1318536849e+03, -6.8911563227e+03
    4133, -1.4587721927e+03, -6.9877746078e+02, -7.0747225254e+03
    4134, -1.3959265475e+03, -8.1712625949e+02, -7.1798828924e+03
    4135, -1.3430361063e+03, -9.0142124848e+02, -7.0758545043e+03
    4136, -1.4130405824e+03, -7.8716107781e+02, -6.9706941374e+03
    4137, 1.4849936543e+03, 6.4117087958e+02, -7.1309185240e+03
    4138, 1.4071032508e+03, 7.9772595012e+02, -7.0021681606e+03
    4139, 1.4881908404e+03, 6.3371466169e+02, -6.9788342119e+03
    4140, 6.1138207176e+02, -1.4975039941e+03, -2.3427550829e+03
    4141, 5.1922600028e+02, -1.5318977155e+03, -2.2201193813e+03
    4142, 4.4923456920e+02, -1.5538643930e+03, -2.3086340207e+03
    4143, 5.4285530370e+02, -1.5236844717e+03, -2.4312697223e+03
    4144, -6.1635753646e+02, 1.4954630177e+03, -2.9798076720e+02
    4145, -7.6466696218e+02, 1.4253387972e+03, -3.3279971672e+02
    4146, -7.9072726401e+02, 1.4110480658e+03, -1.8709051776e+02
    4147, -6.4373134884e+02, 1.4838855079e+03, -1.5227156824e+02
    4148, -2.2006866529e+02, -1.6024593700e+03, -9.4220002798e+02
    4149, -9.3850336836e+01, -1.6147750197e+03, -1.1337636793e+03
    4150, -1.9240982972e+02, -1.6060151641e+03, -1.1793110152e+03
    4151, -9.8901714045e+01, -1.6144735058e+03, -1.3701176484e+03
    4152, -1.2558219035e+03, 1.0194202258e+03, -7.1621319718e+03
    4153, -1.1735225100e+03, 1.1131716707e+03, -7.2760778685e+03
    4154, 9.3859191249e+02, -1.3173273974e+03, -2.5676662279e+03
    4155, 9.2073994946e+02, -1.3298662322e+03, -2.3622159434e+03
    4156, -1.6067558341e+03, 1.8612345275e+02, -7.1778267738e+03
    4157, -1.6117588678e+03, 1.3616020755e+02, -7.0759881732e+03
    4158, -1.5988969702e+03, 2.4461138269e+02, -7.0181927977e+03
    4159, 1.2974245399e+02, -1.6122881708e+03, -3.5288399254e+03
    4160, 1.0911831915e+02, -1.6138151822e+03, -3.7436626210e+03
    4161, 2.3821361188e+02, -1.5998626582e+03, -3.6269166089e+03
    4162, 3.1498045355e+02, -1.5865350812e+03, -3.7053176263e+03
    4163, 2.0571788793e+02, -1.6043647966e+03, -3.8238663991e+03
    4164, 4.0538477159e+02, -1.5658765714e+03, -3.7775310493e+03
    4165, 1.4954342023e+02, -1.6105722633e+03, -3.2182464248e+03
    4166, 2.3969136546e+02, -1.5996419285e+03, -3.1206374990e+03
    4167, 9.0772389397e+01, -1.6149509662e+03, -3.0321957617e+03
    4168, 6.2200371603e+02, 1.4931234468e+03, -6.1678029991e+03
    4169, 4.6253544618e+02, 1.5499571643e+03, -6.1938417403e+03
    4170, 6.0415921686e+02, 1.5004325679e+03, -6.0348130845e+03
    4171, 1.5803998657e+03, -3.4444522725e+02, -5.8259528790e+03
    4172, 1.5905657398e+03, -2.9395046759e+02, -5.9872659234e+03
    4173, 1.6123977857e+03, -1.2837301387e+02, -5.9259508392e+03
    4174, 1.6074928477e+03, -1.7964686035e+02, -5.7646377948e+03
    4175, 4.4615988286e+02, -1.5547500149e+03, -1.6544565833e+03
    4176, 2.4711676443e+02, -1.5985116686e+03, -1.6426773864e+03
    4177, 1.1335150945e+02, -1.6135233761e+03, -5.7784607574e+03
    4178, 2.1706168844e+02, -1.6028694499e+03, -5.8318278967e+03
    4179, -3.1247614467e+02, -1.5870302168e+03, -6.0368604302e+03
    4180, -2.3002424684e+02, -1.6010606159e+03, -5.8466093746e+03
    4181, -3.6449466452e+02, -1.5758965352e+03, -5.7957018329e+03
    4182, -4.4546605641e+02, -1.5549489518e+03, -5.9859528884e+03
    4183, -1.5217979071e+03, -5.4812168345e+02, 5.1189100161e+02
    4184, -1.5343921373e+03, -5.1180759973e+02, 3.9944909351e+02
    4185, -1.4928158298e+03, -6.2274163849e+02, 3.4218972902e+02
    4186, -4.7160630188e+02, -1.5472212983e+03, -1.3737591876e+03
    4187, -4.0415732809e+02, -1.5661938271e+03, -1.2269664720e+03
    4188, -5.1696013287e+02, -1.5326638480e+03, -1.1853901927e+03
    4189, -5.8285116894e+02, -1.5088375542e+03, -1.3321829082e+03
    4190, -2.9355026521e+02, -1.5906396486e+03, -1.3015780946e+03
    4191, -3.0434102470e+02, -1.5886103332e+03, -1.1046993927e+03
    4192, -6.2429786858e+02, 1.4921656816e+03, -4.5399128560e+02
    4193, -7.4205998453e+02, -1.4372380559e+03, -4.0961943215e+03
    4194, -8.0547062066e+02, -1.4026843299e+03, -3.9032609512e+03
    4195, -8.5033976887e+02, -1.3759464116e+03, -4.0560980457e+03
    4196, 1.1632450766e+03, -1.1239070876e+03, -7.2810118053e+03
    4197, 1.2531199433e+03, -1.0227397800e+03, -7.1705137739e+03
    4198, 1.3134605669e+03, -9.4399554508e+02, -7.2745019686e+03
    4199, 3.1031843974e+02, 1.5874535319e+03, 2.4781217233e+02
    4200, 5.6004084293e+02, -1.5174519776e+03, -6.5748130318e+03
    4201, -1.2594848696e+03, -1.0148911830e+03, -7.1805563439e+03
    4202, -1.1942846730e+03, -1.0908667975e+03, -7.0796712801e+03
    4203, -1.6147312451e+03, -9.4600507651e+01, -4.0002630402e+02
    4204, -1.6156045352e+03, 7.8283049376e+01, -4.3209877934e+02
    4205, -1.6167474108e+03, 4.9336188664e+01, -5.9841250805e+02
    4206, -1.6127780417e+03, -1.2350400063e+02, -5.6634003273e+02
    4207, -9.3569453090e+01, -1.6147913201e+03, -3.7119182870e+03
    4208, -6.3470797092e+01, -1.6162542213e+03, -3.4605728209e+03
    4209, 5.1606128823e+02, 1.5329667305e+03, -9.0521760933e+02
    4210, 5.8280147724e+02, 1.5088567487e+03, -7.7308337771e+02
    4211, 6.1973022224e+02, 1.4940685063e+03, -8.6676635785e+02
    4212, 2.3537291409e+02, -1.6002830504e+03, -5.0279554279e+03
    4213, 3.5413876653e+02, -1.5782559945e+03, -5.1550105560e+03
    4214, 4.2867557057e+02, -1.5596613431e+03, -5.0387722077e+03
    4215, -7.3351007653e+02, -1.4416203445e+03, -5.4588535562e+02
    4216, -6.5463477659e+02, -1.4791076902e+03, -7.5762407202e+02
    4217, 1.5291194446e+03, 5.2735185037e+02, -7.2234639599e+03
    4218, 5.7829949379e+02, 1.5105879470e+03, -5.3514335402e+03
    4219, 6.4518579534e+02, 1.4832537003e+03, -5.4790289476e+03
    4220, 5.4865539463e+02, 1.5216055691e+03, -5.5491840922e+03
    4221, 4.8015260215e+02, 1.5445904728e+03, -5.4215886847e+03
    4222, -2.0422126682e+02, -1.6045559897e+03, -6.1114544869e+03
    4223, -1.0350113399e+02, -1.6141851707e+03, -6.0393988368e+03
    4224, 3.6843943305e+02, 1.5749789313e+03, -5.5653342861e+03
    4225, 3.8830960231e+02, 1.5701980457e+03, -5.3287543987e+03
    4226, -1.3314633462e+03, -9.1842888004e+02, -5.1556159218e+02
    4227, -1.2695396139e+03, -1.0022850986e+03, -6.8001021894e+02
    4228, -1.2298494075e+03, -1.0506077692e+03, -8.0410817199e+02
    4229, 1.1335389221e+03, -1.1538612404e+03, -2.8552383711e+03
    4230, 1.1428232631e+03, -1.1446664314e+03, -2.9879634902e+03
    4231, 1.2354551476e+03, -1.0440099752e+03, -2.9738333086e+03
    4232, -1.2625466892e+03, 1.0110796742e+03, 5.1635024236e+02
    4233, -6.1233932589e+02, 1.4971128214e+03, 5.0601777260e+01
    4234, -7.4575212505e+02, 1.4353257533e+03, 7.9552794980e+01
    4235, 1.3443427783e+03, 8.9947136938e+02, -3.0931267225e+02
    4236, 1.3271961458e+03, 9.2458457731e+02, -1.5504436943e+02
    4237, 1.4147349929e+03, 7.8411169471e+02, -1.4814286140e+02
    4238, 1.4292254212e+03, 7.5737767688e+02, -3.0241116422e+02
    4239, -3.3991731429e+02, -1.5813799257e+03, -5.6522737248e+03
    4240, -2.3768445614e+02, -1.5999413581e+03, -5.5855436210e+03
    4241, -5.1381565241e+02, -1.5337208760e+03, -5.7893021449e+03
    4242, -8.7632206461e+02, -1.3595462070e+03, -6.8804277335e+03
    4243, -1.0481481354e+03, -1.2319463204e+03, -6.8808203867e+03
    4244, -9.5419173003e+02, -1.3060721237e+03, -6.9741190203e+03
    4245, -1.5623872249e+03, -4.1863159143e+02, -6.0735264047e+01
    4246, -1.5601055539e+03, -4.2705609779e+02, 1.7715554480e+02
    4247, -1.5942599422e+03, -2.7320594214e+02, -6.9561259157e+01
    4248, -1.1406548805e+03, -1.1468272292e+03, -6.7778595035e+03
    4249, -1.1271837890e+03, -1.1600702375e+03, -6.9785909498e+03
    4250, 1.4898234557e+03, 6.2986690736e+02, -3.2244667008e+02
    4251, 1.4851035152e+03, 6.4091637456e+02, -4.3447595676e+02
    4252, 1.4235599653e+03, 7.6797348609e+02, -4.1444045090e+02
    4253, -1.2189207116e+03, -1.0632678632e+03, -6.6692573737e+03
    4254, 1.5656399489e+03, 4.0629767456e+02, -7.2860571385e+03
    4255, -7.7173508324e+02, -1.4215242563e+03, -7.2761912464e+03
    4256, 8.6101919051e+02, -1.3692889409e+03, -3.9791211311e+03
    4257, 7.0517142188e+02, -1.4556921088e+03, -3.9106956221e+03
    4258, 6.5106023723e+02, -1.4806845773e+03, -4.0650679722e+03
    4259, -2.1671174335e+02, -1.6029168008e+03, 1.0041738466e+02
    4260, -3.3311018479e+02, -1.5828278033e+03, 1.9365155159e+02
    4261, -4.0245229711e+02, -1.5666328219e+03, 8.5152099601e+01
    4262, -2.8705082620e+02, -1.5918253903e+03, -8.0820673311e+00
    4263, -5.2624509831e+02, -1.5295006854e+03, 1.3103597286e+02
    4264, 1.4867966691e+03, -6.3697873961e+02, -3.5349199819e+03
    4265, -1.1919285007e+03, 1.0934407617e+03, 6.5319985568e+02
    4266, -8.3983694334e+02, 1.3823820596e+03, 5.9249812368e+01
    4267, -9.2949921005e+02, 1.3237588408e+03, 2.6396422139e+01
    4268, -9.7118615400e+02, 1.2934851001e+03, 1.4827351395e+02
    4269, 3.3714910751e+02, -1.5819724174e+03, -3.4947418464e+03
    4270, 1.3046901468e+02, -1.6122295389e+03, -3.4389489995e+03
    4271, -8.9978473848e+02, -1.3441330568e+03, -1.1843293698e+03
    4272, -8.9861729181e+02, -1.3449138310e+03, -1.0304425948e+03
    4273, -1.0070410550e+03, -1.2657703439e+03, -1.1948312970e+03
    4274, -7.6154740860e+02, -1.4270079868e+03, -1.0826708063e+03
    4275, -7.1102231464e+02, -1.4528432531e+03, -9.2070253199e+02
    4276, -9.9721495402e+02, -1.2735260443e+03, -4.9002075050e+02
    4277, -9.6257726962e+02, -1.2999043234e+03, -2.7572373396e+02
    4278, -1.0900478475e+03, -1.1950321921e+03, -2.4747171688e+02
    4279, -8.2133885447e+02, -1.3934520932e+03, -3.3147226707e+02
    4280, -1.0456009197e+03, 1.2341089769e+03, -6.7693012452e+03
    4281, -1.0329925255e+03, 1.2446817634e+03, -6.6158221121e+03
    4282, -9.1121173662e+02, 1.3364128932e+03, -6.6383772270e+03
    4283, -6.8849668000e+02, -1.4636524764e+03, -3.7348967564e+02
    4284, -8.6411368371e+02, -1.3673382141e+03, -5.0386794705e+02
    4285, -8.1444579884e+02, -1.3974921434e+03, 4.0932694508e+02
    4286, -7.1725921846e+02, -1.4497742802e+03, 4.9713033750e+02
    4287, -8.1632352965e+02, -1.3963961275e+03, 6.3755857359e+02
    4288, 8.8569374181e+02, -1.3534595841e+03, -3.2045867758e+03
    4289, 9.8757744253e+02, 1.2810140690e+03, -7.2828019946e+03
    4290, 4.5704920432e+02, 1.5515837956e+03, -5.6202110953e+03
    4291, 6.1229924790e+02, 1.4971292132e+03, -5.6421411457e+03
    4292, 4.2320065590e+02, 1.5611558074e+03, -7.0741552205e+03
    4293, -8.9954421346e+02, 1.3442940370e+03, -7.2736837403e+03
    4294, -2.3458520259e+02, -1.6003987105e+03, -3.1128252562e+03
    4295, -3.7466632352e+02, -1.5735092615e+03, -2.9812995130e+03
    4296, -4.9010443917e+02, -1.5414616079e+03, -3.0638144300e+03
    4297, -3.5239782541e+02, -1.5786456292e+03, -3.1953401733e+03
    4298, 1.0366347991e+03, -1.2416499278e+03, -3.3630174984e+03
    4299, 9.1545971720e+02, -1.3335065640e+03, -3.3258334649e+03
    4300, 8.8816209875e+02, -1.3518410914e+03, -3.5201117576e+03
    4301, -2.4430788451e+02, -1.5989433722e+03, 3.3773536202e+02
    4302, -3.5715901185e+02, -1.5775752566e+03, 4.3827370984e+02
    4303, -4.4459381051e+02, -1.5551985705e+03, 2.9418989940e+02
    4304, -1.2565238799e+02, -1.6126120821e+03, 4.0782125730e+02
    4305, -1.1935875941e+02, -1.6130901204e+03, 1.5268754222e+02
    4306, 2.9007664851e+02, -1.5912767792e+03, -3.0170315548e+03
    4307, -9.5168141921e+01, -1.6146978896e+03, 6.5959423678e+02
    4308, -2.2031526505e+02, -1.6024254847e+03, 5.8675143158e+02
    4309, -1.5956326403e+03, -2.6507117384e+02, -5.4467671222e+03
    4310, -1.5803160897e+03, -3.4482938771e+02, -5.5879236993e+03
    4311, -1.5322512807e+03, -5.1818168897e+02, -5.5051422909e+03
    4312, -5.8252765328e+02, -1.5089624857e+03, -1.6885933871e+03
    4313, -5.2368841471e+02, -1.5303779580e+03, -1.5344689922e+03
    4314, -6.4316279433e+02, -1.4841320258e+03, -1.4856304231e+03
    4315, 1.2211261465e+03, 1.0607342666e+03, 7.2022567372e+02
    4316, 1.3178365338e+03, 9.3787692163e+02, 6.7816487722e+02
    4317, 1.2818117549e+03, 9.8654187691e+02, 5.7904405894e+02
    4318, 1.1805710005e+03, 1.1056936116e+03, 6.2110485544e+02
    4319, -1.5587443304e+03, -4.3199810455e+02, -4.7502995996e+03
    4320, -1.5465338640e+03, -4.7385573503e+02, -4.8939607471e+03
    4321, -1.5139577080e+03, -5.6941927294e+02, -4.7075600787e+03
    4322, -1.0399444642e+02, -1.6141534639e+03, -2.0121593565e+02
    4323, -9.7838275985e+01, -1.6145382999e+03, -8.7387345067e+01
    4324, 1.3180217973e+03, -9.3761654834e+02, -7.0539926508e+03
    4325, 4.1511169147e+02, -1.5633261124e+03, -2.5748806808e+03
    4326, 4.1588557643e+02, -1.5631204168e+03, -2.4376355919e+03
    4327, -6.6520224291e+02, 1.4743853723e+03, -6.1807155626e+03
    4328, -6.6091921246e+02, 1.4763102806e+03, -6.0408925063e+03
    4329, 1.5101327596e+03, 5.7948709938e+02, -4.7562522698e+03
    4330, 1.5555418135e+03, 4.4339138058e+02, -4.8018808931e+03
    4331, 1.5414008905e+03, 4.9029536472e+02, -4.9081149277e+03
    4332, 1.4918912005e+03, 6.2495351502e+02, -4.8624863045e+03
    4333, 7.7388719588e+02, -1.4203537792e+03, -3.3839644600e+03
    4334, -5.9520042545e+02, -1.5040088775e+03, 3.8489257703e+02
    4335, -1.1932368702e+03, -1.0920128303e+03, -3.7809226339e+03
    4336, -1.2667393824e+03, -1.0058218466e+03, -3.6683212061e+03
    4337, -1.3359896113e+03, -9.1183222608e+02, -3.7635630119e+03
    4338, -1.2688954965e+03, -1.0031004282e+03, -3.8761644397e+03
    4339, -2.4036951843e+02, 1.5995401666e+03, -6.0930735267e+03
    4340, 2.4084329507e+02, -1.5994688985e+03, -2.8509556871e+03
    4341, 1.7970455394e+02, -1.6074863991e+03, -2.9826595384e+03
    4342, 3.5051735941e+02, -1.5790642263e+03, -2.8853277035e+03
    4343, 1.3509744139e+03, 8.8947983846e+02, 5.2312428529e+02
    4344, 1.2977200305e+03, 9.6552005278e+02, 3.9520818750e+02
    4345, 1.2231028488e+03, 1.0584543785e+03, 4.5112796114e+02
    4346, 8.8504702762e+02, -1.3538825684e+03, -6.7409643276e+03
    4347, 9.7444284358e+02, -1.2910334599e+03, -6.6205809522e+03
    4348, 8.8738743445e+02, -1.3523497296e+03, -6.5367518850e+03
    4349, 7.9405015080e+02, -1.4091808287e+03, -6.6571352604e+03
    4350, -1.1225296640e+03, -1.1645743444e+03, 7.4941293522e+02
    4351, -9.3414394961e+02, -1.3204852636e+03, 7.5275898559e+02
    4352, 1.5470683009e+03, -4.7210795611e+02, -3.3063828477e+03
    4353, 1.4992269077e+03, -6.0714489972e+02, -3.2141293853e+03
    4354, 1.5173859139e+03, -5.6021981249e+02, -3.4208570306e+03
    4355, -5.6625029604e+02, 1.5151458188e+03, -5.3095291784e+03
    4356, -4.6205371093e+02, 1.5501008413e+03, -5.3680046496e+03
    4357, -1.2710364069e+02, -1.6124983456e+03, -5.7738121003e+03
    4358, -1.5976159771e+03, 2.5284271728e+02, -6.9127133558e+03
    4359, -1.5726204934e+03, 3.7837948397e+02, -6.9110919060e+03
    4360, -3.3460275740e+02, -1.5825129525e+03, -1.4027418573e+03
    4361, -1.4063595022e+02, -1.6113745001e+03, -1.4712814112e+03
    4362, -6.9999430290e+02, -1.4581886798e+03, -1.2837353066e+03
    4363, -7.5817039866e+02, -1.4288050590e+03, -1.4371828215e+03
    4364, -8.6957504749e+02, -1.3638715067e+03, -1.3684891242e+03
    4365, 2.1900258222e+02, -1.6026054159e+03, -2.1588299521e+03
    4366, 3.5756772117e+02, -1.5774826702e+03, -2.2352032986e+03
    4367, 4.0357054351e+02, -1.5663451300e+03, -2.1094972039e+03
    4368, 2.9871860995e+02, -1.5896771503e+03, -2.5621488552e+03
    4369, 2.6731506608e+02, -1.5952582567e+03, -2.7187888609e+03
    4370, 3.8420511160e+02, -1.5712073963e+03, -2.7315206865e+03
    4371, -1.6047301928e+03, -2.0284786956e+02, -7.0531382454e+03
    4372, -1.6073355943e+03, -1.8104843897e+02, -7.2395838930e+03
    4373, -1.5883849958e+03, -3.0551490164e+02, -7.2819127149e+03
    4374, -1.5840919767e+03, -3.2704565355e+02, -7.0954670673e+03
    4375, -4.5040001186e+02, -1.5535269806e+03, -1.0291125571e+03
    4376, -5.7999598919e+02, -1.5099373836e+03, -9.7374457341e+02
    4377, -6.4455627959e+02, -1.4835273683e+03, -1.1300222090e+03
    4378, 7.5925968025e+02, -1.4282265184e+03, -6.8212585716e+03
    4379, 6.6439907461e+02, -1.4747474766e+03, -6.6302526790e+03
    4380, -1.5933790514e+03, -2.7829741044e+02, -3.1634858997e+03
    4381, -1.6024149403e+03, -2.2039194414e+02, -3.3062931238e+03
    4382, -1.5789563901e+03, -3.5100280345e+02, -3.3427114002e+03
    4383, -1.5652043050e+03, -4.0797271191e+02, -3.1999041761e+03
    4384, 1.1701884473e+03, 1.1166759816e+03, -6.3033360763e+02
    4385, 1.2366826973e+03, 1.0425555890e+03, -8.0683049987e+02
    4386, 1.1217412735e+03, 1.1653337570e+03, -8.7511249144e+02
    4387, 1.0479100029e+03, 1.2321488854e+03, -6.9861559920e+02
    4388, -3.7302764295e+02, 1.5738985443e+03, -5.3170948502e+03
    4389, -1.0771853804e+03, 1.2066390953e+03, -7.2505781924e+03
    4390, -1.1722959726e+03, 1.1144632801e+03, -7.0747414173e+03
    4391, 1.3820789486e+03, -8.4033566494e+02, -7.1572350102e+03
    4392, 1.4399779995e+03, -7.3672899417e+02, -7.2677330416e+03
    4393, 4.1775543750e+02, 1.5626217215e+03, -2.8146778694e+03
    4394, 3.1422244201e+02, 1.5866853837e+03, -2.8094888248e+03
    4395, 3.2479964854e+02, 1.5845540187e+03, -2.7013455664e+03
    4396, 4.2816982065e+02, 1.5598002612e+03, -2.7065346109e+03
    4397, 9.6106667914e+02, 1.3010215556e+03, -6.6195984618e+03
    4398, 1.0960995751e+03, 1.1894839097e+03, -6.6689766515e+03
    4399, 1.2152892371e+03, -1.0674166573e+03, -2.3674036804e+03
    4400, 1.2722482787e+03, -9.9884461622e+02, -2.3296512121e+03
    4401, 1.2257217914e+03, -1.0554204566e+03, -2.2084025826e+03
    4402, 1.2538314840e+03, -1.0218673396e+03, -2.4744086696e+03
    4403, 1.3189303679e+03, -9.3633804511e+02, -2.5059250950e+03
    4404, 1.3357774479e+03, -9.1214300400e+02, -2.3611676375e+03
    4405, 1.2039076224e+03, -1.0802373288e+03, -2.5160250870e+03
    4406, 1.5040854401e+03, 5.9500692350e+02, -1.8478622701e+02
    4407, 1.4278357538e+03, 7.5999428296e+02, 4.2246394117e+00
    4408, 1.5139647008e+03, 5.6940068027e+02, -3.2418726203e+01
    4409, -1.5334416206e+03, -5.1464846844e+02, -2.1160054671e+03
    4410, -1.5615695426e+03, -4.2167145216e+02, -2.2349988088e+03
    4411, -1.5252458557e+03, -5.3845271807e+02, -2.3257734836e+03
    4412, -1.4901733263e+03, -6.2903871714e+02, -2.2067801419e+03
    4413, -1.0952389777e+03, -1.1902763678e+03, -7.1809458271e+03
    4414, -1.0223923947e+03, -1.2534033833e+03, -7.0798654968e+03
    4415, -6.2452308671e+02, 1.4920714340e+03, -1.1134881978e+03
    4416, -4.8471483462e+02, 1.5431648580e+03, -1.1632296023e+03
    4417, -5.2942823554e+02, 1.5284017775e+03, -1.3149710977e+03
    4418, -6.6769000718e+02, 1.4732604333e+03, -1.2652296932e+03
    4419, 7.5804838477e+02, 1.4288697969e+03, 7.7073983308e+02
    4420, -1.1122560791e+02, -1.6136713154e+03, -5.5204424582e+03
    4421, -1.4557264456e+03, -7.0510053574e+02, -2.1265758513e+03
    4422, -1.3960675299e+03, -8.1688536655e+02, -1.9937256373e+03
    4423, -1.4641410653e+03, -6.8745704657e+02, -2.0099023544e+03
    4424, -1.4139800695e+03, -7.8547222289e+02, -2.8790155803e+03
    4425, -1.4590074185e+03, -6.9828618971e+02, -3.0417937990e+03
    4426, -1.4057011543e+03, -8.0019404821e+02, -3.0959783403e+03
    4427, -1.3545924297e+03, -8.8396017981e+02, -2.9332001216e+03
    4428, -1.1618785686e+03, -1.1253197065e+03, -7.2830614747e+03
    4429, -1.3204684489e+03, -9.3416771809e+02, -7.2824948692e+03
    4430, -2.2156250659e+02, -1.6022535086e+03, 7.8853954928e+02
    4431, -3.3389736992e+02, -1.5826619337e+03, 6.8059352468e+02
    4432, 1.4965427455e+03, 6.1373126105e+02, -6.3257985959e+02
    4433, 1.5374786712e+03, 5.0245953637e+02, -7.2507967174e+02
    4434, 1.4993925797e+03, 6.0673564419e+02, -8.3710737162e+02
    4435, 1.4509206611e+03, 7.1493739940e+02, -7.4460755947e+02
    4436, 1.6169431970e+03, -4.2437572476e+01, -5.7262924348e+03
    4437, 1.6155906729e+03, -7.8568618113e+01, -5.5818602847e+03
    4438, 1.6030758052e+03, -2.1553239386e+02, -5.6202056447e+03
    4439, 8.4790006300e+02, 1.3774511727e+03, -2.2495215794e+03
    4440, 9.0917564875e+02, 1.3377988973e+03, -2.3525943404e+03
    4441, 8.1680413750e+02, 1.3961150565e+03, -2.4448821790e+03
    4442, 4.5039331641e+01, 1.6168728177e+03, -1.2310132853e+03
    4443, 2.0235014804e+02, 1.6047930295e+03, -1.2124262813e+03
    4444, 2.3519309382e+02, 1.6003094884e+03, -1.3569735324e+03
    4445, 7.8162849208e+01, 1.6156103549e+03, -1.3755605364e+03
    4446, 2.5341352892e+02, 1.5975255345e+03, -2.0472369118e+03
    4447, 1.7421001386e+02, 1.6080911420e+03, -1.9370266445e+03
    4448, 2.7244327555e+02, 1.5943904514e+03, -1.8679929125e+03
    4449, 3.5085031357e+02, 1.5789902810e+03, -1.9782031797e+03
    4450, -9.3316842845e+02, -1.3211748310e+03, -2.3020471385e+03
    4451, -1.0459471216e+03, -1.2338155733e+03, -2.1564419235e+03
    4452, -1.1251040899e+03, -1.1620873620e+03, -2.2900439906e+03
    4453, -1.0183374719e+03, -1.2567000610e+03, -2.4356492057e+03
    4454, 1.5333746692e+03, 5.1484791337e+02, -1.0180912987e+03
    4455, 1.5629229286e+03, 4.1662713464e+02, -1.1165748045e+03
    4456, 1.5373080474e+03, 5.0298132902e+02, -1.2245186862e+03
    4457, 1.5023381386e+03, 5.9940501119e+02, -1.1260351804e+03
    4458, 1.9140275159e+02, -1.6061354976e+03, -9.7756553788e+02
    4459, 4.2102621526e+02, -1.5617436333e+03, -1.0406094018e+03
    4460, 3.0628102550e+02, -1.5882374455e+03, -8.9589584080e+02
    4461, 9.7501169900e+01, -1.6145586926e+03, -9.0384157348e+02
    4462, -1.3175782443e+03, 9.3823974551e+02, 1.0391980002e+02
    4463, -1.4082203263e+03, 7.9575232499e+02, -7.6949734723e+01
    4464, 1.2308314705e+03, 1.0494570697e+03, -3.8144680189e+03
    4465, 1.2069736794e+03, 1.0768104695e+03, -3.6343716803e+03
    4466, 1.2894314574e+03, 9.7656170649e+02, -3.6051388229e+03
    4467, 1.1246093529e+03, 1.1625661501e+03, -3.6671252766e+03
    4468, 1.0951522621e+03, 1.1903561538e+03, -3.5317114078e+03
    4469, 1.1796376506e+03, 1.1066893255e+03, -3.4989578115e+03
    4470, 1.3966819958e+03, -8.1583432913e+02, -2.6904075433e+03
    4471, 1.4027734297e+03, -8.0531543821e+02, -2.5328324770e+03
    4472, 1.3951709102e+03, -8.1841577540e+02, -2.8379206647e+03
    4473, 1.4615179000e+03, -6.9301636206e+02, -2.8411176790e+03
    4474, 1.4627969749e+03, -6.9031243675e+02, -2.6936045575e+03
    4475, 6.9366866269e+02, -1.4612084165e+03, -2.1907031864e+03
    4476, 5.8882352818e+02, -1.5065168777e+03, -2.1281156618e+03
    4477, 1.1266072865e+03, -1.1606301185e+03, -2.6981350093e+03
    4478, -9.7800936947e+02, -1.2883337779e+03, -7.2828843524e+03
    4479, 8.9210919108e+01, -1.6150379754e+03, -2.8223778392e+03
    4480, 3.2373438073e+02, -1.5847720028e+03, -2.3642048699e+03
    4481, -1.9311034399e+02, 1.6059310835e+03, -6.6752604363e+03
    4482, -3.8425950031e+01, 1.6170435048e+03, -6.6668766016e+03
    4483, 2.0993882277e+02, -1.6038179263e+03, -2.3594776747e+03
    4484, 1.1091658526e+03, 1.1773093737e+03, -7.1728376174e+03
    4485, 1.1486507302e+03, 1.1388185764e+03, -7.0007709407e+03
    4486, 1.3159522197e+03, -9.4051900851e+02, -2.9905113324e+03
    4487, 1.3948140537e+03, -8.1902381254e+02, -2.9891352889e+03
    4488, 1.1593659938e+03, 1.1279081267e+03, -3.3357989442e+02
    4489, 1.1438360843e+03, 1.1436543456e+03, -4.8839595077e+02
    4490, 1.0190000188e+03, 1.2561628922e+03, -4.7467739139e+02
    4491, 1.2096392887e+03, -1.0738151802e+03, -1.8959346050e+02
    4492, 1.1629083631e+03, -1.1242554821e+03, -3.3100292469e+02
    4493, 1.2768462567e+03, -9.9296016376e+02, -4.0814558105e+02
    4494, 1.3178940840e+03, -9.3779605098e+02, -2.6673611687e+02
    4495, -1.4727726738e+03, 6.6876520642e+02, -5.3814961917e+03
    4496, -1.4288049278e+03, 7.5817064594e+02, -5.4893745275e+03
    4497, -1.4629278338e+03, 6.9003507377e+02, -5.5724168824e+03
    4498, -1.5026359481e+03, 5.9865804728e+02, -5.4645385466e+03
    4499, -4.6862341971e+02, -1.5481273657e+03, 5.3211580293e+02
    4500, 1.5522593020e+03, -4.5474972180e+02, -2.8203016614e+03
    4501, 1.5538022500e+03, -4.4944946082e+02, -2.7133272469e+03
    4502, 1.5176068689e+03, -5.5962098013e+02, -2.7132276805e+03
    4503, 1.5156881339e+03, -5.6479707045e+02, -2.8202020950e+03
    4504, -1.2907619961e+02, -1.6123416464e+03, -4.2600605561e+02
    4505, 1.5449574330e+03, -4.7897054216e+02, -6.5816256894e+02
    4506, 1.5694626444e+03, -3.9127133526e+02, -7.8697535264e+02
    4507, 1.5931983026e+03, -2.7933030374e+02, -7.2068795199e+02
    4508, 1.5749547976e+03, -3.6854258318e+02, -5.9187516829e+02
    4509, -3.8191344737e+02, 1.5717660032e+03, -1.5910242277e+03
    4510, -4.4050704684e+02, 1.5563610737e+03, -1.6822773759e+03
    4511, -5.3625613992e+02, 1.5260195288e+03, -1.6169932661e+03
    4512, -4.7873164422e+02, 1.5450314763e+03, -1.5257401179e+03
    4513, 1.5917524675e+03, -2.8745492212e+02, -9.2011840995e+02
    4514, 1.5406737518e+03, -4.9257551767e+02, -8.6655040701e+02
    4515, 1.5696722315e+03, -3.9042968065e+02, -9.9969346431e+02
    4516, 1.5347174171e+03, -5.1083138094e+02, -7.2678842838e+03
    4517, 1.4888562223e+03, -6.3214982337e+02, -7.1506173254e+03
    4518, -6.1034369878e+01, 1.6163480614e+03, -2.7563212446e+03
    4519, -8.7090271406e+01, 1.6151537186e+03, -2.6079580523e+03
    4520, 4.7015777008e+01, 1.6168165532e+03, -2.5821241564e+03
    4521, 7.3081055707e+01, 1.6158482012e+03, -2.7304873487e+03
    4522, 5.4085876626e+02, -1.5243943207e+03, -9.2949824849e+02
    4523, 6.1500583915e+02, -1.4960194076e+03, -8.1518639234e+02
    4524, 4.9400888046e+02, -1.5402147500e+03, -7.2188947606e+02
    4525, 4.1783898907e+02, -1.5625993822e+03, -8.3620133221e+02
    4526, -4.4547311203e+02, -1.5549469304e+03, -3.7527367781e+03
    4527, -2.2040826951e+02, -1.6024126949e+03, -3.7588959250e+03
    4528, -1.2734249212e+02, -1.6124795006e+03, -3.9504542005e+03
    4529, 3.5677963337e+02, 1.5776610990e+03, -2.9439389489e+03
    4530, 2.1783409344e+02, 1.6027646607e+03, -2.8500818330e+03
    4531, -1.2111134510e+03, 1.0721522554e+03, 8.3228938660e+01
    4532, -9.0917772664e+02, -1.3377974852e+03, -7.1740755988e+03
    4533, -8.2470682930e+02, -1.3914614244e+03, -6.2706098100e+03
    4534, -7.1221330996e+02, -1.4522597740e+03, -6.1518677086e+03
    4535, -2.3445686519e+02, 1.6004175169e+03, -3.8639026583e+03
    4536, -9.3635606486e+01, 1.6147874855e+03, -3.9350311180e+03
    4537, -1.4714793142e+02, 1.6107928906e+03, -4.0420367141e+03
    4538, -2.8741503178e+02, 1.5917596708e+03, -3.9709082544e+03
    4539, -1.3716031314e+03, 8.5732788351e+02, -6.4936488406e+03
    4540, -1.4371831259e+03, 7.4216636450e+02, -6.6500442918e+03
    4541, 8.8082140802e+02, 1.3566355064e+03, -5.0890680726e+03
    4542, 9.7433566871e+02, 1.2911143461e+03, -5.0856060784e+03
    4543, 1.1178267046e+03, 1.1690892645e+03, -5.1214090957e+03
    4544, 1.0176986167e+03, 1.2572174735e+03, -5.1939402875e+03
    4545, 1.0548979600e+03, -1.2261714986e+03, 2.1784683402e+02
    4546, 9.4118708520e+02, -1.3154744850e+03, 2.2098912255e+02
    4547, 9.4125417826e+02, -1.3154264791e+03, 8.3663620110e+01
    4548, 1.0549604981e+03, -1.2261176932e+03, 8.0521331578e+01
    4549, 1.5762754917e+03, 3.6285234510e+02, -5.5380698497e+02
    4550, 1.6059305621e+03, 1.9311468054e+02, -5.5264970228e+02
    4551, 1.5741953348e+03, 3.7177318064e+02, -7.0129537777e+02
    4552, -1.5692356801e+03, 3.9218060930e+02, -4.9740388849e+03
    4553, -1.5911440157e+03, 2.9080400839e+02, -4.8446109150e+03
    4554, -1.6263796218e+02, -1.6093026885e+03, -3.3078207571e+03
    4555, -4.6045896965e+02, -1.5505753085e+03, -3.3009038343e+03
    4556, -8.2618039155e+02, 1.3905870022e+03, -4.0648790370e+03
    4557, -9.5803652234e+02, 1.3032544924e+03, -3.9896236261e+03
    4558, -9.1122474247e+02, 1.3364040252e+03, -3.8657158317e+03
    4559, -7.7635498139e+02, 1.4190064104e+03, -3.9409712426e+03
    4560, -2.8139530443e+02, -1.5928348730e+03, -1.6060563998e+03
    4561, 9.6897401359e+02, 1.2951430851e+03, 7.7677656490e+02
    4562, 8.8684875525e+02, 1.3527030477e+03, 6.8001639798e+02
    4563, -1.5166210689e+03, -5.6228710042e+02, 7.1773578916e+02
    4564, 6.0989513488e+02, 1.4981102010e+03, -6.2776200507e+03
    4565, 5.5963752892e+02, 1.5176007664e+03, -6.3740233639e+03
    4566, -1.2898734386e+03, 9.7597784930e+02, -2.8311155063e+03
    4567, -1.2524884762e+03, 1.0235130029e+03, -2.7046723342e+03
    4568, -1.1664114571e+03, 1.1206206150e+03, -2.7491226532e+03
    4569, -1.2074866012e+03, 1.0762352707e+03, -2.8755658253e+03
    4570, 7.3375642598e+02, 1.4414949731e+03, -6.1920882648e+03
    4571, 7.2206216201e+02, 1.4473881595e+03, -6.3019053163e+03
    4572, -1.2569497401e+03, 1.0180292731e+03, -3.0046416507e+03
    4573, -1.3147782741e+03, 9.4215940266e+02, -3.1274705691e+03
    4574, -1.3651220954e+03, 8.6761046249e+02, -3.0614513870e+03
    4575, -1.3116007934e+03, 9.4657784076e+02, -2.9386224686e+03
    4576, 7.0798851918e+02, 1.4543240721e+03, -6.4265514364e+03
    4577, -1.0578000579e+03, 1.2236687817e+03, -4.6767445874e+03
    4578, -9.1997806645e+02, 1.3303934032e+03, -4.7496705708e+03
    4579, -9.6660329423e+02, 1.2969133824e+03, -4.8890168055e+03
    4580, -3.9336132138e+02, 1.5689401266e+03, -3.0854435761e+03
    4581, -4.9413058951e+02, 1.5401757077e+03, -3.0720340663e+03
    4582, -4.6944554230e+02, 1.5478782681e+03, -2.9733860137e+03
    4583, -3.6822931138e+02, 1.5750280709e+03, -2.9867955235e+03
    4584, -7.4129402304e+02, 1.4376332708e+03, -5.7776324270e+03
    4585, -8.4415894278e+02, 1.3797470527e+03, -5.7202095091e+03
    4586, -8.0733381410e+02, 1.4016127720e+03, -5.6081185638e+03
    4587, -7.0297239656e+02, 1.4567553191e+03, -5.6655414817e+03
    4588, -1.2120846302e+03, -1.0710541999e+03, -1.8047597644e+03
    4589, -1.2338380396e+03, -1.0459206194e+03, -1.6213341396e+03
    4590, -1.3435863097e+03, -9.0060095405e+02, -1.6490457661e+03
    4591, -1.3247959349e+03, -9.2802046359e+02, -1.8324713909e+03
    4592, -9.7726023550e+02, -1.2889021228e+03, 2.6459695853e+02
    4593, -1.6101825420e+03, 1.5368289241e+02, -1.6561585876e+03
    4594, -1.6174879898e+03, -6.2332027061e+00, -1.5912754045e+03
    4595, -1.6168062336e+03, 4.7369325381e+01, -1.4775976062e+03
    4596, -1.6042056182e+03, 2.0695551380e+02, -1.5424807893e+03
    4597, 1.5939940438e+03, -2.7475305000e+02, -7.2747685831e+03
    4598, 1.6172451307e+03, -2.8713017235e+01, -7.2811919692e+03
    4599, 1.6077412011e+03, -1.7741048545e+02, -7.1709605523e+03
    4600, -1.5707520040e+03, -3.8606267858e+02, -3.7363268882e+03
    4601, -1.5348819389e+03, -5.1033683356e+02, -3.5861032871e+03
    4602, -1.5757777151e+03, -3.6500800363e+02, -3.6024022641e+03
    4603, 1.0257491307e+03, -1.2506578153e+03, -2.7094028185e+03
    4604, -1.2307475284e+03, 1.0495555113e+03, -3.1716100887e+03
    4605, -1.1750583017e+03, 1.1115503757e+03, -3.0640236812e+03
    4606, -1.0905997686e+03, 1.1945285240e+03, -3.1483456554e+03
    4607, -1.1506747536e+03, 1.1367734433e+03, -3.2559320628e+03
    4608, -8.1477284981e+02, -1.3973014897e+03, -1.2363839039e+03
    4609, -9.5241030382e+02, -1.3073717387e+03, -1.3164345901e+03
    4610, 8.2903824104e+02, -1.3888851086e+03, 4.1075603160e+02
    4611, 9.3600683913e+02, -1.3191654358e+03, 5.5415294894e+02
    4612, 8.2339090061e+02, -1.3922405233e+03, 6.4940219963e+02
    4613, 7.1100920601e+02, -1.4528496684e+03, 5.0600528229e+02
    4614, -1.5107832599e+03, -5.7778905471e+02, -6.3834857401e+02
    4615, -1.4932571349e+03, -6.2168269968e+02, -7.8214143113e+02
    4616, 1.4694228265e+03, -6.7609378554e+02, -2.5560788348e+03
    4617, -1.5802079224e+03, 3.4532473425e+02, -1.0336412602e+03
    4618, -1.6014712966e+03, 2.2714738859e+02, -1.0792849059e+03
    4619, -1.6056209222e+03, 1.9567244122e+02, -9.7584608758e+02
    4620, -1.5866810453e+03, 3.1424434841e+02, -9.3020244189e+02
    4621, 6.1761980545e+02, 1.4949421480e+03, -1.2914919451e+03
    4622, 5.4210151182e+02, 1.5239528211e+03, -1.1917378829e+03
    4623, 6.4431299993e+02, 1.4836330436e+03, -1.1188824733e+03
    4624, 7.1768749974e+02, 1.4495623142e+03, -1.2186365355e+03
    4625, 1.2977416341e+03, -9.6549101561e+02, -3.2849741975e+03
    4626, 1.2384839035e+03, -1.0404152395e+03, -3.3624691687e+03
    4627, 3.2714029658e+02, 1.5840724341e+03, -2.5496433049e+03
    4628, 1.9684891510e+02, 1.6054771112e+03, -2.7060451266e+03
    4629, 1.9922061432e+02, 1.6051845367e+03, -2.5543428651e+03
    4630, 1.3323807345e+03, -9.1709750213e+02, -3.9430275711e+03
    4631, 1.9488775782e+01, 1.6173825885e+03, -2.4382895507e+03
    4632, 1.4045134332e+03, -8.0227692607e+02, -3.1419258813e+03
    4633, 1.2968589433e+03, -9.6667633218e+02, -3.1575879551e+03
    4634, -5.4197384220e+02, 1.5239982298e+03, -2.9152101242e+03
    4635, -6.1478232854e+02, 1.4961112721e+03, -3.0369490659e+03
    4636, -7.2115404539e+02, 1.4478408382e+03, -2.9829551140e+03
    4637, -6.5054803172e+02, 1.4809096895e+03, -2.8612161723e+03
    4638, 1.2143060792e+03, -1.0685349765e+03, -3.1409099313e+03
    4639, -9.5075451309e+02, 1.3085763661e+03, -5.6533975108e+03
    4640, -1.0294174941e+03, 1.2476401216e+03, -5.5500306030e+03
    4641, -9.7276780463e+02, 1.2922960374e+03, -5.4629194079e+03
    4642, -8.9146620427e+02, 1.3496644978e+03, -5.5662863156e+03
    4643, 1.4745840620e+03, -6.6476168225e+02, -1.2461307662e+03
    4644, 1.4682353907e+03, -6.7866861382e+02, -1.0669751091e+03
    4645, 1.4066311477e+03, -7.9855811582e+02, -1.0603276015e+03
    4646, 1.4141156728e+03, -7.8522806495e+02, -1.2394832585e+03
    4647, -2.3719300874e+02, 1.6000142895e+03, -2.6303644855e+03
    4648, -1.8612852637e+02, 1.6067552463e+03, -2.7858115502e+03
    4649, -3.0739938286e+02, 1.5880213693e+03, -2.8454544176e+03
    4650, -3.5780589497e+02, 1.5774286645e+03, -2.6900073528e+03
    4651, 1.1756408283e+03, -1.1109342433e+03, -3.8143378834e+03
    4652, 1.2644887928e+03, -1.0086497623e+03, -3.8803586151e+03
    4653, 1.1196585568e+03, -1.1673349846e+03, -5.0057334737e+03
    4654, 1.2095303562e+03, -1.0739378787e+03, -4.9145018179e+03
    4655, 1.1379719581e+03, -1.1494894835e+03, -4.7882900169e+03
    4656, 1.0422806123e+03, -1.2369144575e+03, -4.8795216727e+03
    4657, -1.6166873899e+03, -5.1265323001e+01, -1.2298641619e+02
    4658, -1.6040531647e+03, -2.0813383886e+02, -1.9587724794e+02
    4659, -9.4071587248e+02, 1.3158114976e+03, -1.3226695524e+03
    4660, -1.0617730436e+03, 1.2202230345e+03, -1.3575618825e+03
    4661, -1.0814665145e+03, 1.2028035700e+03, -1.2326671430e+03
    4662, -9.6197904923e+02, 1.3003470917e+03, -1.1977748130e+03
    4663, 1.2948571932e+03, 9.6935602288e+02, -5.3657052730e+03
    4664, 1.3387910591e+03, 9.0771402433e+02, -5.5069245080e+03
    4665, 1.2599243198e+03, 1.0143455813e+03, -5.5732551669e+03
    4666, 1.2110880076e+03, 1.0721809958e+03, -5.4320359319e+03
    4667, -1.5097589534e+03, 5.8046029373e+02, -3.1020674277e+03
    4668, -1.4270228413e+03, 7.6151957320e+02, -3.0798017824e+03
    4669, -1.4298959967e+03, 7.5611089708e+02, -3.2548530796e+03
    4670, -1.5119459607e+03, 5.7473964707e+02, -3.2771187249e+03
    4671, 1.3155553205e+03, 9.4107409311e+02, -5.7195271112e+03
    4672, 1.2374185742e+03, 1.0416820639e+03, -5.7892479952e+03
    4673, 1.0586285744e+03, 1.2229520806e+03, -6.1096905806e+03
    4674, 9.6477700978e+02, 1.2982725336e+03, -6.1139082443e+03
    4675, 1.6174884997e+03, -6.0994566343e+00, 7.6172374487e+02
    4676, -2.5918768191e+02, 1.5965988837e+03, -8.4431300648e+02
    4677, -2.5442089294e+02, 1.5973654119e+03, -6.8860590601e+02
    4678, -1.6437559106e+02, 1.6091261340e+03, -7.0716512460e+02
    4679, -1.6917788534e+02, 1.6086283266e+03, -8.6287222506e+02
    4680, -1.5265171571e+03, 5.3483793707e+02, 3.5909903478e+02
    4681, -1.6085087800e+03, 1.7031075898e+02, -1.3924970462e+03
    4682, -1.5884868031e+03, 3.0498512485e+02, -1.3570688038e+03
    4683, -1.5811170135e+03, 3.4113815321e+02, -1.5070525469e+03
    4684, -1.5675165450e+03, 3.9899640501e+02, 2.3031848192e+02
    4685, -1.6150610664e+03, 8.8791900752e+01, -2.1255466745e+03
    4686, -1.5993390094e+03, 2.4170432968e+02, -2.1100699810e+03
    4687, -1.5967641055e+03, 2.5816785535e+02, -2.2443087167e+03
    4688, -1.6140606284e+03, 1.0542550925e+02, -2.2597854102e+03
    4689, 1.0604086906e+03, -1.2214088828e+03, -3.0671239678e+01
    4690, 9.5940686461e+02, -1.3022460283e+03, -1.1024200370e+02
    4691, 1.0278295542e+03, -1.2489486208e+03, -2.2742270183e+02
    4692, 1.1243532169e+03, -1.1628138689e+03, -1.4785193781e+02
    4693, 1.4657682515e+03, -6.8398076206e+02, -7.9124441106e+01
    4694, 1.5208184256e+03, -5.5083351970e+02, -5.0141996338e+01
    4695, 1.5082318787e+03, -5.8441667495e+02, 1.0574192258e+02
    4696, 8.0328305113e+02, -1.4039382429e+03, -2.2815329602e+03
    4697, 1.5153170183e+03, -5.6579199714e+02, -5.2202618734e+02
    4698, 1.5549921681e+03, -4.4531517721e+02, -4.6427706391e+02
    4699, 1.5310805056e+03, -5.2163084213e+02, -3.3366670221e+02
    4700, 1.4854989363e+03, -6.3999934385e+02, -3.9141582565e+02
    4701, 1.5228129847e+03, 5.4529520785e+02, 1.1960311932e+02
    4702, 1.5780430011e+03, 3.5508666082e+02, 6.5411394541e+01
    4703, 1.5316413658e+03, -5.1998170778e+02, 2.0043931646e+02
    4704, 1.5620530172e+03, -4.1987691220e+02, 3.1152813739e+02
    4705, 1.4929272269e+03, -6.2247453381e+02, 2.9675377116e+02
    4706, 8.7150724867e+02, -1.3626376501e+03, -8.1134671314e+02
    4707, 9.7303966176e+02, -1.2920913538e+03, -7.0207007813e+02
    4708, 8.8738775522e+02, -1.3523495191e+03, -5.9205808137e+02
    4709, 7.8150303091e+02, -1.4161776946e+03, -7.0133471638e+02
    4710, 1.4137286077e+02, -1.6113100149e+03, -2.2343764028e+03
    4711, -4.2449767889e+02, 1.5608036297e+03, -5.1741336912e+03
    4712, -2.8721592041e+02, 1.5917956103e+03, -5.1198125405e+03
    4713, -1.4826751808e+03, -6.4651415926e+02, -5.4289761526e+03
    4714, -1.4193916572e+03, -7.7565041960e+02, -5.3753556846e+03
    4715, -1.4464021265e+03, -7.2403531578e+02, -5.2541588672e+03
    4716, 1.0245396632e+03, 1.2516488040e+03, -4.4298642491e+03
    4717, -1.5150208478e+03, -5.6658457501e+02, -3.0252846928e+02
    4718, -1.5088106243e+03, -5.8292087797e+02, -7.3724981006e+01
    4719, -1.5668192213e+03, -4.0172599831e+02, -2.8953875232e+02
    4720, -5.9987996353e+02, 1.5021485544e+03, -3.4640699620e+03
    4721, -7.3855610788e+02, 1.4390417386e+03, -3.4420054031e+03
    4722, -7.1881170632e+02, 1.4490051694e+03, -3.3172753470e+03
    4723, -5.7928569362e+02, 1.5102100302e+03, -3.3393399058e+03
    4724, 2.3941773174e+02, 1.5996829060e+03, -1.4928980388e+03
    4725, 2.7788294763e+02, 1.5934513853e+03, -1.6190958356e+03
    4726, 1.5308277783e+02, 1.6102397067e+03, -1.6456062175e+03
    4727, 1.1424936345e+02, 1.6134600500e+03, -1.5194084206e+03
    4728, -1.6096291304e+03, -1.5937475549e+02, -7.3789635912e+02
    4729, -1.5880442917e+03, -3.0728094244e+02, -6.9878422107e+02
    4730, -1.5944910278e+03, -2.7185402765e+02, -5.2722789468e+02
    4731, 7.1029312153e+02, -1.4531998939e+03, -6.0988108714e+03
    4732, 7.9756849899e+02, -1.4071925026e+03, -5.9749677424e+03
    4733, 6.9749585781e+02, -1.4593854112e+03, -5.8806932543e+03
    4734, 7.6856581059e+02, -1.4232402625e+03, -5.6781008005e+03
    4735, 6.3533085451e+02, -1.4875015816e+03, -5.7544908358e+03
    4736, 8.2790228867e+02, -1.3895625392e+03, -5.8043032190e+03
    4737, 9.2761292946e+02, -1.3250813194e+03, -6.0105030993e+03
    4738, 9.5613516951e+02, -1.3046500633e+03, -5.8398385758e+03
    4739, -1.5813661784e+03, -3.3998126370e+02, -8.6499362804e+02
    4740, -1.5458248153e+03, -4.7616372217e+02, -8.2664151622e+02
    4741, -1.5553203144e+03, -4.4416772703e+02, -6.6043210925e+02
    4742, 9.5854687565e+02, -1.3028791721e+03, -3.9994961456e+02
    4743, 6.4724058284e+02, -1.4823582151e+03, -5.8395703091e+01
    4744, 6.2315625161e+02, -1.4926428026e+03, -2.4789809954e+02
    4745, 8.0009008430e+02, -1.4057603306e+03, -3.0031492765e+02
    4746, 8.2274459096e+02, -1.3926225576e+03, -1.1081253120e+02
    4747, -1.5437198155e+03, 4.8294449087e+02, -7.5225983324e+02
    4748, -1.5097229666e+03, 5.8055388568e+02, -8.5316605480e+02
    4749, -1.5403477984e+03, 4.9359387150e+02, -9.4510276413e+02
    4750, -1.5687280955e+03, 3.9420605320e+02, -8.4419654258e+02
    4751, 1.2468533390e+03, -1.0303703223e+03, -7.7405037375e+02
    4752, 1.1435969941e+03, -1.1438934238e+03, -8.1863554900e+02
    4753, 1.1820705325e+03, -1.1040903524e+03, -9.7130021315e+02
    4754, 1.2813817181e+03, -9.8710037102e+02, -9.2671503789e+02
    4755, 2.2530609475e+02, 1.6017313800e+03, -4.4751599177e+03
    4756, 8.0527054465e+01, 1.6154942412e+03, -4.4535287226e+03
    4757, 8.8239325895e+01, 1.6150913508e+03, -4.3049709721e+03
    4758, 2.3295100511e+02, 1.6006373978e+03, -4.3266021671e+03
    4759, 1.0046046716e+03, 1.2677048962e+03, -4.7298403582e+03
    4760, 1.0145824483e+03, 1.2597335851e+03, -4.5845457045e+03
    4761, -1.1452405092e+03, 1.1422479704e+03, -4.5933212389e+03
    4762, -1.0779801931e+03, 1.2059290830e+03, -4.4711585571e+03
    4763, -9.8602255503e+02, 1.2822112817e+03, -4.5545819056e+03
    4764, -1.5792902690e+03, 3.4949749109e+02, 2.2179084150e+01
    4765, 5.9140002889e+02, 1.5055073085e+03, -4.3255281059e+03
    4766, 7.3918314316e+02, 1.4387197541e+03, -4.3998097773e+03
    4767, -1.2967730690e+03, 9.6679152743e+02, -7.0562139682e+03
    4768, -1.4511984730e+03, -7.1437332121e+02, 2.2755807362e+02
    4769, -1.4071710928e+03, 7.9760627220e+02, -7.0131141962e+03
    4770, -1.3320261248e+03, 9.1761247423e+02, -6.9428965777e+03
    4771, 8.3418147353e+01, -1.6153475362e+03, 6.5196178216e+02
    4772, 1.5877448578e+03, -3.0882441058e+02, -2.7701718582e+03
    4773, 1.5960569247e+03, -2.6250436754e+02, -2.6797661936e+03
    4774, 1.3270008183e+03, -9.2486489733e+02, -7.2834881988e+02
    4775, 1.2921971655e+03, -9.7289913943e+02, -6.0850702766e+02
    4776, -7.2110758611e+02, -1.4478639782e+03, -6.8604853538e+03
    4777, -1.3438591149e+03, -9.0019382878e+02, -2.5295830663e+03
    4778, -1.2829306842e+03, -9.8508634620e+02, -2.3777730925e+03
    4779, -1.4075069386e+03, -7.9701346777e+02, -2.4356883055e+03
    4780, 1.3290040163e+03, 9.2198404248e+02, -4.1753079685e+03
    4781, 1.2784702637e+03, 9.9086832361e+02, -4.0311071128e+03
    4782, 7.3137262771e+02, -1.4427059054e+03, -8.6304822096e+02
    4783, 6.6707690537e+02, -1.4735381408e+03, -6.5347288777e+02
    4784, 1.4803264319e+03, 6.5187414812e+02, -3.8227784934e+03
    4785, 1.5053190509e+03, 5.9187904581e+02, -3.9683921649e+03
    4786, -7.9291264816e+02, 1.4098211881e+03, -3.1166584740e+03
    4787, -9.0745444012e+02, 1.3389670232e+03, -3.0605117718e+03
    4788, -8.3910766563e+02, 1.3828248535e+03, -2.9268084118e+03
    4789, 7.9040521088e+02, 1.4112284906e+03, -8.5488577729e+02
    4790, 6.9025228233e+02, 1.4628253610e+03, -9.4395011867e+02
    4791, 7.2222905310e+02, 1.4473048901e+03, -7.7770201646e+02
    4792, 1.6072106615e+03, 1.8215416396e+02, -6.0349238033e+03
    4793, 1.6167341334e+03, 4.9769388609e+01, -6.2039388715e+03
    4794, 1.6074972198e+03, 1.7960773447e+02, -6.3156281281e+03
    4795, 1.5873596967e+03, 3.1079807490e+02, -6.1466130598e+03
    4796, -1.4758528279e+03, 6.6194008825e+02, -6.1411503644e+03
    4797, -1.4509254375e+03, 7.1492770596e+02, -5.9978906536e+03
    4798, -1.3778518459e+03, 8.4724880685e+02, -6.0576128093e+03
    4799, -1.4076167464e+03, 7.9681951856e+02, -6.2008725201e+03
    4800, 8.8343474212e+02, 1.3549351669e+03, -5.8260911515e+03
    4801, 9.0337854029e+02, 1.3417203371e+03, -5.9439460674e+03
    4802, 7.6752949293e+02, 1.4237993986e+03, -5.9629067888e+03
    4803, 1.1530825594e+03, 1.1343310193e+03, -5.8550830166e+03
    4804, 1.0693054409e+03, 1.2136276711e+03, -5.9172779428e+03
    4805, 9.9542962266e+02, 1.2749220040e+03, -5.7657162391e+03
    4806, 1.5483959492e+03, 4.6773521840e+02, -9.0369238153e+02
    4807, 1.5983316391e+03, -2.4827851609e+02, -5.3537821680e+02
    4808, 1.5842371206e+03, -3.2634183859e+02, -4.0778011242e+02
    4809, 1.3815752325e+03, -8.4116355543e+02, -8.9386155291e+02
    4810, 1.4506086370e+03, -7.1557028457e+02, -8.2855556369e+02
    4811, 1.4036573478e+03, -8.0377378656e+02, -6.6304283066e+02
    4812, -1.5017384769e+03, -6.0090581380e+02, -3.9214235089e+03
    4813, -1.4387610297e+03, -7.3910280023e+02, -3.8574703449e+03
    4814, -1.0803757437e+03, 1.2037834117e+03, 5.5548531300e+02
    4815, 1.3577204649e+03, 8.7914810421e+02, -4.2815248214e+03
    4816, 1.3045614435e+03, 9.5625607976e+02, -4.3350859089e+03
    4817, 9.1797478866e+02, 1.3317764592e+03, -1.1058992982e+03
    4818, 8.0808019851e+02, 1.4011825872e+03, -1.1651273810e+03
    4819, 7.5441989737e+02, 1.4307888972e+03, -1.0482418460e+03
    4820, 8.6686488116e+02, 1.3655956678e+03, -9.8901376324e+02
    4821, 1.0299302567e+03, 1.2472168682e+03, -1.0694275054e+03
    4822, 1.0595269847e+03, 1.2221738087e+03, -1.2054442893e+03
    4823, 9.4963035323e+02, 1.3093923943e+03, -1.2419160821e+03
    4824, -1.5803210334e+03, -3.4480673036e+02, -6.2823738158e+03
    4825, -1.5527040463e+03, -4.5322885471e+02, -6.1495550251e+03
    4826, -1.5797414022e+03, -3.4745266179e+02, -6.0653473961e+03
    4827, -1.5999814383e+03, -2.3741450491e+02, -6.1981661868e+03
    4828, 1.5821625481e+03, 3.3625573803e+02, -8.7990808756e+02
    4829, 5.0935883460e+02, -1.5352067703e+03, -1.1865850291e+03
    4830, -9.8537691126e+02, 1.2827075242e+03, -5.4240203977e+02
    4831, -8.6934190986e+02, 1.3640201222e+03, -5.1299439211e+02
    4832, -8.4872228852e+02, 1.3769447073e+03, -6.7252942919e+02
    4833, -9.6596747850e+02, 1.2973870203e+03, -7.0193707685e+02
    4834, -8.2531406642e+02, 1.3911013413e+03, -8.4521361119e+02
    4835, -7.3182834900e+02, 1.4424747892e+03, -6.3763570941e+02
    4836, -7.0732860236e+02, 1.4546451451e+03, -8.1031989140e+02
    4837, -9.2132720270e+02, -1.3294594524e+03, -3.7321816414e+03
    4838, -9.5052533529e+02, -1.3087428460e+03, -3.8626633477e+03
    4839, -7.7422889080e+02, -1.4201675516e+03, -3.7727792449e+03
    4840, -1.5620036503e+03, 4.2006052717e+02, -5.5475872775e+03
    4841, -1.5489525532e+03, 4.6588865399e+02, -5.6826259104e+03
    4842, -1.5767572212e+03, 3.6075326126e+02, -5.7341524770e+03
    4843, -1.5866993836e+03, 3.1415174038e+02, -5.5991138441e+03
    4844, -1.3853265387e+03, -8.3497103614e+02, -4.6149343029e+03
    4845, -1.4561005019e+03, -7.0432774916e+02, -4.6594930488e+03
    4846, -1.3993092453e+03, -8.1131984208e+02, -3.5688999424e+03
    4847, -1.4789122500e+03, -6.5507618388e+02, -3.5671438877e+03
    4848, -1.4039065423e+03, -8.0333845323e+02, -3.7144134961e+03
    4849, 1.1526540326e+03, 1.1347664655e+03, 7.8602072611e+02
    4850, 1.0770720643e+03, 1.2067402447e+03, 6.9529729100e+02
    4851, 1.3250678778e+02, -1.6120633366e+03, -5.1096110223e+03
    4852, -1.6080144376e+03, 1.7491660472e+02, -4.7527745979e+03
    4853, -1.6149106933e+03, 9.1486078437e+01, -4.8353688512e+03
    4854, 1.5930214391e+03, 2.8033719797e+02, 4.2570262961e+02
    4855, 1.5699816562e+03, 3.8918356758e+02, 5.0420908314e+02
    4856, 9.1868149776e+02, 1.3312890579e+03, -3.5685684367e+03
    4857, 1.0275399614e+03, 1.2491868866e+03, -3.5734667842e+03
    4858, 1.0253505450e+03, 1.2509846161e+03, -3.6826878956e+03
    4859, 9.1634845366e+02, 1.3328960055e+03, -3.6777895481e+03
    4860, 1.0303338450e+03, -1.2468834821e+03, -1.9012236393e+03
    4861, 9.3947368399e+02, -1.3166986926e+03, -1.8857953778e+03
    4862, 1.1387979384e+03, -1.1486711912e+03, -1.9038840184e+03
    4863, 1.2201641690e+03, -1.0618406898e+03, -2.0657849096e+03
    4864, 1.2448305584e+03, -1.0328132119e+03, -1.9110465937e+03
    4865, 1.5786660654e+03, 3.5230626459e+02, 3.3872810751e+02
    4866, 1.6049793907e+03, 2.0086663617e+02, 3.3865718905e+02
    4867, 1.5942164016e+03, 2.7345989601e+02, 2.5168266696e+02
    4868, 7.7455087688e+02, 1.4199919680e+03, -3.2511173162e+03
    4869, 8.5240212209e+02, 1.3746697321e+03, -3.3118556409e+03
    4870, 8.0111793555e+02, 1.4051748302e+03, -3.4025982347e+03
    4871, 7.2164797278e+02, 1.4475947131e+03, -3.3418599100e+03
    4872, 6.2835804443e+02, 1.4904604718e+03, -3.3359120892e+03
    4873, 7.0720423828e+02, 1.4547056112e+03, -3.4600685153e+03
    4874, -1.5779017334e+03, -3.5571388755e+02, -5.0784053928e+03
    4875, -1.5368070724e+03, -5.0450993274e+02, -5.0376312474e+03
    4876, -1.5846620704e+03, -3.2427206581e+02, -4.9347348924e+03
    4877, 1.4604620218e+03, 6.9523875959e+02, 1.9189382496e+02
    4878, 1.4850578501e+03, 6.4102217734e+02, 3.3845473769e+02
    4879, 1.5418485892e+03, 4.8888564908e+02, 2.6616403205e+02
    4880, -1.6174146538e+03, -1.6615888089e+01, -5.1282803395e+03
    4881, -1.6053842629e+03, 1.9760470229e+02, -5.1962468595e+03
    4882, -1.6169273929e+03, 4.3035519446e+01, -5.2532779438e+03
    4883, -1.5398492252e+03, 4.9514706255e+02, -7.2749141870e+03
    4884, -1.5861195033e+03, 3.1706650927e+02, -5.1549633514e+03
    4885, -1.5767734931e+03, 3.6068213363e+02, -5.2558183877e+03
    4886, -1.5993250070e+03, 2.4179696421e+02, -5.2971018957e+03
    4887, -1.1453331523e+03, 1.1421550772e+03, -2.0323380120e+03
    4888, -1.2322370973e+03, 1.0478062731e+03, -1.9865531455e+03
    4889, -1.2019570627e+03, 1.0824072568e+03, -1.8494259757e+03
    4890, -1.1124065186e+03, 1.1742478390e+03, -1.8952108422e+03
    4891, 1.6174236599e+03, -1.5714778473e+01, -4.1475423435e+03
    4892, 1.6045925871e+03, 2.0393351700e+02, -4.0970242589e+03
    4893, 1.6164905469e+03, 5.7136344838e+01, -4.0125361266e+03
    4894, -1.0828365610e+03, 1.2015703192e+03, -1.6995226647e+03
    4895, -9.5497987190e+02, 1.3054959572e+03, -1.7230102683e+03
    4896, -9.8717599772e+02, 1.2813234562e+03, -1.9186984458e+03
    4897, 1.4623094817e+03, 6.9134450872e+02, -5.3608223394e+03
    4898, 1.4040719990e+03, 8.0304923366e+02, -5.4280900986e+03
    4899, 1.3746310989e+03, 8.5246442266e+02, -5.3103403621e+03
    4900, 1.4368035133e+03, 7.4290101243e+02, -5.2430726029e+03
    4901, 1.6123841203e+03, -1.2854453878e+02, 6.5248928691e+02
    4902, 1.5982771137e+03, -2.4862927790e+02, 7.5826554204e+02
    4903, 1.6174903875e+03, 5.5763958605e+00, -4.4361908316e+02
    4904, 1.6167112680e+03, 5.0506692369e+01, -5.7642646527e+02
    4905, 1.5687481035e+03, 3.9412642345e+02, 2.1991059607e+02
    4906, 1.5542937628e+03, 4.4774674647e+02, 3.8498154349e+02
    4907, -1.6087606852e+03, 1.6791458487e+02, -6.2620278563e+03
    4908, -1.5960072790e+03, 2.6280604161e+02, -6.1135501022e+03
    4909, -1.5923944617e+03, 2.8387696001e+02, -6.3159769424e+03
    4910, 1.5630117098e+03, -4.1629394060e+02, -2.9094038120e+03
    4911, 2.3769183343e+02, 1.5999402621e+03, -7.2764826291e+03
    4912, 3.3361142197e+02, 1.5827222337e+03, -7.1621299173e+03
    4913, -3.7531655916e+02, 1.5733542927e+03, -4.4789386646e+03
    4914, -5.3021279781e+02, 1.5281297848e+03, -4.5574117203e+03
    4915, -4.5389744504e+02, 1.5525087309e+03, -4.3329919257e+03
    4916, -2.2855575343e+02, 1.6012709070e+03, -4.4486963349e+03
    4917, -1.7532227041e+02, 1.6079702583e+03, -4.6256881618e+03
    4918, 1.4193849157e+03, -7.7566275597e+02, -4.3254713422e+02
    4919, 1.4637319249e+03, -6.8832775769e+02, -2.6984521920e+02
    4920, 1.3932084206e+03, -8.2175211998e+02, -3.1097652777e+02
    4921, -1.3517586962e+03, -8.8828749695e+02, -1.1223194309e+03
    4922, -1.3153028451e+03, -9.4142693594e+02, -1.2691979748e+03
    4923, -1.2281960494e+03, -1.0525401247e+03, -1.1953983910e+03
    4924, -1.2691469890e+03, -1.0027822148e+03, -1.0485198472e+03
    4925, -6.9939580825e+02, -1.4584758323e+03, -5.3896271389e+03
    4926, -8.2690583196e+02, -1.3901557449e+03, -5.3496082810e+03
    4927, -8.3027593703e+02, -1.3881455682e+03, -5.5258504819e+03
    4928, 1.6174762367e+03, 8.7677676862e+00, 3.3015255802e+02
    4929, 1.6134293752e+03, -1.1468173935e+02, 4.3444212090e+02
    4930, 1.6046703237e+03, -2.0332093378e+02, 3.2229090117e+02
    4931, 1.6155064694e+03, -8.0281363634e+01, 2.1800133829e+02
    4932, 4.3280918289e+02, -1.5585193169e+03, -3.7322914660e+02
    4933, 5.8267181760e+02, -1.5089068238e+03, -4.2710857919e+02
    4934, -1.5846873458e+03, -3.2414852479e+02, -6.6148535239e+03
    4935, -1.5822094611e+03, -3.3603492543e+02, -6.7571564844e+03
    4936, -1.5234593532e+03, -5.4348675154e+02, -6.7659791415e+03
    4937, -1.4792296794e+03, -6.5435908007e+02, -4.5099449140e+03
    4938, -1.5324615491e+03, -5.1755951396e+02, -4.5580119439e+03
    4939, -1.5480241420e+03, -4.6896429049e+02, -6.8945634953e+03
    4940, -1.5969944817e+03, -2.5673892488e+02, -6.8571252150e+03
    4941, -1.5694786205e+03, -3.9120724653e+02, -6.9945322259e+03
    4942, -1.5075410838e+03, -5.8619632428e+02, -6.9733123757e+03
    4943, -1.4773385472e+03, -6.5861754236e+02, -6.8447280219e+03
    4944, 1.5084391207e+03, 5.8388155414e+02, 7.2076592887e+02
    4945, 1.4191689186e+03, 7.7605787838e+02, 5.9722585848e+02
    4946, 1.4006361093e+03, 8.0902703251e+02, 7.4395992961e+02
    4947, 1.2930264149e+03, 9.7179675873e+02, 8.0170494762e+02
    4948, -1.5419475183e+03, 4.8857353669e+02, -4.4092679652e+03
    4949, -1.5732104770e+03, 3.7591893411e+02, -4.3186952491e+03
    4950, -1.3758141802e+03, -8.5055369704e+02, -3.9066198607e+03
    4951, -1.5269725012e+03, 5.3353653159e+02, -2.3151584440e+03
    4952, -1.4705394870e+03, 6.7366153759e+02, -2.3140311169e+03
    4953, -1.4670757173e+03, 6.8117185038e+02, -2.4399004106e+03
    4954, -1.5242244769e+03, 5.4133722776e+02, -2.4410277377e+03
    4955, -1.6141078608e+03, -1.0469987424e+02, -6.7890933728e+03
    4956, -1.6167171205e+03, -5.0319005963e+01, -6.9851064032e+03
    4957, -1.3496838858e+03, -8.9143685047e+02, -4.0462062264e+03
    4958, -1.3214522240e+03, -9.3277557310e+02, -3.9403000724e+03
    4959, 1.3472854341e+03, -8.9505765679e+02, -1.7624703175e+03
    4960, 1.2525864705e+03, -1.0233930740e+03, -1.7546787989e+03
    4961, 1.1491012248e+03, -1.1383640126e+03, -1.7537543848e+03
    4962, -1.5847113544e+03, 3.2403113011e+02, -3.0444857952e+02
    4963, -1.6062011052e+03, 1.9085140728e+02, -2.8761097457e+02
    4964, -1.6049995384e+03, 2.0070558494e+02, -1.9561136805e+02
    4965, -1.5826928256e+03, 3.3375091002e+02, -2.1244897301e+02
    4966, 4.5024775357e+02, 1.5535711153e+03, -4.2667346690e+03
    4967, 6.4561079043e+02, 1.4830687635e+03, -4.2012263610e+03
    4968, -1.6041899162e+03, -2.0707718996e+02, -5.2767093910e+03
    4969, -1.6162873111e+03, -6.2622504837e+01, -5.3236342283e+03
    4970, -1.6129566002e+03, -1.2114972502e+02, -5.4936919596e+03
    4971, 1.1180540834e+03, 1.1688718136e+03, 5.1910040428e+02
    4972, 1.1679260515e+03, 1.1190419957e+03, 3.4004835606e+02
    4973, -1.5821393105e+03, 3.3636505780e+02, -5.4007497537e+03
    4974, -1.5392030251e+03, 4.9715218751e+02, -5.2730227559e+03
    4975, -1.5466742431e+03, 4.7339733379e+02, -5.4179541219e+03
    4976, -3.4478656124e+02, 1.5803254340e+03, -4.9835794240e+03
    4977, -2.4980190235e+02, 1.5980942587e+03, -4.9322211413e+03
    4978, -1.9164905543e+02, 1.6061061265e+03, -5.0684542578e+03
    4979, -5.2594880618e+02, 1.5296025965e+03, -5.2000134657e+03
    4980, -5.5868692700e+02, 1.5179509767e+03, -5.0575843460e+03
    4981, -4.5792948415e+02, 1.5513242206e+03, -5.0317045715e+03
    4982, -1.4454948484e+03, 7.2584495133e+02, -3.7504572246e+03
    4983, -1.3691276641e+03, 8.6127561763e+02, -3.7931025179e+03
    4984, -1.4052609002e+03, 8.0096694831e+02, -3.9434759718e+03
    4985, -1.4756708416e+03, 6.6234569320e+02, -3.9008306785e+03
    4986, 1.6047674275e+03, 2.0255308821e+02, -2.6481213937e+03
    4987, 1.6135811718e+03, 1.1252578421e+02, -2.5006206476e+03
    4988, -1.5423531890e+03, -4.8729138148e+02, -3.3299605273e+03
    4989, -1.5771167251e+03, -3.5917834750e+02, -3.4579388360e+03
    4990, -1.5398079316e+03, -4.9527546267e+02, -3.4451879631e+03
    4991, -1.6172940889e+03, -2.5808525125e+01, -2.6139267272e+03
    4992, -1.6053572152e+03, -1.9782431990e+02, -2.6586847815e+03
    4993, -1.5995453346e+03, -2.4033512569e+02, -2.4778507050e+03
    4994, -1.6160405459e+03, -6.8696462764e+01, -2.4330926507e+03
    4995, -1.5766461154e+03, -3.6123853154e+02, -2.7029223465e+03
    4996, -1.5346466994e+03, -5.1104379277e+02, -2.7540710046e+03
    4997, -1.5192674690e+03, -5.5509693524e+02, -2.6156184120e+03
    4998, -1.5655704348e+03, -4.0656544832e+02, -2.5644697538e+03
    4999, 9.7301786671e+02, -1.2921077668e+03, 3.6875599990e+02
    5000, 1.0539445572e+03, -1.2269910841e+03, 3.1736254594e+02
    5001, 1.1028329495e+03, -1.1832437346e+03, 4.1465113144e+02
    5002, 1.0246133459e+03, -1.2515884872e+03, 4.6604458539e+02
    5003, 1.4843018302e+03, 6.4277081997e+02, -6.8097924521e+03
    5004, 1.5296023720e+03, 5.2594945919e+02, -6.7863280293e+03
    5005, -5.1909007584e+02, -1.5319437794e+03, -5.2449243102e+03
    5006, -6.8030271631e+02, -1.4674789485e+03, -5.2103562735e+03
    5007, -7.5711335718e+02, -1.4293654586e+03, -4.3760767714e+03
    5008, -7.4536354505e+02, -1.4355275810e+03, -4.2269498517e+03
    5009, -8.7341548969e+02, -1.3614153049e+03, -4.2139510537e+03
    5010, -7.4121939966e+02, -1.4376717468e+03, -4.5320390742e+03
    5011, -6.2935823346e+02, -1.4900384102e+03, -4.5267940989e+03
    5012, -6.4583965727e+02, -1.4829691120e+03, -4.3708317962e+03
    5013, 1.1121945010e+03, -1.1744486544e+03, 5.7021782788e+02
    5014, 1.1780800026e+03, -1.1083473091e+03, 4.6062865396e+02
    5015, 1.4852183753e+03, 6.4065016002e+02, -1.7786537112e+03
    5016, 1.4930412562e+03, 6.2220097830e+02, -1.9098228066e+03
    5017, 1.4130431273e+03, 7.8715650949e+02, -1.9527273842e+03
    5018, 1.6043114721e+03, 2.0613333206e+02, -7.2865297470e+03
    5019, -1.5988381269e+03, 2.4499570194e+02, -5.1974003623e+01
    5020, -1.5573493286e+03, 4.3700036450e+02, -1.3829588523e+02
    5021, -9.0327012140e+02, -1.3417933290e+03, -4.6642669724e+03
    5022, -7.5526128117e+02, -1.4303449399e+03, -4.6867092304e+03
    5023, 1.4721703399e+02, -1.6107865765e+03, -1.7252224195e+03
    5024, -1.0034734488e+03, -1.2686005232e+03, -4.6204047896e+03
    5025, -1.0454814285e+03, -1.2342102061e+03, -4.7638536353e+03
    5026, -9.4779083354e+02, -1.3107245271e+03, -4.8077158181e+03
    5027, -1.3119579862e+03, 9.4608270909e+02, -3.8719775680e+02
    5028, -1.3796367419e+03, 8.4433921524e+02, -3.7822998710e+02
    5029, -1.3768471604e+03, 8.4888052564e+02, -2.2626268885e+02
    5030, 1.1144859199e+03, -1.1722744493e+03, -3.2317872179e+03
    5031, -1.5654693119e+03, 4.0695464557e+02, -6.7720079915e+03
    5032, -1.5196624565e+03, 5.5401468248e+02, -6.7900761532e+03
    5033, 7.0240023529e+02, 1.4570312829e+03, -1.3872802573e+03
    5034, 6.1265130371e+02, 1.4969851803e+03, -1.4670027716e+03
    5035, 1.5419037704e+03, -4.8871158441e+02, -2.2770867677e+03
    5036, 1.4758634587e+03, -6.6191638541e+02, -2.4060801040e+03
    5037, 1.5925098324e+03, -2.8322903039e+02, -1.1297282826e+03
    5038, 1.6078160797e+03, -1.7673059719e+02, -1.2589744374e+03
    5039, 1.6072347382e+03, -1.8194160145e+02, -1.0447193833e+03
    5040, 1.0786912638e+03, -1.2052930795e+03, -5.3231302510e+03
    5041, 9.6194817713e+02, -1.3003699299e+03, -5.1988925983e+03
    5042, 8.7032992659e+02, -1.3633899181e+03, -5.3177005439e+03
    5043, 9.9332961485e+02, -1.2765588613e+03, -5.4419381965e+03
    5044, -1.1621034322e+03, 1.1250874912e+03, -6.6120269959e+03
    5045, 1.0765922293e+03, -1.2071683486e+03, -5.5495727112e+03
    5046, 1.0978326206e+03, -1.1878845850e+03, -5.7047454649e+03
    5047, 1.1911921962e+03, -1.0942428440e+03, -5.6892022894e+03
    5048, 1.1715979031e+03, -1.1151971142e+03, -5.5340295358e+03
    5049, 8.7890677291e+02, -1.3578767008e+03, -5.5748067869e+03
    5050, 9.6787223407e+02, -1.2959666618e+03, -5.6824413016e+03
    5051, 1.2995901468e+03, -9.6300140199e+02, -4.0296324461e+03
    5052, 1.2226763847e+03, -1.0589469809e+03, -4.1043439106e+03
    5053, 1.2285469623e+03, -1.0521305107e+03, -3.9669634900e+03
    5054, 1.5127799089e+03, 5.7254100036e+02, -1.5048518945e+03
    5055, 1.5597766624e+03, 4.2825578039e+02, -1.4933387548e+03
    5056, 1.5609276249e+03, 4.2404150707e+02, -1.6027876443e+03
    5057, 1.5143207346e+03, 5.6845313162e+02, -1.6143007839e+03
    5058, -1.4449247457e+03, 7.2697918081e+02, -1.1774831912e+03
    5059, -1.5057880517e+03, 5.9068485124e+02, -1.2320592853e+03
    5060, -1.5205391207e+03, 5.5160405408e+02, -1.0713706543e+03
    5061, -1.4632156263e+03, 6.8942460144e+02, -1.0167945602e+03
    5062, -1.5659886210e+03, 4.0495171190e+02, -1.1599091504e+03
    5063, -1.3219830441e+03, -9.3202311185e+02, -4.4305313466e+03
    5064, -1.2250568111e+03, -1.0561922456e+03, -4.3995629624e+03
    5065, -1.2435318205e+03, -1.0343765569e+03, -4.2579945507e+03
    5066, 1.5418619682e+03, -4.8884345261e+02, 7.5050923398e+02
    5067, -1.9952353307e+02, 1.6051469122e+03, -1.3932090537e+03
    5068, -2.0258362289e+02, 1.6047635732e+03, -1.2489079054e+03
    5069, -8.3556242965e+01, 1.6153403989e+03, -1.2522498500e+03
    5070, -8.0476203202e+01, 1.6154967752e+03, -1.3965509983e+03
    5071, 5.9161324845e+02, -1.5054235332e+03, -3.8237900336e+03
    5072, 9.5462287007e+02, -1.3057570317e+03, -4.9896560353e+03
    5073, 8.7375246663e+02, -1.3611990586e+03, -4.9049773275e+03
    5074, 6.9918803440e+02, -1.4585754497e+03, -4.8269424878e+03
    5075, 7.4353964853e+02, -1.4364731258e+03, -4.9610602888e+03
    5076, -1.5633345506e+03, 4.1507991150e+02, -3.9969610639e+02
    5077, -1.5252635811e+03, 5.3840250578e+02, -2.7823883332e+02
    5078, -1.4748690822e+03, 6.6412908420e+02, -4.3149562308e+02
    5079, -1.5231246068e+03, 5.4442417485e+02, -5.5295289616e+02
    5080, -1.5862596868e+03, -3.1636443527e+02, -4.4772777162e+03
    5081, -1.6012304184e+03, -2.2883923889e+02, -4.3632416422e+03
    5082, -1.6133642426e+03, -1.1559442334e+02, -4.4429597514e+03
    5083, -1.6045897135e+03, -2.0395612570e+02, -4.5569958254e+03
    5084, -1.1243442654e+03, -1.1628225242e+03, -4.3719972200e+03
    5085, -1.2076922831e+03, -1.0760044606e+03, -4.5401636772e+03
    5086, -1.1052564253e+03, -1.1809803065e+03, -4.5125979348e+03
    5087, 3.2288686868e+02, -1.5849448950e+03, -6.8000928633e+02
    5088, 5.2379311691e+02, -1.5303421254e+03, -5.8815807248e+02
    5089, 3.5357098185e+02, -1.5783832902e+03, -5.4627788275e+02
    5090, 8.8668670083e+02, 1.3528092787e+03, -1.5605060981e+03
    5091, 9.7623468451e+02, 1.2896790650e+03, -1.5080579839e+03
    5092, 1.0222998931e+03, 1.2534788305e+03, -1.6157816709e+03
    5093, 9.3509690475e+02, 1.3198106034e+03, -1.6682297851e+03
    5094, 2.1702124041e+02, -1.6028749269e+03, 3.8709435440e+02
    5095, -3.5982889981e+02, -1.5769684248e+03, -2.7705524293e+03
    5096, -2.4223670539e+02, -1.5992584621e+03, -2.6904675313e+03
    5097, 1.6130107235e+03, 1.2042697313e+02, -9.5916777960e+02
    5098, 1.5938491964e+03, 2.7559206989e+02, -1.0262060878e+03
    5099, 9.9459718342e+02, 1.2755715161e+03, -2.7406935682e+03
    5100, 9.1328687516e+02, 1.3349956306e+03, -2.8789194602e+03
    5101, 8.4280630101e+02, 1.3805737173e+03, -2.8083595483e+03
    5102, 9.2708967853e+02, 1.3254474633e+03, -2.6701336563e+03
    5103, 6.5490845337e+02, 1.4789865340e+03, -2.0926755224e+03
    5104, 5.4608029214e+02, 1.5225316301e+03, -2.0028861858e+03
    5105, 6.2917653108e+02, 1.4901151441e+03, -1.8768565728e+03
    5106, 9.0901643160e+02, -1.3379070884e+03, -9.4083558601e+02
    5107, 1.0767925431e+03, -1.2069896724e+03, -1.0152278070e+03
    5108, 1.0270324112e+03, -1.2496042079e+03, -8.7546999873e+02
    5109, -7.1978127514e+02, 1.4485237885e+03, -3.5259876240e+01
    5110, -8.1480433801e+02, 1.3972831283e+03, -5.5562858853e+01
    5111, -5.1702051530e+02, -1.5326434800e+03, -2.3016355904e+03
    5112, 1.0620139124e+03, 1.2200134016e+03, -5.3429088375e+03
    5113, 1.1627818193e+03, 1.1243863618e+03, -5.2833512298e+03
    5114, 1.2513518560e+03, 1.0249023282e+03, -6.8177081546e+03
    5115, 9.5637872754e+02, 1.3044715327e+03, -1.3731147678e+03
    5116, 1.0783788200e+03, 1.2055726318e+03, -1.3478196389e+03
    5117, 1.5910072158e+03, -2.9155152068e+02, 2.1013066587e+02
    5118, 1.5103611726e+03, -5.7889150822e+02, -6.2456464554e+03
    5119, 1.4362096807e+03, -7.4404838750e+02, -6.4014530911e+03
    5120, 1.4938223964e+03, -6.2032322052e+02, -6.5769143074e+03
    5121, 1.5537867359e+03, -4.4950309142e+02, -6.4211076717e+03
    5122, -1.5804193685e+03, -3.4435573109e+02, -5.8384811982e+03
    5123, -1.5455348450e+03, -4.7710406913e+02, -5.7236849849e+03
    5124, -1.6038611278e+03, -2.0960852240e+02, -5.7027199126e+03
    5125, 1.5664357367e+03, -4.0321871567e+02, -2.7856551831e+02
    5126, 1.5454279491e+03, -4.7745021121e+02, -1.5234864036e+02
    5127, 1.5044668548e+03, -5.9404186109e+02, -2.0744982426e+02
    5128, 5.7157652915e+02, -1.5131445804e+03, -4.8378096866e+03
    5129, 1.5733043934e+03, -3.7552567896e+02, -9.0884471639e+01
    5130, 1.5535388040e+03, -4.5035922816e+02, 1.1322172386e+01
    5131, 1.2750780415e+03, 9.9522974136e+02, -1.2961500715e+03
    5132, 1.2891551200e+03, 9.7692646940e+02, -1.4385076133e+03
    5133, 1.1810737462e+03, 1.1051565753e+03, -1.3221056026e+03
    5134, 1.5198015978e+03, -5.5363286875e+02, -3.0423686087e+03
    5135, 1.4739571603e+03, -6.6615053823e+02, -3.1170434463e+03
    5136, 1.5405709667e+03, -4.9289689239e+02, -3.1394545476e+03
    5137, 8.2088008622e+02, 1.3937224021e+03, -5.4706494265e+03
    5138, 7.2674674206e+02, 1.4450416682e+03, -5.5721393147e+03
    5139, 7.4202974518e+02, 1.4372536684e+03, -5.3775390595e+03
    5140, 7.4255328230e+02, 1.4369832542e+03, -6.0685898556e+03
    5141, 7.9290038227e+02, 1.4098280866e+03, -5.6851287182e+03
    5142, -1.0575431847e+03, 1.2238907887e+03, -6.0975171357e+03
    5143, -1.0463026278e+03, 1.2335141106e+03, -5.9353705598e+03
    5144, -1.1713433086e+03, 1.1154645236e+03, -6.0886590019e+03
    5145, -1.3328159101e+03, 9.1646494736e+02, -6.2327803917e+03
    5146, -1.3509268745e+03, 8.8955203880e+02, -6.3727947313e+03
    5147, -1.5256291894e+03, -5.3736563568e+02, 2.0619944878e+02
    5148, -1.4892577867e+03, -6.3120321201e+02, 9.1567793380e+01
    5149, 1.3049200777e+02, 1.6122276781e+03, -4.7061056883e+03
    5150, 1.9931968802e+02, 1.6051722375e+03, -4.8376121251e+03
    5151, 7.2899104408e+01, 1.6158564202e+03, -4.9045674171e+03
    5152, 3.7301693584e+00, 1.6174956989e+03, -4.7730609803e+03
    5153, -1.3250471897e+03, 9.2766168133e+02, -6.1181265020e+03
    5154, -1.2505054356e+03, 1.0259348934e+03, -6.1387072038e+03
    5155, 1.3062640362e+03, -9.5392898991e+02, -5.1775927644e+03
    5156, 1.2639642798e+03, -1.0093069649e+03, -5.0365362976e+03
    5157, 1.1832427758e+03, -1.1028339782e+03, -5.0928986002e+03
    5158, 1.2296458277e+03, -1.0508460346e+03, -5.2339550669e+03
    5159, 7.6827053287e+01, 1.6156744269e+03, -4.1905558625e+03
    5160, -3.3473418483e+01, 1.6171536044e+03, -4.0878161285e+03
    5161, 4.4775883256e+01, 1.6168801348e+03, -4.0128423567e+03
    5162, 1.5487574789e+02, 1.6100682447e+03, -4.1155820907e+03
    5163, -8.6706180830e+02, -1.3654706407e+03, -1.9511451602e+03
    5164, -1.4482042234e+03, -7.2042402612e+02, -2.3143253744e+03
    5165, -1.4865909496e+03, -6.3745870339e+02, -2.3914486005e+03
    5166, -1.4502855001e+03, -7.1622497726e+02, -2.5128115316e+03
    5167, 1.2665544110e+03, -1.0060547569e+03, -5.6805241786e+03
    5168, 1.3360192766e+03, -9.1178875976e+02, -5.7422931270e+03
    5169, 1.3596577490e+03, -8.7614899168e+02, -5.6443371799e+03
    5170, 1.2927093250e+03, -9.7221852017e+02, -5.5825682316e+03
    5171, 1.5365730828e+03, 5.0522214055e+02, -5.1978806690e+03
    5172, 1.5082114125e+03, 5.8446949032e+02, -5.2775048808e+03
    5173, 1.4817908670e+03, 6.4853841549e+02, -5.2085632487e+03
    5174, 1.5135211259e+03, 5.7057869862e+02, -5.1289390370e+03
    5175, 1.4963400085e+03, -6.1422538944e+02, -4.2494424708e+03
    5176, 1.5331302857e+03, -5.1557519041e+02, -4.1630090518e+03
    5177, -1.4971898015e+03, 6.1215108296e+02, -6.6638158254e+02
    5178, -1.4422155743e+03, 7.3233905207e+02, -6.8965631802e+02
    5179, -1.4572865149e+03, 7.0187054613e+02, -8.7644079028e+02
    5180, -1.3438181189e+03, 9.0025502684e+02, -7.5691602257e+02
    5181, -1.4200981105e+03, 7.7435625302e+02, -5.1728692613e+02
    5182, -1.3168142851e+03, 9.3931165679e+02, -5.8454663069e+02
    5183, -1.2167624218e+03, 1.0657370496e+03, -4.3009636818e+03
    5184, -1.1519325618e+03, 1.1354988432e+03, -4.3925939720e+03
    5185, -1.2080758216e+03, 1.0755738279e+03, -4.4791343240e+03
    5186, -1.2692816564e+03, 1.0026117528e+03, -4.3875040338e+03
    5187, -1.2688010943e+03, 1.0032198329e+03, -4.1938025340e+03
    5188, -1.3260544547e+03, 9.2622126576e+02, -4.2911467384e+03
    5189, -1.3741509189e+03, 8.5323824468e+02, -4.2096601857e+03
    5190, -1.3211404529e+03, 9.3321709893e+02, -4.1123159813e+03
    5191, 1.5756463585e+03, -3.6557462031e+02, -5.6304730661e+03
    5192, 1.5401435238e+03, -4.9423089349e+02, -5.6467176484e+03
    5193, 1.5466228163e+03, -4.7356532186e+02, -5.8421974613e+03
    5194, -1.5949999199e+03, 2.6885220022e+02, -7.2868718715e+03
    5195, 1.1637689262e+03, 1.1233646498e+03, -1.1797302530e+03
    5196, 1.5284778741e+03, 5.2920850174e+02, -3.7720639658e+03
    5197, 1.4267759309e+03, -7.6198208179e+02, -1.4134412367e+03
    5198, 1.3313642295e+03, -9.1857255476e+02, -1.2530965243e+03
    5199, 1.3462176411e+03, -8.9666287578e+02, -1.4270545025e+03
    5200, -1.0909157308e+03, -1.1942399752e+03, -4.0002541724e+03
    5201, -1.1556927214e+03, -1.1316715883e+03, -3.8904598178e+03
    5202, -1.2227103035e+03, -1.0589078164e+03, -3.9605275000e+03
    5203, -1.1618792547e+03, -1.1253189981e+03, -4.0703218546e+03
    5204, 6.5640139558e+02, -1.4783245442e+03, -5.5264047435e+03
    5205, 5.5732511097e+02, -1.5184515042e+03, -5.3916503065e+03
    5206, 4.4499280661e+02, -1.5550844517e+03, -5.4781177127e+03
    5207, 5.4673398350e+02, -1.5222970148e+03, -5.6128721497e+03
    5208, 1.5860107868e+03, 3.1760987726e+02, -2.7346148121e+03
    5209, 1.5671488367e+03, 4.0043822707e+02, -2.6022973079e+03
    5210, 1.5919201497e+03, 2.8652484531e+02, -2.5158038895e+03
    5211, 1.4242670539e+03, 7.6666133926e+02, -4.8581892324e+03
    5212, 1.3201460164e+03, 9.3462331734e+02, -4.7295896528e+03
    5213, 1.4199758558e+03, 7.7458041483e+02, -4.7060874943e+03
    5214, 1.5669382643e+03, 4.0126141841e+02, -2.2990506863e+03
    5215, 1.5804982936e+03, 3.4399330516e+02, -2.4185832134e+03
    5216, 1.5500309452e+03, 4.6228813404e+02, -2.4808723699e+03
    5217, 1.5321877204e+03, 5.1836959728e+02, -2.3613398427e+03
    5218, -1.2783630396e+03, -9.9100665435e+02, -4.0246631328e+03
    5219, 1.0582405765e+02, 1.6140345470e+03, -7.1718437896e+03
    5220, 2.1203498148e+02, 1.6035421468e+03, -7.0456332726e+03
    5221, 1.4063071339e+03, 7.9912858489e+02, -6.4804792257e+03
    5222, 1.4721673797e+03, 6.7009660220e+02, -6.2739699121e+03
    5223, 1.4818029856e+03, 6.4851072602e+02, -6.4700450885e+03
    5224, -1.5531190524e+03, 4.5180466928e+02, -5.1024443497e+03
    5225, -1.4740437889e+03, 6.6595882631e+02, -5.2358595311e+03
    5226, -9.0217369739e+02, 1.3425307705e+03, -2.1227593811e+02
    5227, -8.8671252120e+02, 1.3527923546e+03, -3.6014716883e+02
    5228, -1.0004460811e+03, 1.2709893347e+03, -3.7867759055e+02
    5229, -1.0149613106e+03, 1.2594283576e+03, -2.3080635983e+02
    5230, -1.4199841137e+03, 7.7456527612e+02, -4.4805285212e+03
    5231, -1.3650650112e+03, 8.6770027389e+02, -4.5808885017e+03
    5232, -1.4570755814e+03, 7.0230833699e+02, -4.5613557070e+03
    5233, -7.4637867961e+02, 1.4350000406e+03, -4.8564694000e+02
    5234, 5.0449881377e+02, 1.5368107225e+03, -1.5629324513e+03
    5235, 7.0295442221e+02, 1.4567639927e+03, -1.5698734009e+03
    5236, 5.9743676592e+02, 1.5031219381e+03, -1.6658030806e+03
    5237, -1.4467285562e+03, -7.2338284111e+02, -7.2823880232e+03
    5238, 4.2341673879e+02, 1.5610972152e+03, -5.8270450182e+02
    5239, 5.7256305854e+02, 1.5127715604e+03, -5.5928282500e+02
    5240, 5.8992222485e+02, 1.5060869891e+03, -6.7579525409e+02
    5241, 1.1255205781e+03, 1.1616839839e+03, -6.0546108945e+03
    5242, 1.2151126461e+03, 1.0676176785e+03, -6.0090839539e+03
    5243, 4.3097448733e+02, -1.5590276589e+03, -5.6960942031e+03
    5244, -2.1820750349e+02, -1.6027138657e+03, -5.0665767095e+02
    5245, 1.2911980414e+03, 9.7422475221e+02, -5.9969379558e+02
    5246, 1.2681339087e+03, 1.0040630655e+03, -4.5775613873e+02
    5247, -1.4049968312e+03, -8.0143006823e+02, -4.4673742280e+03
    5248, -1.0504484723e+02, -1.6140854470e+03, -4.7190230467e+03
    5249, -7.9935672208e+01, -1.6155236112e+03, -4.4715897555e+03
    5250, 8.1178088019e+02, 1.3990418337e+03, -4.1040252916e+03
    5251, 8.1826677187e+02, 1.3952583059e+03, -3.9632818004e+03
    5252, 9.3817854432e+02, 1.3176218232e+03, -3.9645341221e+03
    5253, 1.6174103596e+03, -1.7028759858e+01, -7.0303900010e+02
    5254, 1.6164256540e+03, -5.8943658999e+01, -6.0504489981e+02
    5255, 1.2481786589e+03, 1.0287644461e+03, -2.2146881191e+02
    5256, 1.1917712993e+03, 1.0936120977e+03, -1.2437938982e+02
    5257, 1.2762109972e+03, 9.9377650431e+02, -5.7954947342e+01
    5258, 1.2535952867e+03, 1.0221570854e+03, -3.4426372896e+03
    5259, 1.3381321341e+03, 9.0868511687e+02, -3.3816986573e+03
    5260, 1.6166978524e+03, 5.0934312218e+01, -7.1827217163e+03
    5261, 1.6174726465e+03, 9.4068007997e+00, -6.9801550443e+03
    5262, 1.6158184817e+03, -7.3735230312e+01, -7.0754295740e+03
    5263, 5.7791107462e+02, 1.5107365885e+03, -1.0145907460e+03
    5264, 4.6135818501e+02, 1.5503079936e+03, -1.0770163913e+03
    5265, 3.9799705100e+02, 1.5677705819e+03, -9.6764325463e+02
    5266, 1.2405174222e+03, -1.0379897761e+03, -6.8699246820e+01
    5267, 1.3479342647e+03, -8.9408023575e+02, -9.7279425139e+01
    5268, 1.2515243509e+03, -1.0246916849e+03, 8.6146420351e+01
    5269, 1.5762088775e+03, -3.6314160406e+02, -2.2825566637e+03
    5270, 1.5740879152e+03, -3.7222773283e+02, -2.1349314128e+03
    5271, 1.5390590437e+03, -4.9759773917e+02, -2.1294615167e+03
    5272, 5.6289469093e+02, 1.5163956663e+03, 7.5408389445e+01
    5273, 4.4019576827e+02, 1.5564491433e+03, 1.6244846587e+02
    5274, 6.5965020557e+02, 1.4768777391e+03, 1.8175935282e+02
    5275, -1.2829615436e+03, -9.8504615510e+02, -1.4291791068e+03
    5276, -1.3975165953e+03, -8.1440384079e+02, -1.3290492840e+03
    5277, -1.3693926485e+03, -8.6085424099e+02, -1.4890304160e+03
    5278, 1.1095015703e+03, 1.1769929973e+03, 2.1954860530e+02
    5279, 1.0267759961e+03, 1.2498149078e+03, 9.2166062289e+01
    5280, 8.9485330897e+02, 1.3474211685e+03, 1.7595122233e+02
    5281, 3.3739807773e+02, 1.5819193365e+03, -1.1644048411e+03
    5282, -1.5175908042e+03, -5.5966454323e+02, -4.6911026112e+02
    5283, 1.0091610193e+03, 1.2640808072e+03, 5.9329283984e+02
    5284, 1.3682333771e+03, 8.6269558694e+02, -5.8558861107e+03
    5285, 1.2940991091e+03, 9.7036784042e+02, -5.9432489326e+03
    5286, -1.0168008528e+03, 1.2579436695e+03, -8.5228546098e+01
    5287, -1.0210090557e+03, 1.2545304931e+03, 2.1916155246e+01
    5288, -9.2505961686e+02, 1.3268650856e+03, -8.0748279205e+01
    5289, -1.1080447424e+03, 1.1783645865e+03, 6.6917698507e+01
    5290, -1.2208864719e+02, -1.6128858026e+03, -2.5231816870e+03
    5291, 1.5634622059e+03, 4.1459881885e+02, -4.3774977593e+03
    5292, 1.5464955593e+03, 4.7398073271e+02, -4.2410881686e+03
    5293, 1.5815139130e+03, 3.3929337291e+02, -4.1717513402e+03
    5294, 1.5552252060e+03, 4.4450062830e+02, -4.6761416735e+03
    5295, 1.5883574012e+03, 3.0565833237e+02, -4.6577514939e+03
    5296, 1.5885749826e+03, 3.0452549118e+02, -4.7834907135e+03
    5297, -5.2474005572e+02, -1.5300176875e+03, -4.4216373448e+03
    5298, -5.6036521962e+02, -1.5173322216e+03, -4.6278713285e+03
    5299, 3.6600216116e+02, 1.5755471012e+03, 5.1862594083e+01
    5300, -8.2412431922e+02, -1.3918065083e+03, -2.4290013698e+03
    5301, -9.1129844848e+02, -1.3363537660e+03, -2.5477637077e+03
    5302, -7.9934932762e+02, -1.4061816748e+03, -2.6721439765e+03
    5303, -8.1411841795e+02, -1.3976828866e+03, -5.0184186797e+03
    5304, -8.2461541050e+02, -1.3915156035e+03, -5.1843982796e+03
    5305, -6.6923805215e+02, -1.4725578697e+03, -5.0443766736e+03
    5306, -9.5744144541e+02, -1.3036917307e+03, -5.1577903018e+03
    5307, -6.6310025579e+02, 1.4753319290e+03, -5.1304208561e+03
    5308, -5.4314183179e+02, 1.5235823577e+03, -1.7418186669e+03
    5309, -6.4894768456e+02, 1.4816116741e+03, -1.7362992299e+03
    5310, -6.4225044400e+02, 1.4845270685e+03, -1.6114738290e+03
    5311, 1.6005098919e+03, 2.3382543919e+02, 9.7183465429e+01
    5312, 8.6169277188e+02, 1.3688651566e+03, -1.3836752624e+03
    5313, 8.5461316402e+02, 1.3732962499e+03, -1.2524765768e+03
    5314, -1.4496078452e+03, 7.1759553025e+02, -6.8076558504e+03
    5315, 1.5866646056e+03, -3.1432734402e+02, -3.9451090034e+03
    5316, 1.5661857690e+03, -4.0418855367e+02, -4.0562287790e+03
    5317, 1.5606513460e+03, -4.2505720334e+02, -3.5087619727e+03
    5318, 1.4194032165e+03, -7.7562926639e+02, -1.4151983604e+02
    5319, -1.6172314534e+03, -2.9473309555e+01, -4.9664024604e+03
    5320, -1.6172630465e+03, -2.7685526902e+01, -4.8298747749e+03
    5321, 6.5752045386e+02, -1.4778271559e+03, -5.2948995803e+03
    5322, 5.4900696763e+02, -1.5214787542e+03, -5.1667150263e+03
    5323, 4.4613788779e+02, -1.5547563266e+03, -5.2634657525e+03
    5324, -1.0029191916e+03, 1.2690387485e+03, -4.1035580363e+03
    5325, -9.1158949690e+02, 1.3361552451e+03, -4.1695819418e+03
    5326, -9.6576866870e+02, 1.2975350202e+03, -4.2736222083e+03
    5327, -1.6091254429e+03, -1.6438235661e+02, -4.8238245717e+03
    5328, -1.6089916949e+03, -1.6568637787e+02, -4.7093823463e+03
    5329, -1.6172400784e+03, -2.8996187971e+01, -4.7154325495e+03
    5330, 1.5477949157e+03, 4.6972028797e+02, -3.5685717028e+02
    5331, 1.0690422483e+03, 1.2138595146e+03, -2.9414847370e+03
    5332, 1.1637307749e+03, 1.1234041719e+03, -2.8733273927e+03
    5333, 1.2066167604e+03, 1.0772103989e+03, -2.9887673736e+03
    5334, 1.1155244125e+03, 1.1712862738e+03, -3.0569247179e+03
    5335, -9.2089029259e+01, -1.6148764227e+03, -5.2752137668e+03
    5336, -1.3848536654e+03, 8.3575509299e+02, -6.8346443164e+03
    5337, -1.5705697001e+03, -3.8680365463e+02, -4.6169367546e+03
    5338, -1.5968239962e+03, -2.5779715878e+02, -4.6606522419e+03
    5339, -1.5887131971e+03, -3.0380359972e+02, -4.7940150869e+03
    5340, -1.6136531886e+03, -1.1148828118e+02, -4.6057259298e+03
    5341, -3.7102374868e+02, 1.5743721377e+03, -7.0366624030e+02
    5342, 1.5309586604e+03, 5.2198834291e+02, -5.1773608359e+02
    5343, 1.4435705568e+03, 7.2966451027e+02, -5.4931973276e+02
    5344, 1.1591097618e+03, 1.1281714453e+03, 3.2479864664e+01
    5345, 1.2212406152e+03, 1.0606024749e+03, 1.5446318857e+02
    5346, 1.3305295230e+03, 9.1978119046e+02, 6.4028376565e+01
    5347, -1.5139018838e+03, -5.6956767486e+02, -6.0708858722e+03
    5348, -1.5237264626e+03, -5.4273742931e+02, -6.2917238916e+03
    5349, 1.3383719835e+03, -9.0833181375e+02, -2.2131041550e+03
    5350, 1.6083269423e+03, -1.7201946617e+02, -4.0468206059e+03
    5351, 1.5957316625e+03, -2.6447440553e+02, -4.1994998488e+03
    5352, 1.6138262614e+03, -1.0895433880e+02, -4.3002215863e+03
    5353, 1.6101043357e+03, -1.5450009083e+02, -4.4417145995e+03
    5354, 1.6173440144e+03, 2.2463059032e+01, -4.5081158800e+03
    5355, -1.3954815604e+03, -8.1788597287e+02, -5.0815212855e+03
    5356, 5.7082899064e+02, 1.5134267453e+03, -4.1124212359e+02
    5357, 3.8388132834e+02, 1.5712865352e+03, -4.5878828662e+02
    5358, 3.7186846534e+02, 1.5741728287e+03, -3.4283956377e+02
    5359, 7.6821569662e+02, 1.4234292724e+03, 2.8379279855e+02
    5360, 6.5936058059e+02, 1.4770070666e+03, -4.0803885623e-01
    5361, 4.6084986934e+02, 1.5504591733e+03, -3.2569025581e+01
    5362, 1.5455367785e+03, 4.7709780587e+02, -6.6350805824e+03
    5363, 1.5787690146e+03, 3.5184463689e+02, -6.6737219728e+03
    5364, 1.3315782706e+03, 9.1826224971e+02, -1.9971168557e+03
    5365, 1.4277014144e+03, 7.6024661867e+02, -2.0798602637e+03
    5366, 1.3487348388e+03, 8.9287209862e+02, -2.1242497353e+03
    5367, 1.4783100288e+03, 6.5643408559e+02, -2.0406165020e+03
    5368, 1.4405192576e+03, 7.3567011524e+02, -2.1881449251e+03
    5369, 1.2173942873e+03, -1.0650152108e+03, -1.1162830199e+03
    5370, -9.4203939899e+02, 1.3148642594e+03, -5.1892973780e+03
    5371, -9.2921029066e+02, 1.3239616632e+03, -5.0707628156e+03
    5372, -8.0894467100e+02, 1.4006836792e+03, -5.0844861671e+03
    5373, -9.6765950773e+02, -1.2961255059e+03, -5.7673717886e+03
    5374, -9.7168461779e+02, -1.2931106888e+03, -5.6093165905e+03
    5375, -1.0737709580e+03, -1.2096785440e+03, -5.6042988002e+03
    5376, 1.6166320112e+03, 5.2982925893e+01, -5.9705469434e+03
    5377, 1.6173800812e+03, -1.9695759965e+01, -5.8500422741e+03
    5378, 1.6165369370e+03, -5.5808432888e+01, -6.0464555086e+03
    5379, 1.5463813745e+03, 4.7435313274e+02, -1.9301167516e+03
    5380, 1.4824788091e+03, 6.4696431950e+02, -5.0107405897e+03
    5381, 1.4127648632e+03, 7.8765582032e+02, -5.0064435176e+03
    5382, 1.5553140583e+03, 4.4418963282e+02, -3.1109307517e+03
    5383, 1.5660151242e+03, 4.0484920734e+02, -3.2304953631e+03
    5384, 1.4662290247e+03, -6.8299245762e+02, -5.9144014670e+02
    5385, 1.3491924798e+03, -8.9218042033e+02, -5.0414981818e+02
    5386, 3.5151072206e+02, 1.5788433938e+03, -1.4944254985e+03
    5387, -1.5823874666e+03, -3.3519569737e+02, -6.4274098353e+03
    5388, 1.4341926397e+03, -7.4792895529e+02, -1.6015159090e+03
    5389, 1.5171637966e+03, -5.6082106271e+02, -1.6005746918e+03
    5390, 1.5115811940e+03, -5.7569830986e+02, -1.4125000195e+03
    5391, -1.6173838387e+03, -1.9384743116e+01, -4.3467404160e+03
    5392, -1.6173777402e+03, -1.9887069104e+01, -4.5371785221e+03
    5393, -1.2241434744e+03, -1.0572506818e+03, -2.1964871394e+03
    5394, -1.1900855804e+03, -1.0954462841e+03, -2.4713299437e+03
    5395, 1.5006281815e+03, 6.0367318230e+02, 5.4598184915e+02
    5396, 1.5457957920e+03, 4.7625793388e+02, 5.5761974301e+02
    5397, 1.4658814955e+03, -6.8373802825e+02, -2.9642528539e+03
    5398, -5.4862609772e+02, 1.5216161326e+03, -6.2041078209e+03
    5399, -5.3340612600e+02, 1.5270180597e+03, -6.0236357280e+03
    5400, -3.7583176503e+02, 1.5732313035e+03, -6.0565823824e+03
    5401, -3.9152100891e+02, 1.5694003790e+03, -6.2370544752e+03
    5402, -3.8795745684e+02, -1.5702850893e+03, -1.5634516620e+03
    5403, -4.6445014696e+02, -1.5493844942e+03, -1.7642547185e+03
    5404, -1.2692606354e+03, -1.0026383642e+03, -4.1248982092e+03
    5405, 1.4277902116e+03, 7.6007983896e+02, -5.7702837249e+03
    5406, 1.4752512063e+03, 6.6327982650e+02, -5.6695724666e+03
    5407, 1.5126873016e+03, 5.7278562970e+02, -5.7814909064e+03
    5408, 1.2114799619e+03, 1.0717380986e+03, -1.7361747619e+03
    5409, 1.3011067015e+03, 9.6095140427e+02, -1.5799545931e+03
    5410, 8.9304986853e+02, 1.3486171370e+03, -4.7191311508e+03
    5411, -1.2738411584e+03, 9.9681239614e+02, -2.0938865327e+03
    5412, -1.2710736449e+03, -1.0003389622e+03, -5.7051794022e+03
    5413, -1.1771436495e+03, -1.1093417320e+03, -5.5923725876e+03
    5414, -1.2753234720e+03, -9.9491521838e+02, -5.5878677175e+03
    5415, -1.3331337503e+03, -9.1600254024e+02, -5.7746678781e+03
    5416, 1.4020010898e+03, -8.0665928011e+02, -6.1967870889e+03
    5417, 1.3048684073e+03, -9.5583716695e+02, -6.2789237030e+03
    5418, 1.3457500132e+03, -8.9736455913e+02, -6.4835897052e+03
    5419, -1.6046001233e+03, 2.0387421164e+02, -6.0164876717e+03
    5420, -1.5870241330e+03, 3.1250704178e+02, -5.9326647547e+03
    5421, -1.5987389707e+03, 2.4564192174e+02, -5.8116754240e+03
    5422, -1.6132322792e+03, 1.1742173262e+02, -5.8941135277e+03
    5423, -1.6170338557e+03, 3.8829878008e+01, -5.7668367508e+03
    5424, -1.6087931574e+03, 1.6760318185e+02, -5.6843986471e+03
    5425, -5.6076891914e+02, 1.5171830705e+03, -6.3262282540e+03
    5426, -3.6915317161e+02, 1.5748117938e+03, -8.5207446499e+02
    5427, -4.8060682324e+02, 1.5444492000e+03, -8.6872441881e+02
    5428, -4.8244125165e+02, 1.5438771611e+03, -7.2031619412e+02
    5429, 1.6148076626e+03, 9.3286991621e+01, -6.8617085160e+03
    5430, 1.6174789333e+03, -8.2553211556e+00, -6.7780657523e+03
    5431, 1.6148736643e+03, -9.2137387921e+01, -6.8965122805e+03
    5432, 1.6048762400e+03, 2.0168912786e+02, -6.7688546670e+03
    5433, 1.5268616930e+03, 5.3385355713e+02, 4.3839220337e+02
    5434, 1.3769533722e+03, 8.4870823063e+02, -2.2482605685e+03
    5435, 1.2983559830e+03, 9.6466470411e+02, -2.3125433625e+03
    5436, 1.2664220472e+03, 1.0062213715e+03, -2.1885325292e+03
    5437, -6.6682130833e+02, -1.4736538239e+03, -3.7188955208e+03
    5438, 1.2557289426e+03, 1.0195347334e+03, -2.5034436751e+03
    5439, 1.2151796991e+03, 1.0675413570e+03, -2.3867668487e+03
    5440, 1.3348464386e+03, 9.1350491808e+02, -2.4292201889e+03
    5441, 8.0234212250e+02, -1.4044761901e+03, -6.3204164641e+03
    5442, 8.5706921688e+02, -1.3717647785e+03, -6.1597925045e+03
    5443, 1.2441018345e+02, 1.6127083916e+03, -7.4548369591e+02
    5444, 2.7511927125e+02, 1.5939308757e+03, -6.3114252589e+02
    5445, 1.0761553281e+03, -1.2075578494e+03, -6.2242114628e+03
    5446, 9.5654623809e+02, -1.3043487051e+03, -6.2210162729e+03
    5447, 9.4351095884e+02, -1.3138087077e+03, -6.3783092744e+03
    5448, 1.0640778997e+03, -1.2182136403e+03, -6.3815044643e+03
    5449, 1.1446411354e+03, -1.1428485994e+03, 3.1605385103e+02
    5450, 1.2171481441e+03, -1.0652965058e+03, 3.6203137356e+02
    5451, -1.6116156595e+03, -1.3784489845e+02, -6.4342624556e+03
    5452, -1.6125380732e+03, -1.2659862710e+02, -6.6217061442e+03
    5453, 1.2449261668e+03, -1.0326979661e+03, 2.1844971233e+02
    5454, 1.1455291081e+03, -1.1419585424e+03, 2.1653813911e+02
    5455, 1.1528301414e+03, -1.1345875529e+03, 8.4234847131e+01
    5456, 1.5799876178e+03, 3.4633131212e+02, -6.4142166049e+03
    5457, 1.6140383592e+03, 1.0576589738e+02, -6.4468221045e+03
    5458, 1.5941966827e+03, 2.7357482868e+02, -6.5454105813e+03
    5459, -3.4360693398e+02, 1.5805823373e+03, -6.6333808434e+03
    5460, -3.1502617553e+02, 1.5865260032e+03, -6.4669373634e+03
    5461, -5.3492557244e+02, 1.5264864500e+03, -6.5412637546e+03
    5462, 7.4252818040e+02, -1.4369962252e+03, -6.4788590748e+03
    5463, -6.4584435842e+02, -1.4829670646e+03, -4.9070980155e+03
    5464, -6.0568490640e+02, -1.4998173369e+03, -4.7412049255e+03
    5465, -7.9349613648e+02, -1.4094928632e+03, -4.8526023204e+03
    5466, 6.7718606285e+02, -1.4689197685e+03, 9.0442956926e+01
    5467, 8.0335164611e+02, -1.4038989931e+03, 8.3093092607e+01
    5468, 7.9488799040e+02, -1.4087083917e+03, 2.6298915426e+02
    5469, -1.0974852725e+03, -1.1882055069e+03, -4.9663409663e+03
    5470, -1.1297664049e+03, -1.1575552343e+03, -4.8144199212e+03
    5471, 1.2939073793e+03, 9.7062348205e+02, -2.6153081122e+03
    5472, 1.2115657620e+03, 1.0716411033e+03, -2.6921482600e+03
    5473, 1.6173497577e+03, -2.2045665198e+01, 9.6697263877e+00
    5474, 1.6169912676e+03, 4.0564645023e+01, 1.3905610706e+02
    5475, 1.6111891551e+03, -1.4274367434e+02, 8.8614957617e+01
    5476, -1.6068710941e+03, -1.8512573251e+02, -4.9645443771e+03
    5477, -1.6174631289e+03, -1.0921379750e+01, -7.1305387954e+03
    5478, -1.6169159377e+03, 4.3463784400e+01, -7.2759549024e+03
    5479, -1.6145974108e+03, 9.6857890152e+01, -6.9305557810e+03
    5480, 1.4104611616e+03, -7.9177368078e+02, -2.3828337462e+03
    5481, -1.1583478048e+03, -1.1289537692e+03, -3.5866710948e+03
    5482, -1.2062584178e+03, -1.0776116552e+03, -3.4533154772e+03
    5483, -1.3092032957e+03, -9.4989103608e+02, -3.5349655884e+03
    5484, -3.3254657587e+02, 1.5829463114e+03, -1.2844465987e+03
    5485, -3.6189484898e+02, 1.5764955973e+03, -1.1652028857e+03
    5486, 1.4363108095e+03, -7.4385314984e+02, -7.0234486969e+03
    5487, 1.3790562978e+03, -8.4528692030e+02, -6.9202063376e+03
    5488, -2.7370192156e+02, 1.5941748675e+03, -1.4892153902e+03
    5489, -4.0555310344e+02, 1.5658329829e+03, -1.3804529352e+03
    5490, 1.4863653214e+03, -6.3798462479e+02, -6.8961189038e+03
    5491, -1.6043704294e+03, -2.0567395355e+02, -3.6036360327e+03
    5492, -1.6174914609e+03, -5.2558412970e+00, -3.6114212449e+03
    5493, -1.6170705405e+03, -3.7270859167e+01, -3.7782883198e+03
    5494, -1.5999850752e+03, -2.3738999384e+02, -3.7705031076e+03
    5495, 1.3505336425e+03, -8.9014893717e+02, -6.6594045615e+03
    5496, 1.4233569356e+03, -7.6834971453e+02, -6.7338303680e+03
    5497, -1.5988444013e+03, 2.4495475169e+02, -6.4768768485e+03
    5498, -1.5452760456e+03, 4.7794162065e+02, -6.3113018181e+03
    5499, -9.9206897125e+02, -1.2775388081e+03, -4.0312363042e+03
    5500, -1.0134655328e+03, -1.2606323270e+03, -4.1890893122e+03
    5501, 1.4539283884e+03, 7.0880074178e+02, 4.4604438347e+02
    5502, 1.3911159274e+03, 8.2528948046e+02, 3.7194281028e+02
    5503, 1.3704147976e+03, 8.5922612424e+02, 2.5169756212e+02
    5504, 1.2736010199e+03, 9.9711919660e+02, 2.7496293933e+02
    5505, -8.7373682623e+02, 1.3612090980e+03, -4.9428089663e+03
    5506, -7.1779843491e+02, 1.4495073842e+03, -5.0295674782e+03
    5507, -1.5222883047e+03, 5.4675823474e+02, -5.5941717022e+03
    5508, -1.4958179017e+03, 6.1549577971e+02, -5.6781026004e+03
    5509, -1.5261362120e+03, 5.3592398007e+02, -5.7665568086e+03
    5510, 1.2262499218e+03, 1.0548067972e+03, -3.9426538978e+03
    5511, 1.1377202303e+03, 1.1497386345e+03, -3.8002863348e+03
    5512, -2.0320380899e+02, 1.6046851598e+03, -3.6057744681e+03
    5513, -7.7481648969e+01, 1.6156431673e+03, -3.5348415890e+03
    5514, -1.1374746391e+01, 1.6174600042e+03, -3.6139108679e+03
    5515, -1.3743975475e+02, 1.6116502610e+03, -3.6848437470e+03
    5516, -1.6158814960e+03, 7.2341141993e+01, -1.4030781845e+02
    5517, 1.4982165232e+03, -6.0963390631e+02, -4.7464502370e+03
    5518, 1.4613174415e+03, -6.9343895566e+02, -4.8217929232e+03
    5519, 1.4911304728e+03, -6.2676643423e+02, -4.9077723321e+03
    5520, 1.5242088786e+03, -5.4138114514e+02, -4.8324296459e+03
    5521, 1.4852893831e+03, -6.4048551769e+02, -5.0950778250e+03
    5522, 1.5238918050e+03, -5.4227300938e+02, -5.0117554901e+03
    5523, 1.4470883127e+03, -7.2266289870e+02, -4.9910946670e+03
    5524, 1.0601666656e+03, 1.2216189631e+03, -3.4299123426e+03
    5525, 1.0030783909e+03, 1.2689129173e+03, -3.3175338246e+03
    5526, 1.0828050531e+03, 1.2015987130e+03, -3.2487741159e+03
    5527, 1.1367252431e+03, 1.1507223695e+03, -3.3611526338e+03
    5528, -1.1188139197e+03, 1.1681445386e+03, -8.6417073969e+01
    5529, -1.1171055080e+03, 1.1697784124e+03, -2.3199488771e+02
    5530, 4.0244497800e+02, 1.5666347021e+03, -1.6067688310e+03
    5531, 1.0471743026e+03, -1.2327742008e+03, -5.0966904046e+03
    5532, 1.1145350037e+03, -1.1722277831e+03, -5.1838555311e+03
    5533, 1.1974088677e+03, -1.0874365515e+03, -5.3732297869e+03
    5534, 1.1071068519e+03, 1.1792458050e+03, -8.7061283437e+01
    5535, 1.1548931552e+03, 1.1324875497e+03, -2.2858963473e+02
    5536, -1.6170669921e+03, -3.7424497573e+01, -1.3625925334e+03
    5537, -1.6102615380e+03, -1.5285296577e+02, -1.5049667732e+03
    5538, -1.6082409640e+03, -1.7282144479e+02, -1.2748594544e+03
    5539, -1.6019983252e+03, 2.2340012572e+02, -2.8844738460e+03
    5540, -1.6091558047e+03, 1.6408487478e+02, -2.7389233583e+03
    5541, -1.5929681842e+03, 2.8063965200e+02, -2.6899032657e+03
    5542, -1.5815173025e+03, 3.3927757332e+02, -2.8354537534e+03
    5543, -1.6162852475e+03, 6.2675741409e+01, -4.6468851418e+03
    5544, -3.6672999266e+02, -1.5753778475e+03, -5.0129509127e+03
    5545, -5.4632116428e+02, -1.5224452159e+03, -5.0726089494e+03
    5546, 1.0394704460e+03, 1.2392769835e+03, -3.8158489538e+03
    5547, 2.2105884345e+02, -1.6023230753e+03, -1.3000074143e+02
    5548, 2.1303773381e+02, -1.6034092347e+03, -3.3261210066e+02
    5549, 3.1381706448e+02, -1.5867656097e+03, -3.4016666577e+02
    5550, 1.2504936659e+03, 1.0259492393e+03, -1.1740658003e+03
    5551, 1.3378558149e+03, 9.0909189230e+02, -1.1257030705e+03
    5552, 1.3595720032e+03, 8.7628204256e+02, -1.2477873417e+03
    5553, 1.5900580559e+03, 2.9668439269e+02, -5.1638414831e+03
    5554, 1.5709774786e+03, 3.8514414419e+02, -5.2866438293e+03
    5555, 1.5624228716e+03, 4.1849853082e+02, -5.0750783229e+03
    5556, -1.3116672878e+03, 9.4648569774e+02, -4.6525256216e+03
    5557, -1.2052715436e+03, 1.0787153267e+03, -4.6619148377e+03
    5558, -1.3116861192e+03, 9.4645960008e+02, -4.7692357993e+03
    5559, 1.5641307109e+03, -4.1206961681e+02, -3.1860194766e+03
    5560, 1.5832978994e+03, -3.3086857181e+02, -3.3710897803e+03
    5561, -1.0887705996e+03, -1.1961959837e+03, -5.1505990908e+03
    5562, -9.6694538188e+02, -1.2966583507e+03, -4.9735321774e+03
    5563, 1.1603329771e+03, 1.1269133207e+03, -1.0252175749e+03
    5564, 1.2473547988e+03, 1.0297632038e+03, -1.0195531222e+03
    5565, -1.1315332953e+03, 1.1558281237e+03, -6.7447704061e+03
    5566, 8.8176664763e+02, 1.3560213233e+03, -4.4280110219e+03
    5567, 7.7846878446e+02, 1.4178478768e+03, -4.2347486357e+03
    5568, 1.5312079663e+03, 5.2125657209e+02, -1.7333175870e+03
    5569, 1.5865858160e+03, 3.1472479790e+02, -1.6315539175e+03
    5570, 1.5636824128e+03, 4.1376752150e+02, -1.7620838602e+03
    5571, 1.4646536313e+03, 6.8636432773e+02, -1.6596369082e+03
    5572, 1.1983004609e+03, 1.0864539821e+03, -1.8965667938e+03
    5573, 1.2160803826e+03, 1.0665152381e+03, -2.0418708976e+03
    5574, -1.5638161595e+03, 4.1326174431e+02, -6.3883114686e+02
    5575, 1.5873050975e+03, 3.1107680300e+02, -2.1058278402e+03
    5576, 1.5961829525e+03, 2.6173695248e+02, -2.2503802016e+03
    5577, -8.8541525350e+02, -1.3536417838e+03, -2.7784581416e+03
    5578, -7.7984520657e+02, -1.4170912828e+03, -2.8931026581e+03
    5579, -6.9003088122e+02, -1.4629298114e+03, -2.7867884930e+03
    5580, -1.2129346504e+03, 1.0700914839e+03, -4.0110936869e+02
    5581, 5.1936307543e+02, 1.5318512480e+03, -4.7680118663e+03
    5582, 3.9631033305e+02, 1.5681978096e+03, -4.7018890744e+03
    5583, 2.2941465826e+02, 1.6011480770e+03, -4.6845454766e+03
    5584, 3.1146715485e+02, 1.5872285473e+03, -4.6093985484e+03
    5585, 3.1512438956e+02, 1.5865064983e+03, -4.7770360026e+03
    5586, 1.4455653210e+03, 7.2570459051e+02, -4.3660100073e+03
    5587, 1.3830677255e+03, 8.3870728895e+02, -4.4147506036e+03
    5588, -1.1330861190e+03, -1.1543058940e+03, -4.2034181961e+03
    5589, 1.0286914187e+03, -1.2482388453e+03, 6.5832619143e+02
    5590, -1.4597281963e+03, -6.9677818785e+02, -2.6339775693e+03
    5591, -1.4791787858e+03, -6.5447411688e+02, -2.8196809485e+03
    5592, -1.3907859720e+03, -8.2584540326e+02, -2.6933122011e+03
    5593, 1.5283258338e+03, 5.2964742583e+02, -6.3155883682e+03
    5594, 1.5681912385e+03, 3.9633633389e+02, -6.2660432471e+03
    5595, 1.5443762271e+03, 4.8084126186e+02, -6.4637617260e+03
    5596, 7.7145899518e+02, -1.4216741078e+03, -5.4231107300e+03
    5597, 7.6066010744e+02, -1.4274811561e+03, -5.1894893942e+03
    5598, 1.6107653018e+03, -1.4744962679e+02, -2.2937150963e+03
    5599, 1.6014760751e+03, -2.2711369571e+02, -2.1899244969e+03
    5600, 1.6059564719e+03, -1.9289909338e+02, -2.0771696952e+03
    5601, 1.5816701382e+03, -3.3856435713e+02, -2.0221766110e+03
    5602, 6.6306278696e+02, 1.4753487691e+03, -4.8079401619e+03
    5603, 7.9078357444e+02, 1.4110165089e+03, -4.7337046729e+03
    5604, 8.7098629503e+02, 1.3629706981e+03, -4.5826924773e+03
    5605, 9.6942720813e+02, 1.2948038995e+03, -2.7375085812e+01
    5606, 8.5866750076e+02, 1.3707648862e+03, -1.2020619123e+01
    5607, 1.5817674198e+03, -3.3810956776e+02, -4.6676020981e+03
    5608, 1.6007816298e+03, -2.3195780613e+02, -4.7826109114e+03
    5609, 1.6108805489e+03, -1.4618518061e+02, -4.7095095330e+03
    5610, 1.5975593105e+03, -2.5320051262e+02, -4.5945007197e+03
    5611, 1.1665018434e+03, 1.1205265277e+03, -2.2719379812e+03
    5612, 1.1107288843e+03, 1.1758348505e+03, -2.1252763496e+03
    5613, 8.6470065903e+02, -1.3669670882e+03, -5.0918582290e+03
    5614, 6.3466611225e+02, -1.4877853259e+03, -5.0586914540e+03
    5615, -1.5582066012e+03, -4.3393367919e+02, -7.1806273131e+03
    5616, -1.5392670434e+03, -4.9695394055e+02, -7.0796924716e+03
    5617, 1.0704668724e+03, 1.2126033668e+03, -2.3617377296e+03
    5618, 1.0234294044e+03, -1.2525567868e+03, -6.0717268677e+03
    5619, -1.5368078343e+03, -5.0450761193e+02, -7.2837145981e+03
    5620, 1.1691140063e+03, -1.1178008277e+03, -6.1681491338e+03
    5621, 1.1201483548e+03, -1.1668649936e+03, -6.0156645387e+03
    5622, 1.6068733983e+03, -1.8510573153e+02, -6.5126427575e+03
    5623, 1.5795280430e+03, -3.4842131312e+02, -6.5227219329e+03
    5624, 1.6078137377e+03, -1.7675190178e+02, -6.6497730834e+03
    5625, 1.4100037603e+03, -7.9258794211e+02, -4.3821938724e+03
    5626, 1.4498503591e+03, -7.1710542204e+02, -4.2984981170e+03
    5627, 1.4809789098e+03, -6.5039043564e+02, -4.4379962796e+03
    5628, 1.5227390786e+03, -5.4550155678e+02, -4.3889406334e+03
    5629, -5.2215318002e+02, -1.5309024484e+03, -4.9353302914e+03
    5630, -1.5997872064e+03, 2.3871980256e+02, -6.7703039494e+03
    5631, -1.5981663057e+03, 2.4934054886e+02, -6.6251250406e+03
    5632, 1.5366402685e+03, 5.0501775744e+02, -6.1687054927e+03
    5633, -1.6153900360e+03, 8.2591050890e+01, -6.7881463746e+03
    5634, -9.9096319463e+02, 1.2783967291e+03, -5.7784630218e+03
    5635, -1.1504392533e+03, 1.1370117741e+03, -5.8488576789e+03
    5636, -1.0992487691e+03, 1.1865742259e+03, -5.6919501408e+03
    5637, 1.6107619334e+03, -1.4748641978e+02, -4.9174856725e+03
    5638, 1.6156595615e+03, -7.7139037985e+01, -5.0920959114e+03
    5639, 1.6159429855e+03, 7.0954335246e+01, -5.0409660205e+03
    5640, 1.6174999363e+03, 4.5386154875e-01, -4.8663557816e+03
    5641, 1.5617428394e+03, 4.2102916015e+02, -6.0492753054e+03
    5642, 1.6173512133e+03, 2.1938617183e+01, -1.1693310853e+02
    5643, 1.6096895685e+03, 1.5876316663e+02, 6.5330857579e+00
    5644, 9.8644069338e+02, 1.2818896241e+03, -5.8910147664e+02
    5645, 8.4792926750e+02, 1.3774331952e+03, -5.4299999269e+02
    5646, 7.2364801981e+02, -1.4465959330e+03, -4.9242339447e+02
    5647, 1.1578698739e+03, -1.1294439362e+03, -2.6957724125e+01
    5648, 1.1212798034e+02, -1.6136088640e+03, 4.2930046498e+02
    5649, -1.4669062806e+03, 6.8153665627e+02, -1.4312572992e+02
    5650, -1.1119491783e+03, 1.1746809247e+03, -3.9811752971e+02
    5651, 1.2628060641e+03, 1.0107557046e+03, -5.2274614427e+03
    5652, 1.3463213252e+03, 8.9650718869e+02, -5.1720965317e+03
    5653, -5.8177168733e+02, -1.5092541051e+03, -2.9230174234e+03
    5654, -6.8229912514e+02, -1.4665517904e+03, -2.9743389783e+03
    5655, -5.9301441947e+02, -1.5048721369e+03, -3.1151359849e+03
    5656, -7.5315227279e+02, -1.4314565673e+03, -3.0688124151e+03
    5657, 1.2522402770e+03, 1.0238166528e+03, -3.2645907160e+02
    5658, 1.6133281286e+03, 1.1609737063e+02, 2.2970648673e+02
    5659, 1.4219686407e+03, 7.7091597129e+02, -6.6498349648e+03
    5660, 1.3377777183e+03, 9.0920681176e+02, -6.6622384849e+03
    5661, 1.3193742817e+03, 9.3571243165e+02, -6.4928827458e+03
    5662, 1.0934077834e+03, 1.1919587532e+03, -6.4979170796e+03
    5663, 9.7468126808e+02, 1.2908534679e+03, -6.4874177287e+03
    5664, 1.2177637237e+03, 1.0645927687e+03, -6.5072442787e+03
    5665, 9.4154619370e+02, -1.3152174783e+03, 7.6098527006e+02
    5666, 1.3957348577e+03, 8.1745364211e+02, -6.8840835055e+02
    5667, 1.3080020642e+03, 9.5154445516e+02, -7.1261312489e+02
    5668, 1.3812574172e+03, 8.4168533153e+02, -5.7548902125e+02
    5669, 1.4314988213e+03, -7.5307195852e+02, -1.7707015842e+03
    5670, 1.3504894316e+03, -8.9021601035e+02, -1.5932846423e+03
    5671, 7.9246523689e+02, 1.4100727280e+03, -1.6654097106e+03
    5672, 8.0056473204e+02, 1.4054900782e+03, -1.4649697884e+03
    5673, 7.1271697218e+02, 1.4520126610e+03, -1.7667944798e+03
    5674, 8.8574308995e+02, 1.3534272897e+03, -1.7556379782e+03
    5675, 1.5993879236e+03, 2.4138044607e+02, -1.7886785066e+03
    5676, 1.5887736224e+03, 3.0348744103e+02, -1.9567113979e+03
    5677, 7.9161580037e+02, 1.4105497774e+03, 7.3917776593e+01
    5678, 1.6128310022e+03, 1.2281045698e+02, -1.9453404360e+03
    5679, 1.6122256669e+03, 1.3051685364e+02, -2.0944568783e+03
    5680, 1.6091124939e+03, -1.6450906322e+02, -6.7783273397e+03
    5681, 1.6057648509e+03, -1.9448777251e+02, -6.9560405704e+03
    5682, 8.5316132948e+02, -1.3741986741e+03, -3.6405562466e+03
    5683, 7.9643617783e+02, -1.4078336779e+03, -3.7777034394e+03
    5684, 9.1004637973e+02, -1.3372067292e+03, -3.8360831771e+03
    5685, 1.5192378723e+03, -5.5517793320e+02, -2.9433372699e+03
    5686, 2.8872505090e+02, 1.5915225713e+03, -4.1987305658e+03
    5687, 1.3613849051e+03, 8.7346287286e+02, -3.1583258596e+03
    5688, 1.4045686412e+03, 8.0218026782e+02, -3.3024154604e+03
    5689, 1.2895506662e+03, 9.7640428572e+02, -3.2376090564e+03
    5690, 9.3341631108e+02, 1.3209997124e+03, -5.3980344222e+03
    5691, 9.0988991446e+02, 1.3373131995e+03, -5.6247538059e+03
    5692, 1.5712270260e+03, -3.8412482709e+02, 1.0601956627e+02
    5693, 1.6000795382e+03, -2.3675244724e+02, -1.5496141983e+01
    5694, 1.6004375919e+03, -2.3431979110e+02, -6.3712334192e+03
    5695, 1.5820070602e+03, -3.3698651546e+02, -6.2696191581e+03
    5696, -8.4600517128e+02, -1.3786157914e+03, -5.6570537435e+03
    5697, 1.6170732336e+03, -3.7153832341e+01, -6.4557903249e+03
    5698, 1.6151720039e+03, -8.6750491394e+01, -6.3143809866e+03
    5699, -1.0999916767e+03, -1.1858855599e+03, -4.6288155456e+03
    5700, -6.0261923481e+02, -1.5010517339e+03, -4.2291164416e+03
    5701, 1.5573012026e+03, -4.3717183639e+02, -6.0999874579e+03
    5702, 1.6060719105e+03, -1.9193558339e+02, -6.1568976236e+03
    5703, 6.5789285840e+02, 1.4776614081e+03, -2.7542129185e+03
    5704, 6.0596598188e+02, 1.4997037970e+03, -2.8939327993e+03
    5705, 5.0959559047e+02, 1.5351281980e+03, -2.8574792671e+03
    5706, 5.6281634172e+02, 1.5164247477e+03, -2.7177593863e+03
    5707, 7.5312645877e+02, 1.4314701489e+03, -2.6641426904e+03
    5708, 7.5070942864e+02, 1.4327391960e+03, -2.8984297764e+03
    5709, 2.0998632436e+02, -1.6038117076e+03, -7.3970379492e+02
    5710, 1.4612970586e+03, -6.9348190786e+02, -5.6385064478e+03
    5711, 1.4228804181e+03, -7.6923180246e+02, -5.7442567250e+03
    5712, 1.1292842505e+02, -1.6135530425e+03, -6.4465128394e+02
    5713, -1.4398464109e+03, 7.3698613495e+02, -2.9243868405e+02
    5714, -1.6044671879e+03, -2.0491777143e+02, -9.0796779974e+02
    5715, -1.5980553204e+03, -2.5005088066e+02, -1.0818292027e+03
    5716, -1.3431952917e+03, 9.0118403138e+02, -5.9552616065e+03
    5717, -1.2872455573e+03, 9.7944123115e+02, -6.0157752993e+03
    5718, -1.2398405953e+03, 1.0387981268e+03, -5.7248305135e+03
    5719, -1.2114159649e+03, 1.0718104356e+03, -5.9657270974e+03
    5720, -1.2952627074e+03, 9.6881410432e+02, -5.8416999320e+03
    5721, -6.4673350941e+02, 1.4825795148e+03, -4.6299842490e+03
    5722, -9.9363566318e+01, -1.6144451467e+03, -3.2349432487e+03
    5723, 1.0178228817e+03, 1.2571168726e+03, -1.7314268077e+03
    5724, 1.1025621435e+03, 1.1834960793e+03, -1.7326564111e+03
    5725, -7.9532873253e+02, 1.4084596044e+03, -4.6512836067e+03
    5726, 7.6589367708e+02, 1.4246800081e+03, -1.3059857314e+03
    5727, -1.1807397729e+03, -1.1055133824e+03, -4.6793818315e+03
    5728, -1.2991976146e+03, -9.6353090672e+02, -4.5780914215e+03
    5729, -1.1618966076e+03, -1.1253010811e+03, -2.7173364660e+03
    5730, -1.2239262101e+03, -1.0575021901e+03, -2.8580249942e+03
    5731, -1.1328813678e+03, -1.1545068456e+03, -2.9456241789e+03
    5732, -1.0654899006e+03, -1.2169788502e+03, -2.8049356507e+03
    5733, -6.7214274198e+02, 1.4712343064e+03, -5.9237378962e+03
    5734, 6.3122975949e+02, 1.4892465346e+03, -4.9389803966e+03
    5735, 7.4830975426e+02, 1.4339939894e+03, -5.0920150021e+03
    5736, 7.9727828984e+02, -1.4073569478e+03, -3.4921390689e+03
    5737, -7.1449133510e+02, -1.4511403730e+03, -3.5719176259e+03
    5738, -8.2009882953e+02, -1.3941822549e+03, -3.6258013500e+03
    5739, -1.2644134338e+03, 1.0087442284e+03, -4.5477279228e+03
    5740, 9.9958995731e+02, 1.2716627569e+03, -5.9723576289e+03
    5741, 8.6670321129e+02, 1.3656982806e+03, -6.0854966828e+03
    5742, 5.1118195148e+02, 1.5346006850e+03, -1.7758651737e+03
    5743, -1.5672994505e+03, 3.9984832421e+02, -3.7716969746e+03
    5744, -1.5426344710e+03, 4.8640018393e+02, -3.6379619711e+03
    5745, -1.4996011271e+03, 6.0622001757e+02, -3.7038801661e+03
    5746, -1.5309969131e+03, 5.2187613662e+02, -3.8376151696e+03
    5747, 3.2429138035e+02, -1.5846581179e+03, -5.7636831540e+03
    5748, -1.5984428843e+03, -2.4756129647e+02, -3.2557285063e+02
    5749, -1.5605253054e+03, -4.2551970717e+02, -4.9119379637e+02
    5750, -1.3215547533e+03, 9.3263030409e+02, -4.4760908029e+03
    5751, 1.4234673361e+03, 7.6814516398e+02, -5.1407357277e+03
    5752, -6.0917566450e+02, 1.4984029030e+03, -6.0598005501e+02
    5753, -6.0003543585e+02, 1.5020864575e+03, -7.5152726229e+02
    5754, -1.2083390470e+02, -1.6129802905e+03, -2.7813092817e+03
    5755, 8.8557135465e+02, 1.3535396654e+03, -5.2490658723e+03
    5756, -4.4459844260e+02, -1.5551972463e+03, -4.8428809448e+03
    5757, -3.9768811419e+02, -1.5678489767e+03, -4.7295473478e+03
    5758, 1.3183183101e+03, 9.3719959621e+02, -4.5828023352e+03
    5759, 1.3045978035e+03, 9.5620647410e+02, -4.4452841507e+03
    5760, 1.3950771727e+03, 8.1857555063e+02, -4.5522687881e+03
    5761, 2.9377845638e+02, 1.5905975194e+03, -5.1273611303e+03
    5762, -4.5257952978e+02, 1.5528934346e+03, -6.4012619546e+03
    5763, -1.6082920105e+03, -1.7234575419e+02, -5.1264222562e+03
    5764, 1.4367387389e+03, 7.4302627550e+02, -3.3872038398e+03
    5765, -2.8713748834e+02, -1.5918097602e+03, -4.9205015661e+03
    5766, 5.1670154398e+02, -1.5327510445e+03, -4.9307486354e+03
    5767, -1.6716917948e+02, -1.6088383124e+03, -4.8149929154e+03
    5768, -1.2108578712e+02, -1.6129614013e+03, -5.0405477132e+03
    5769, 1.2030502219e+03, -1.0811921261e+03, -6.3330258313e+03
    5770, 1.0896750837e+03, -1.1953721019e+03, -6.5491238482e+03
    5771, 1.2257101223e+03, -1.0554340085e+03, -6.5006452153e+03
    5772, 1.4411578447e+03, 7.3441835262e+02, -5.5550903159e+03
    5773, 1.3809992099e+03, 8.4210891942e+02, -5.6339247253e+03
    5774, 1.2747518928e+03, -9.9564745863e+02, -6.1140470055e+03
    5775, 1.1936485440e+03, -1.0915628261e+03, -4.6122227802e+03
    5776, 1.0894194637e+03, -1.1956050694e+03, -4.6866934382e+03
    5777, 1.2378054163e+03, -1.0412223593e+03, -4.7138193590e+03
    5778, 1.2429810490e+03, -1.0350383383e+03, -4.5162794718e+03
    5779, 1.1078409986e+03, -1.1785561386e+03, -4.5421597219e+03
    5780, 1.6053671696e+03, -1.9774352289e+02, -3.5398063102e+02
    5781, 1.5938125416e+03, -2.7580397428e+02, -2.2476603692e+02
    5782, 1.6163161593e+03, -6.1873446163e+01, -3.1201487264e+02
    5783, 1.6122163365e+03, -1.3063205656e+02, -4.8558484154e+02
    5784, -9.6955754456e+02, 1.2947063056e+03, -5.3489837073e+03
    5785, -1.0813617422e+03, 1.2028977648e+03, -5.3136165659e+03
    5786, -1.3496154439e+02, -1.6118596811e+03, -4.2147031632e+03
    5787, 7.5333167643e+02, 1.4313621608e+03, -5.2520128018e+03
    5788, -4.3332993516e+02, 1.5583746075e+03, -3.9052124204e+03
    5789, -5.9969019182e+02, 1.5022243254e+03, -3.8150399790e+03
    5790, -5.4100322395e+02, 1.5243430590e+03, -3.6794581218e+03
    5791, -3.7259126444e+02, 1.5740019059e+03, -3.7696305632e+03
    5792, -1.2782689656e+03, 9.9112799461e+02, -2.4000249910e+03
    5793, -1.2410573255e+03, 1.0373441882e+03, -2.2889775773e+03
    5794, -1.1680105760e+03, 1.1189537722e+03, -2.3485414815e+03
    5795, -1.2082645573e+03, 1.0753618040e+03, -2.4595888952e+03
    5796, -1.1934806670e+03, 1.0917463751e+03, -2.1719201380e+03
    5797, -1.3170969301e+03, 9.3891529263e+02, -2.2109439720e+03
    5798, 2.3330452329e+02, -1.6005859082e+03, -5.1321540192e+02
    5799, 1.2098768322e+02, -1.6129687630e+03, -4.1946255548e+02
    5800, -1.4874168997e+03, -6.3552908386e+02, -1.2288653599e+03
    5801, -1.4837171277e+03, -6.4411934844e+02, -1.0836511169e+03
    5802, -1.5296362589e+03, -5.2585089656e+02, -1.2406170232e+03
    5803, -1.4737412852e+03, -6.6662798789e+02, -1.3779625720e+03
    5804, -1.4143126464e+03, -7.8487323070e+02, -1.1799520719e+03
    5805, 1.5634341940e+03, -4.1470443823e+02, -3.0084351508e+03
    5806, 1.5794891310e+03, -3.4859766938e+02, -5.1727080062e+03
    5807, 1.5465390045e+03, -4.7383895736e+02, -5.0985095728e+03
    5808, 1.5280258088e+03, -5.3051237273e+02, -5.1993239647e+03
    5809, 1.5468442432e+03, 4.7284155626e+02, -1.3373019020e+03
    5810, 1.5048731045e+03, 5.9301196389e+02, -1.3702297182e+03
    5811, 1.4929964264e+03, 6.2230854134e+02, -1.2574465024e+03
    5812, 8.4211169532e+02, 1.3809975172e+03, -6.4602383177e+03
    5813, 7.2783157059e+02, 1.4444955711e+03, -5.4773357209e+02
    5814, 1.4833699861e+03, 6.4491839364e+02, -6.6413639449e+03
    5815, -8.5941257780e+02, 1.3702978768e+03, -5.4617129669e+03
    5816, 1.5504233028e+03, -4.6097053268e+02, -1.3560140352e+03
    5817, 1.5201946342e+03, -5.5255273439e+02, -1.1896447819e+03
    5818, 9.3015253019e+02, 1.3232998604e+03, -3.8264903972e+03
    5819, 1.5432579681e+03, -4.8441830461e+02, -1.0901991151e+03
    5820, 1.4969572318e+03, -6.1271959004e+02, -9.6752944240e+02
    5821, 7.0591841652e+02, 1.4553300104e+03, -3.8567065222e+03
    5822, 5.1119903684e+02, 1.5345949937e+03, -3.8211753989e+03
    5823, 6.1219971661e+02, 1.4971699159e+03, -3.7463609946e+03
    5824, -9.3854054197e+02, 1.3173639972e+03, -8.6044638540e+02
    5825, -1.0488954006e+03, 1.2313101512e+03, -8.9793075026e+02
    5826, 1.3643489373e+03, 8.6882577498e+02, -6.8016427889e+03
    5827, 1.4230829068e+03, 7.6885713253e+02, -6.8182634720e+03
    5828, 1.2201672694e+03, 1.0618371272e+03, -6.6783038506e+03
    5829, 8.4909822464e+02, 1.3767129167e+03, -6.7568031344e+02
    5830, 7.2905749829e+02, 1.4438772158e+03, -6.8041389285e+02
    5831, 1.2313414956e+03, -1.0488586040e+03, -6.6764600715e+03
    5832, 1.1433191059e+03, -1.1441711726e+03, -6.6977394632e+03
    5833, 9.1536581829e+02, 1.3335710212e+03, -7.8519443600e+02
    5834, 1.4650446578e+03, -6.8552928498e+02, -6.0999292165e+03
    5835, 1.4233973621e+03, -7.6827482039e+02, -5.9535013676e+03
    5836, 1.3535228241e+03, -8.8559709504e+02, -6.0503592399e+03
    5837, 1.6173692450e+03, -2.0566366285e+01, -6.6495114959e+03
    5838, -1.6152236860e+03, 8.5782831974e+01, -1.2774919734e+03
    5839, 1.6128686740e+03, 1.2231471877e+02, -6.6405432755e+03
    5840, 1.0880258646e+03, 1.1968734135e+03, -1.8930484431e+03
    5841, -1.4186393503e+03, 7.7702551043e+02, -4.0690523902e+03
    5842, -1.3051277783e+03, 9.5548298376e+02, -3.9867395629e+03
    5843, 1.0311616196e+03, 1.2461990067e+03, -2.0181442660e+03
    5844, 9.7072682928e+02, 1.2938298470e+03, -1.8188350008e+03
    5845, 1.6151698408e+03, -8.6790755581e+01, -7.7092293206e+02
    5846, 1.6174984711e+03, 2.2239408914e+00, -8.5503618176e+02
    5847, 1.2325790990e+03, -1.0474039406e+03, -5.9700476188e+03
    5848, 1.2027945995e+03, -1.0814764913e+03, -5.8165258192e+03
    5849, 1.0870658308e+03, -1.1977454360e+03, -5.8621427391e+03
    5850, 1.3158243289e+03, -9.4069792465e+02, -5.9063598532e+03
    5851, -1.4052455639e+03, 8.0099385465e+02, -5.2351817258e+03
    5852, -1.4037173745e+03, 8.0366895091e+02, -5.3808183864e+03
    5853, 3.7423138346e+02, 1.5736127610e+03, -3.3231455237e+03
    5854, 5.0953263116e+02, 1.5351490963e+03, -3.3138744283e+03
    5855, -1.0847270217e+03, -1.1998639666e+03, -1.2747057182e+03
    5856, -1.6168841552e+03, 4.4630467678e+01, -2.9304897665e+03
    5857, -1.5977792183e+03, 2.5180909358e+02, -3.0452868633e+03
    5858, -1.6158368356e+03, 7.3331921294e+01, -3.0913027838e+03
    5859, 1.5317423392e+03, 5.1968418910e+02, -2.6683126852e+03
    5860, 1.5099221104e+03, 5.8003574929e+02, -2.5468877472e+03
    5861, 1.4924158942e+03, -6.2369948590e+02, -1.9538709090e+03
    5862, 1.4993041640e+03, -6.0695409525e+02, -1.7919118997e+03
    5863, 1.5876226716e+03, -3.0945193920e+02, -1.8841793074e+03
    5864, 1.5531351474e+03, -4.5174933733e+02, -1.8421391719e+03
    5865, 1.5445744297e+03, -4.8020420763e+02, -1.9801364755e+03
    5866, 2.2838075578e+02, -1.6012958753e+03, -5.6133491767e+03
    5867, 3.3641244398e+02, -1.5821292354e+03, -5.5457602259e+03
    5868, 1.5662233962e+03, -4.0404272448e+02, -1.6508019640e+03
    5869, -1.2851230100e+03, 9.8222456663e+02, -8.4346113004e+02
    5870, -1.3368444834e+03, 9.1057842997e+02, -9.6376706858e+02
    5871, -1.3909756579e+03, 8.2552587435e+02, -8.7722196111e+02
    5872, -1.6016051648e+03, 2.2620156043e+02, -3.2050598661e+03
    5873, -1.5647418306e+03, 4.0974291143e+02, -3.0704591732e+03
    5874, -1.5711000189e+03, 3.8464396597e+02, -3.2302321760e+03
    5875, -1.1763588723e+03, 1.1101738844e+03, -1.2832658462e+03
    5876, -1.1161614370e+03, 1.1706792458e+03, -1.0935290195e+03
    5877, 8.7235371573e+02, 1.3620959014e+03, -2.5637981029e+03
    5878, 6.9488033843e+02, 1.4606325908e+03, -2.5452267666e+03
    5879, 4.4670026967e+02, 1.5545948408e+03, -2.5746970134e+03
    5880, 5.8082111293e+02, 1.5096201790e+03, -2.5859217887e+03
    5881, 1.1560332832e+02, -1.6133636045e+03, -5.5435993568e+03
    5882, 1.3897533544e+03, -8.2758193791e+02, -4.5068420008e+03
    5883, 1.4642604123e+03, -6.8720280480e+02, -4.5626444080e+03
    5884, 1.5178624312e+03, -5.5892744616e+02, -4.6235645844e+03
    5885, 1.4403328725e+03, -7.3603496267e+02, -4.6855300607e+03
    5886, 1.6112815570e+03, 1.4169683824e+02, -1.4640299746e+03
    5887, 1.6147912862e+03, -9.3570037172e+01, -1.3764421500e+03
    5888, 1.6174577697e+03, -1.1688160961e+01, -1.5242938539e+03
    5889, 1.3615774723e+03, 8.7316266350e+02, -8.1776741245e+02
    5890, -1.4799333427e+03, 6.5276607684e+02, -2.1131420599e+03
    5891, -1.4331704986e+03, 7.4988570587e+02, -2.2363590332e+03
    5892, -1.5121425389e+03, 5.7422224958e+02, -2.1908141436e+03
    5893, 1.4325196107e+03, 7.5112836115e+02, -2.4860190675e+03
    5894, 1.4870288545e+03, 6.3643651371e+02, -2.4250722374e+03
    5895, -1.4660631638e+03, 6.8334841018e+02, -4.3831882997e+03
    5896, -1.4252627592e+03, 7.6480868016e+02, -4.2823932860e+03
    5897, -1.3741209892e+03, 8.5328644492e+02, -4.3797335075e+03
    5898, 1.2772119983e+03, -9.9248967829e+02, -5.8078477084e+03
    5899, 1.3713622472e+03, -8.5771314369e+02, -5.8408052718e+03
    5900, 2.9771744087e+02, 1.5898649551e+03, -1.7215616183e+03
    5901, 3.5688128322e+02, 1.5776381080e+03, -1.8198616160e+03
    5902, 2.1271273528e+02, 1.6034523823e+03, -1.7696929148e+03
    5903, -1.3177652702e+03, 9.3797704802e+02, -5.3113732973e+03
    5904, -1.5117130013e+03, -5.7535211101e+02, -2.4944523743e+03
    5905, 1.6173318968e+03, 2.3319213594e+01, -3.4894864004e+03
    5906, 1.6064828162e+03, -1.8846541158e+02, -3.4651007338e+03
    5907, 1.6162977749e+03, -6.2351848318e+01, -3.5830559195e+03
    5908, -6.6125462913e+02, -1.4761600745e+03, -2.1767827937e+03
    5909, -7.3671248515e+02, -1.4399864458e+03, -2.3085625252e+03
    5910, -1.5935952164e+03, 2.7705691877e+02, -2.5689624725e+03
    5911, -1.6123528508e+03, 1.2893616461e+02, -2.5808495055e+03
    5912, -1.6136746981e+03, 1.1117651986e+02, -2.4269883160e+03
    5913, -1.5965489941e+03, 2.5949481583e+02, -2.4151012830e+03
    5914, -9.4498899653e+02, -1.3127459946e+03, -2.0591714802e+03
    5915, -8.4990535899e+02, -1.3762147837e+03, -2.1816082939e+03
    5916, -7.6844869664e+02, -1.4233034991e+03, -2.0735819738e+03
    5917, -1.6157854865e+03, -7.4454761982e+01, -2.2658897449e+03
    5918, 1.2937435479e+03, -9.7084184203e+02, -4.8321127220e+03
    5919, 1.3837371334e+03, -8.3760240898e+02, -4.7353957596e+03
    5920, 1.3350627489e+03, -9.1318875739e+02, -4.6171023966e+03
    5921, 1.4077274523e+03, -7.9662392012e+02, -4.8716586222e+03
    5922, 1.5923194586e+03, -2.8429736507e+02, -3.6027729262e+03
    5923, -1.1907178004e+03, 1.0947590465e+03, -5.5989509337e+03
    5924, -1.1259996426e+03, 1.1612196411e+03, -5.4570313959e+03
    5925, -1.3165834622e+03, 9.3963516163e+02, -5.6367529906e+03
    5926, -1.2719431636e+03, 9.9923312519e+02, -5.5108734108e+03
    5927, -1.5658569204e+03, 4.0546066986e+02, -2.2548588476e+03
    5928, -1.5655194066e+03, 4.0676189292e+02, -2.4256514140e+03
    5929, -2.3182328889e+01, 1.6173338646e+03, -1.8789169336e+03
    5930, 9.6342095012e+01, 1.6146282701e+03, -1.8137540435e+03
    5931, 1.9869356315e+02, 1.6052498615e+03, -4.5725724940e+03
    5932, -1.4052940441e+03, -8.0090879599e+02, -1.8389280981e+03
    5933, -1.3141248317e+03, -9.4307061071e+02, -1.9872689302e+03
    5934, -1.4457454839e+03, -7.2534560438e+02, -1.5358771466e+03
    5935, -1.4238760834e+03, -7.6738722239e+02, -1.6958924966e+03
    5936, -1.3732363946e+03, -8.5470933929e+02, -1.0092901037e+03
    5937, -1.4332231388e+03, -7.4978509206e+02, -1.0669227447e+03
    5938, -1.3202859186e+03, -9.3442567560e+02, -8.9195543702e+02
    5939, 1.2554248097e+03, -1.0199092103e+03, -1.5975453438e+03
    5940, 1.1522593736e+03, -1.1351672062e+03, -1.5966209297e+03
    5941, -1.6131423531e+01, 1.6174195582e+03, -3.1784339629e+03
    5942, -1.5071926141e+02, 1.6104626522e+03, -3.1714963254e+03
    5943, -1.4717340415e+02, 1.6107905634e+03, -3.0571625858e+03
    5944, -1.2570576545e+01, 1.6174511525e+03, -3.0641002233e+03
    5945, 9.9576781069e+01, 1.6144320099e+03, -4.5941327057e+03
    5946, 1.2505340089e+03, -1.0259000646e+03, -1.4313152040e+03
    5947, 6.1945749840e+01, 1.6163133898e+03, -3.2586102931e+03
    5948, -3.2350244347e+01, 1.6171764628e+03, -3.3597021124e+03
    5949, -1.1035919272e+02, 1.6137308012e+03, -3.2795257822e+03
    5950, -5.3925981705e+00, 1.6174910108e+03, -7.7964219155e+02
    5951, -7.2564245964e+01, 1.6158714925e+03, -8.4208101544e+02
    5952, 1.5954274202e+03, 2.6630358009e+02, -1.4541234823e+03
    5953, 1.6062240566e+03, 1.9065814939e+02, -1.6414604098e+03
    5954, -1.5697832244e+03, -3.8998317701e+02, -2.0433593371e+03
    5955, -1.5108441276e+03, -5.7762987478e+02, -2.0210747641e+03
    5956, -1.5523106799e+03, -4.5457430973e+02, -1.9484286340e+03
    5957, -1.5874669347e+03, -3.1024986926e+02, -2.3421582085e+03
    5958, -1.5852487612e+03, -3.2139168468e+02, -2.1448608052e+03
    5959, -1.6039994619e+03, -2.0854729946e+02, -2.2520202048e+03
    5960, -1.3437930064e+03, -9.0029251136e+02, -5.5764397154e+03
    5961, -1.4014474564e+03, -8.0762075077e+02, -5.4758414802e+03
    5962, -1.4446513555e+03, -7.2752230964e+02, -5.5514945088e+03
    5963, -1.3923002017e+03, -8.2328998430e+02, -5.6520927440e+03
    5964, 1.0325470773e+03, -1.2450513175e+03, -3.8917736053e+03
    5965, -1.2347468781e+03, 1.0448475473e+03, -5.3814370661e+03
    5966, 1.4634829886e+03, 6.8885687353e+02, -2.3062214359e+03
    5967, 1.4035935899e+03, 8.0388511895e+02, -2.3663370793e+03
    5968, 1.3678968560e+03, 8.6322907812e+02, -2.5489021770e+03
    5969, -4.7646178107e+02, 1.5457329721e+03, -1.8525701790e+03
    5970, -3.7250028453e+02, 1.5740234395e+03, -1.7930288880e+03
    5971, -4.2625457857e+02, 1.5603247368e+03, -1.9748430929e+03
    5972, -5.7589761438e+02, 1.5115052722e+03, -2.0357767581e+03
    5973, -6.2444878737e+02, 1.4921025306e+03, -1.9135038441e+03
    5974, 4.2193563613e+02, 1.5614981809e+03, -1.7092346136e+03
    5975, 4.4716532418e+02, 1.5544611358e+03, -1.8864921761e+03
    5976, 1.6097290528e+03, 1.5836232658e+02, -4.5900025327e+03
    5977, 1.5763779881e+03, 3.6240679979e+02, -4.5105022830e+03
    5978, 1.1383624207e+03, -1.1491028018e+03, -3.9457706215e+03
    5979, 1.6153472105e+03, -8.3424453603e+01, -9.6137358229e+02
    5980, 1.6063390969e+03, -1.8968646674e+02, -8.3677260898e+02
    5981, -1.5562101055e+03, -4.4104008593e+02, -3.8768445895e+03
    5982, -4.0623493499e+01, 1.6169897903e+03, -9.5635670493e+02
    5983, -1.3273522926e+03, -9.2436039585e+02, -3.1134833940e+03
    5984, -1.4215274141e+03, -7.7172926671e+02, -3.2327033529e+03
    5985, -1.3456944162e+03, -8.9744793063e+02, -3.2502084067e+03
    5986, 1.2426334712e+01, 1.6174522671e+03, -1.0936452949e+03
    5987, 7.9103176802e+01, 1.6155645878e+03, -9.2342390073e+02
    5988, 1.3204186842e+02, 1.6121014841e+03, -1.0607124907e+03
    5989, -1.1447205371e+03, 1.1427690677e+03, -1.4173453110e+03
    5990, -1.2334779783e+03, 1.0463452236e+03, -1.4673078971e+03
    5991, -1.2623736647e+03, 1.0112956939e+03, -1.3332284323e+03
    5992, -1.5541036991e+03, 4.4840600163e+02, -3.3295305001e+03
    5993, -1.4983659872e+03, 6.0926645918e+02, -3.4113545487e+03
    5994, -1.5434102251e+03, 4.8393297795e+02, -3.4637663239e+03
    5995, -1.4531409685e+03, 7.1041366510e+02, -3.4355250132e+03
    5996, -1.3424879123e+03, 9.0223747173e+02, -3.2874062644e+03
    5997, -1.3704079530e+03, 8.5923704087e+02, -3.4680781980e+03
    5998, 1.5220096161e+03, -5.4753354111e+02, -5.9542702190e+03
    5999, 5.5567605510e+02, 1.5190557501e+03, -2.4433751327e+03
    6000, 1.5871279897e+03, 3.1197915702e+02, -1.2980866294e+03
    6001, -1.5602317883e+03, 4.2659467504e+02, -5.8551418078e+03
    6002, -1.4966983296e+03, 6.1335174266e+02, -5.9026274897e+03
    6003, -3.7035538200e+02, 1.5745294983e+03, -5.8707351663e+03
    6004, 1.3426785598e+03, -9.0195373223e+02, -4.9541472016e+03
    6005, 1.3875806776e+03, -8.3121965390e+02, -5.0735832464e+03
    6006, 1.4415155181e+03, -7.3371606308e+02, -5.1983656083e+03
    6007, 1.4911643791e+03, -6.2668576226e+02, -5.3026117480e+03
    6008, 1.6077764831e+03, -1.7709045797e+02, -6.5483827507e+02
    6009, -1.5384832443e+03, 4.9937516668e+02, -1.4320929179e+03
    6010, -1.5532225416e+03, 4.5144876366e+02, -1.2943030407e+03
    6011, -1.6019042391e+03, -2.2407377977e+02, -4.1348020019e+03
    6012, -1.6146072128e+03, -9.6694355265e+01, -4.2267956372e+03
    6013, -1.3063563634e+03, -9.5380254858e+02, -2.7850020021e+03
    6014, -1.2526016738e+03, -1.0233744656e+03, -2.6212728673e+03
    6015, -7.2953506330e+02, 1.4436359795e+03, -4.1550309238e+03
    6016, -8.1845364717e+02, 1.3951486937e+03, -4.2597338286e+03
    6017, -1.2617213339e+03, 1.0121094435e+03, -3.3315457839e+03
    6018, 3.6970653513e+01, 1.6170774319e+03, -3.4627000384e+03
    6019, -1.4663598501e+02, 1.6108395755e+03, -3.4318436630e+03
    6020, 1.5980006294e+03, 2.5040015645e+02, -5.8821918481e+03
    6021, 1.6129116269e+03, 1.2174700753e+02, -5.8178149883e+03
    6022, -1.5906513402e+03, -2.9348690572e+02, -3.9110208089e+03
    6023, -1.6125249463e+03, -1.2676571884e+02, -3.9833056020e+03
    6024, 1.5079312504e+03, -5.8519192938e+02, -5.5403440332e+03
    6025, 1.6107146602e+03, -1.4800180216e+02, -1.5521538645e+03
    6026, 1.6149978367e+03, -8.9934628140e+01, -1.6869499713e+03
    6027, 1.6168305087e+03, 4.6533388685e+01, -1.6590899608e+03
    6028, -3.5719389119e+02, 1.5775673596e+03, -3.5795505871e+03
    6029, -2.3659429799e+02, 1.6001029305e+03, -3.5075697100e+03
    6030, -3.2424676430e+02, 1.5846672477e+03, -3.6777553453e+03
    6031, 1.6145488874e+03, 9.7663402361e+01, -1.8063080575e+03
    6032, -7.5992869319e+02, 1.4278706634e+03, -2.7947017011e+03
    6033, -6.7640442030e+02, 1.4692798611e+03, -2.6708039804e+03
    6034, -5.6414976354e+02, 1.5159291851e+03, -2.7373184517e+03
    6035, -9.8828377831e+02, -1.2804692201e+03, -3.6372557579e+03
    6036, -1.0928739136e+03, -1.1924482626e+03, -3.7221440320e+03
    6037, -7.6460278629e+02, 1.4253732245e+03, -1.5747845453e+03
    6038, -7.2466007449e+02, 1.4460892180e+03, -1.4235689965e+03
    6039, -6.0070970294e+02, 1.5018169338e+03, -1.4602582803e+03
    6040, -3.9588810173e+02, 1.5683044542e+03, -2.8818066085e+03
    6041, -4.6946236978e+02, 1.5478731645e+03, -2.8236307191e+03
    6042, -7.8415493916e+02, 1.4147110240e+03, -1.9355339603e+03
    6043, -8.0735706762e+02, 1.4015993776e+03, -1.7583293460e+03
    6044, -1.1770463856e+03, -1.1094449315e+03, -5.4484347391e+03
    6045, 1.1564478835e+02, -1.6133606333e+03, -5.3303931715e+03
    6046, 2.4742377646e+02, -1.5984641769e+03, -5.2470745063e+03
    6047, 3.4079255444e+02, -1.5811915396e+03, -5.3555297027e+03
    6048, 2.3065653884e+02, -1.6009696471e+03, -5.4231722159e+03
    6049, 1.5025931145e+03, -5.9876554862e+02, -7.2757652830e+02
    6050, -1.6009788186e+03, 2.3059287182e+02, -8.4791866902e+02
    6051, -1.6150861208e+03, 8.8335000783e+01, -9.5398915289e+02
    6052, -1.6127793421e+03, 1.2348701880e+02, -8.2606173434e+02
    6053, -3.7157325465e+01, 1.6170731533e+03, -4.6016463818e+03
    6054, -5.6228693027e+01, 1.6165223735e+03, -4.4610423987e+03
    6055, -1.5872444461e+03, 3.1138612433e+02, -7.6191276971e+02
    6056, -1.6141797794e+03, -1.0358518158e+02, -5.8572883275e+03
    6057, -1.6160830089e+03, -6.7690163578e+01, -5.6122683360e+03
    6058, 9.4124355986e+02, 1.3154340770e+03, -2.9891666758e+03
    6059, 1.0431997040e+03, 1.2361394046e+03, -2.8312375215e+03
    6060, -1.3462072677e+02, 1.6118881816e+03, -4.7971027603e+03
    6061, -7.7701095915e+02, -1.4186473203e+03, -3.1953364522e+03
    6062, -9.8842401925e+02, -1.2803609679e+03, -3.2263871338e+03
    6063, -8.5302955480e+02, -1.3742804767e+03, -3.3133827088e+03
    6064, -1.3542241989e+03, 8.8452420498e+02, -2.8024910136e+03
    6065, -1.4235183870e+03, 7.6805055297e+02, -2.7734462975e+03
    6066, -1.4079844636e+03, 7.9616958004e+02, -2.6342488108e+03
    6067, -1.3363908219e+03, 9.1124410625e+02, -2.6632935269e+03
    6068, -1.4757216703e+03, 6.6223243785e+02, -2.6065954646e+03
    6069, -1.4859535212e+03, 6.3894317658e+02, -2.7565226826e+03
    6070, -1.5354846405e+03, 5.0852056856e+02, -2.7345108833e+03
    6071, -1.5272977054e+03, 5.3260489032e+02, -2.5845836653e+03
    6072, -1.3510184206e+03, 8.8941299589e+02, -5.4408096421e+03
    6073, 1.4675584988e+03, 6.8013109218e+02, -4.4995228393e+03
    6074, 1.4880954737e+03, 6.3393857055e+02, -4.6533415454e+03
    6075, -9.5203691992e+02, 1.3076436644e+03, -2.8621945440e+03
    6076, -8.7691129149e+02, 1.3591662286e+03, -2.7300878332e+03
    6077, 1.5025733340e+03, 5.9881518502e+02, -4.3067135934e+03
    6078, 1.5205694186e+03, 5.5152052824e+02, -4.4402264253e+03
    6079, -1.3788870334e+03, 8.4556300722e+02, -5.5493657832e+03
    6080, -8.9164351152e+02, 1.3495473680e+03, -4.6171243466e+03
    6081, -1.5885879010e+03, -3.0445809355e+02, -1.7495091537e+03
    6082, -1.6009144740e+03, -2.3103916778e+02, -1.6273573876e+03
    6083, -1.6051200333e+03, -1.9973965219e+02, -3.4591726046e+03
    6084, -1.6163578477e+03, -6.0774652115e+01, -3.2821380602e+03
    6085, -1.6170064205e+03, -3.9956053602e+01, -3.4350175410e+03
    6086, 1.9010634843e+02, 1.6062894591e+03, -5.0468923511e+03
    6087, -2.0158671753e+01, 1.6173743778e+03, -4.9829487552e+03
    6088, 2.5454945648e+02, 1.5973449296e+03, -4.9399637505e+03
    6089, 3.6377645986e+01, 1.6170908808e+03, -1.6896673462e+03
    6090, -1.4710436374e+03, -6.7255993563e+02, -1.8731878666e+03
    6091, -1.5166294980e+03, -5.6226436458e+02, -1.8843602762e+03
    6092, -1.0935288184e+03, -1.1918477140e+03, -2.5673935425e+03
    6093, -1.5686188908e+03, -3.9464037463e+02, -1.8575961683e+03
    6094, 1.5371836777e+03, 5.0336129279e+02, -5.8704164551e+03
    6095, 1.5746039420e+03, 3.7003874917e+02, -5.9349642587e+03
    6096, -1.1849908438e+02, 1.6131535008e+03, -2.4536523389e+03
    6097, -2.6827884694e+02, 1.5950964580e+03, -2.4760587720e+03
    6098, -1.2603693126e+03, 1.0137926050e+03, -3.6791545638e+03
    6099, -1.3075281427e+03, 9.5219557135e+02, -3.5201336988e+03
    6100, -1.2322455275e+03, 1.0477963590e+03, -3.4531456812e+03
    6101, -1.1805895016e+03, 1.1056738573e+03, -3.6121665462e+03
    6102, -8.4107861325e+02, 1.3816269454e+03, -1.3675023287e+03
    6103, -7.8653486914e+02, 1.4133892421e+03, -1.2091630253e+03
    6104, -1.2531846864e+03, -1.0226604479e+03, -3.1991589299e+03
    6105, -1.1985582824e+03, -1.0861695511e+03, -3.0918986497e+03
    6106, -1.2777156688e+03, -9.9184117664e+02, -3.0062231138e+03
    6107, -1.5493409564e+03, 4.6459536259e+02, -4.1944479153e+03
    6108, -1.3252925883e+03, -9.2731106176e+02, -3.3666629342e+03
    6109, -1.2300064418e+03, -1.0504239160e+03, -3.3156134574e+03
    6110, -1.5502142324e+03, -4.6167313500e+02, -5.9497792941e+03
    6111, -1.6013151303e+03, -2.2824570829e+02, -5.9540493002e+03
    6112, 1.2957207354e+03, 9.6820143863e+02, -9.1198478743e+02
    6113, 1.3582760877e+03, 8.7828942820e+02, -4.4060973939e+02
    6114, -1.4825782460e+03, -6.4673641807e+02, -9.3481908217e+02
    6115, 3.4806319592e+02, 1.5796069959e+03, -2.4450151568e+03
    6116, 4.6722282953e+02, 1.5485506377e+03, -2.4700688653e+03
    6117, -1.6127859832e+03, 1.2340025346e+02, -1.9907059018e+03
    6118, -1.6042224817e+03, 2.0682475466e+02, -1.8987941540e+03
    6119, -1.5846619061e+03, 3.2427286847e+02, -2.0181582332e+03
    6120, 1.6165885976e+03, 5.4291400673e+01, -2.3912430160e+03
    6121, 1.6173360918e+03, -2.3026425741e+01, -2.2430748157e+03
    6122, -1.5899394289e+03, 2.9731946210e+02, -1.7526694728e+03
    6123, -1.6163008348e+03, 6.2272476337e+01, -1.8022832689e+03
    6124, -1.6165053588e+03, -5.6715738120e+01, -2.0840775662e+03
    6125, -1.6173497944e+03, -2.2042967687e+01, -1.9492367935e+03
    6126, 1.6144641669e+03, 9.9054045543e+01, -5.6940651491e+03
    6127, -1.2768899905e+03, 9.9290392395e+02, -3.8087606811e+03
    6128, -1.1711099198e+03, 1.1157095526e+03, -3.8480414666e+03
    6129, -1.2029510086e+03, 1.0813025113e+03, -4.0260203484e+03
    6130, 3.9626423902e+02, 1.5682094576e+03, -3.7681900857e+03
    6131, 2.0423937758e+02, 1.6045536846e+03, -3.8165813188e+03
    6132, 1.5649632630e+02, 1.6099115348e+03, -3.7041096730e+03
    6133, 1.7280661838e+02, 1.6082425572e+03, -3.3914052466e+03
    6134, 1.1373695165e+02, 1.6134962522e+03, -3.5821501778e+03
    6135, 6.0501478576e+02, 1.5000877838e+03, -2.1867255046e+03
    6136, 5.3653504477e+02, 1.5259214907e+03, -2.3388408184e+03
    6137, 5.1376034668e+02, 1.5337394030e+03, -2.2123842588e+03
    6138, 7.5913688980e+02, 1.4282917883e+03, -2.1582613894e+03
    6139, -9.2273635605e+02, 1.3284817903e+03, -2.5041969940e+03
    6140, -1.0163721272e+03, 1.2582900894e+03, -2.3731714625e+03
    6141, -9.0550412467e+02, 1.3402867343e+03, -2.2580565997e+03
    6142, -8.0623006317e+02, 1.4022479578e+03, -2.3890821311e+03
    6143, 1.6170453860e+03, -3.8346703576e+01, -2.0993084480e+03
    6144, 1.6109169146e+03, 1.4578389625e+02, -2.2382232460e+03
    6145, -7.2573438164e+02, 1.4455503648e+03, -1.0432868232e+03
    6146, -6.8080175400e+02, 1.4672474985e+03, -9.2758250631e+02
    6147, -5.7820369555e+02, 1.5106246180e+03, -9.9778388092e+02
    6148, -5.7266493725e+02, 1.5127329968e+03, -8.6878987719e+02
    6149, -4.8626240655e+02, 1.5426779061e+03, -9.9771842253e+02
    6150, 1.3109433723e+03, -9.4748811316e+02, -1.0931810865e+03
    6151, 1.2404095079e+03, -1.0381187325e+03, -1.2761984577e+03
    6152, -1.4388385719e+02, 1.6110877337e+03, -2.3138904214e+03
    6153, -3.0295693393e+02, 1.5888748680e+03, -2.3125384975e+03
    6154, -3.1267855103e+02, 1.5869903509e+03, -2.1641582336e+03
    6155, -1.5374444538e+02, 1.6101766659e+03, -2.1655101574e+03
    6156, 1.5380596046e+03, 5.0067844253e+02, -4.5732309491e+03
    6157, -1.6063788107e+03, 1.8934985221e+02, -6.5038680002e+02
    6158, -1.5907933324e+03, 2.9271628499e+02, -5.2730517718e+02
    6159, -1.6174124028e+03, -1.6833573400e+01, -7.7408744236e+02
    6160, -3.9173010267e+02, 1.5693482012e+03, -2.4912412695e+03
    6161, -4.2581809908e+02, 1.5604439101e+03, -2.3277209949e+03
    6162, 9.2507228084e+01, -1.6148525204e+03, -2.0615735768e+02
    6163, -4.5453147176e+02, 1.5523232238e+03, -2.6036950855e+03
    6164, -1.6149394363e+03, 9.0977289583e+01, -5.5589073426e+03
    6165, -1.5998333952e+03, 2.3841006196e+02, -5.4736225396e+03
    6166, 1.1507194606e+03, -1.1367281879e+03, -1.4440751664e+03
    6167, -1.6123993501e+03, 1.2835336240e+02, -3.3847605549e+03
    6168, -1.6092745657e+03, 1.6291599715e+02, -3.5611642587e+03
    6169, -1.3749359174e+02, 1.6116456689e+03, -2.0351757315e+03
    6170, -1.3738682942e+03, 8.5369324705e+02, -2.9099979760e+03
    6171, -1.4346877447e+03, 7.4697879829e+02, -2.9283483714e+03
    6172, -4.7229714791e+02, 1.5470105540e+03, -3.5446719581e+03
    6173, -4.3910548778e+02, 1.5567570846e+03, -3.3650857151e+03
    6174, -3.2337508117e+02, 1.5848453574e+03, -3.3999643441e+03
    6175, 1.4911941760e+03, 6.2661485731e+02, -5.4675100954e+03
    6176, 1.5199719628e+03, 5.5316496832e+02, -5.5819922460e+03
    6177, -2.3413489259e+02, 1.6004646519e+03, -3.3242382971e+03
    6178, -3.5632053984e+01, 1.6171074815e+03, -2.9000430405e+03
    6179, 9.4212493645e+01, 1.6147539305e+03, -2.8745240551e+03
    6180, -1.2088416812e+03, -1.0747130034e+03, -2.0235996875e+03
    6181, 1.6172272190e+03, -2.9704749591e+01, -4.6101290909e+03
    6182, 1.6139986989e+03, 1.0636940379e+02, -4.6920157436e+03
    6183, 1.6166554606e+03, -5.2262527374e+01, -4.7372106060e+03
    6184, 1.6096745924e+03, 1.5891493550e+02, -4.8211609192e+03
    6185, -1.4648523867e+03, 6.8594003757e+02, -4.1417854905e+03
    6186, 1.6118043132e+03, -1.3562118513e+02, -1.4937770727e+02
    6187, -1.5105646591e+03, 5.7836032092e+02, -4.2909001931e+03
    6188, -1.5117433067e+03, 5.7527247863e+02, -4.0453332127e+03
    6189, -8.7276771404e+02, 1.3618306676e+03, -1.1465173923e+03
    6190, -8.1408123966e+02, 1.3977045415e+03, -9.8064119018e+02
    6191, -1.0145120979e+03, 1.2597902417e+03, -1.0471313851e+03
    6192, -9.2789803428e+02, 1.3248816883e+03, -9.9587396439e+02
    6193, -1.8536865643e+02, 1.6068430885e+03, -3.7720274404e+03
    6194, -1.6635068680e+01, 1.6174144566e+03, -3.8230540563e+03
    6195, 1.2171905375e+02, 1.6129137367e+03, -3.9008652951e+03
    6196, -1.6124870284e+03, -1.2724713495e+02, -6.0830888491e+03
    6197, -1.6172868955e+03, -2.6255432777e+01, -6.1825889797e+03
    6198, -1.6116886466e+03, -1.3698889112e+02, -6.2976663175e+03
    6199, -1.6152740574e+03, 8.4829060744e+01, -6.1087020203e+03
    6200, -1.6174987326e+03, -2.0248169119e+00, -5.9863278763e+03
    6201, -1.6050520727e+03, 2.0028503131e+02, -4.3205765030e+02
    6202, -1.6164924945e+03, 5.7081217410e+01, -6.3359148157e+03
    6203, -1.5843006971e+03, -3.2603305233e+02, -1.2324169611e+03
    6204, 7.6071630365e+02, 1.4274512095e+03, -3.5591431653e+03
    6205, 7.9317532073e+02, 1.4096734234e+03, -3.6972493162e+03
    6206, 9.2740969258e+02, 1.3252235706e+03, -3.4047721669e+03
    6207, 9.3108050102e+02, 1.3226470998e+03, -3.2246172987e+03
    6208, 8.0778404334e+02, 1.4013533421e+03, -3.8459501652e+03
    6209, 1.0264454851e+03, 1.2500863635e+03, -3.1297682849e+03
    6210, 8.4127447535e+02, 1.3815076935e+03, -3.0840156896e+03
    6211, 1.5725214859e+03, -3.7879074213e+02, -1.2202339334e+03
    6212, 1.5940670493e+03, -2.7432916758e+02, -1.3150398384e+03
    6213, 1.6060943366e+03, -1.9174783427e+02, -1.4325075509e+03
    6214, 1.5774330223e+03, -3.5778668260e+02, -1.4508199401e+03
    6215, -4.4352606699e+01, 1.6168918010e+03, -1.5403988825e+03
    6216, -1.6991882394e+02, 1.6085502303e+03, -1.5965528058e+03
    6217, -2.7935410921e+02, 1.5931941287e+03, -1.6983616433e+03
    6218, 1.6106235296e+03, 1.4899025418e+02, -3.5613821677e+03
    6219, -1.1850207259e+03, -1.1009233076e+03, -1.3517463496e+03
    6220, -1.3547616687e+03, 8.8370078144e+02, -3.6634964006e+03
    6221, 1.6157508802e+03, 7.5202015552e+01, -3.6770984866e+03
    6222, 1.6041451913e+03, 2.0742337226e+02, -3.7593174171e+03
    6223, -1.5678217546e+03, 3.9779541957e+02, -2.5692073416e+03
    6224, -1.5669232892e+03, 4.0131989212e+02, -2.6901481347e+03
    6225, -1.4130101180e+03, -7.8721576228e+02, -3.4005972882e+03
    6226, -1.4921693879e+03, -6.2428900976e+02, -3.2583346283e+03
    6227, -1.4852589063e+03, -6.4055618900e+02, -3.4262285637e+03
    6228, -1.3101673866e+03, 9.4856084096e+02, -1.5110046796e+03
    6229, -1.3801170622e+03, 8.4355387769e+02, -1.5647138113e+03
    6230, -1.3384914176e+03, 9.0815580986e+02, -1.3864836115e+03
    6231, -1.3441650827e+03, 8.9973689515e+02, -1.6786052288e+03
    6232, -1.4027856347e+03, 8.0529417806e+02, -1.7400153922e+03
    6233, -6.5762207055e+02, -1.4777819400e+03, -3.3722334608e+03
    6234, -7.6578745559e+02, -1.4247371066e+03, -3.4247152414e+03
    6235, -1.3614685765e+03, 8.7333244823e+02, -1.2566653222e+03
    6236, -6.1812460940e+02, -1.4947334937e+03, -3.2416600220e+03
    6237, -1.1187735039e+03, 1.1681832463e+03, -3.7263978892e+03
    6238, -1.0062558504e+03, 1.2663946516e+03, -3.8090955309e+03
    6239, -1.0632091276e+03, 1.2189719443e+03, -3.9307391082e+03
    6240, -1.3979610920e+03, 8.1364060570e+02, -1.0175757310e+03
    6241, -1.3803331484e+03, 8.4320024284e+02, -1.1248428921e+03
    6242, -1.1050874631e+03, 1.1811384122e+03, -4.0446735184e+03
    6243, 8.5272666522e+02, 1.3744684370e+03, -3.5016728846e+03
    6244, -1.0519964791e+03, -1.2286617346e+03, -3.8316812159e+03
    6245, -8.9050725174e+02, -1.3502974060e+03, -3.5308754665e+03
    6246, 1.5323696878e+03, 5.1783143007e+02, -5.3841926367e+03
    6247, 1.5871164373e+03, 3.1203792167e+02, -5.4042838426e+03
    6248, 1.5546898261e+03, 4.4636957182e+02, -5.5018326501e+03
    6249, -1.6113616422e+03, 1.4078319544e+02, -3.8267989109e+03
    6250, -1.5985701653e+03, 2.4673807292e+02, -3.6808781768e+03
    6251, -1.3976201935e+03, 8.1422604026e+02, -2.4675537568e+03
    6252, -1.6165608711e+03, 5.5110796703e+01, -1.1341019659e+03
    6253, -1.6146562923e+03, -9.5871307453e+01, -1.1242716959e+03
    6254, -1.6162860770e+03, -6.2654347521e+01, -9.4415888298e+02
    6255, 2.4521731310e+02, 1.5988041529e+03, -3.9939422130e+03
    6256, 3.2685199134e+02, 1.5841319471e+03, -3.9096582367e+03
    6257, -9.8415290260e+02, 1.2836468807e+03, -3.2115105877e+03
    6258, -8.4711320737e+02, 1.3779352176e+03, -3.2711847864e+03
    6259, -8.9531742732e+02, 1.3471128217e+03, -3.3905346598e+03
    6260, -1.0289366389e+03, 1.2480367154e+03, -3.3308604610e+03
    6261, -1.5670578285e+03, 4.0079422671e+02, -3.5610349183e+03
    6262, -1.5144487359e+03, 5.6811202789e+02, -3.5406933767e+03
    6263, -1.0894691744e+03, 1.1955597719e+03, -2.2491058393e+03
    6264, -1.0993342052e+03, 1.1864950718e+03, -2.4726071047e+03
    6265, -1.5462349080e+03, -4.7483034792e+02, -2.4287772574e+03
    6266, -7.3061932141e+01, 1.6158490660e+03, -4.1948758461e+03
    6267, -1.8654660870e+02, 1.6067067600e+03, -4.1490964316e+03
    6268, -1.1159737557e+03, 1.1708581581e+03, -2.5891207352e+03
    6269, -1.2233244474e+03, 1.0581982548e+03, -2.5761025257e+03
    6270, -1.5858508186e+03, 3.1840764954e+02, -3.4413210002e+03
    6271, -1.5975183379e+03, 2.5345889228e+02, -3.3420226761e+03
    6272, -1.1443623661e+03, -1.1431277378e+03, -3.2778428783e+03
    6273, -1.1003232505e+03, -1.1855779158e+03, -3.1709250008e+03
    6274, -8.9448377537e+01, 1.6150248412e+03, -1.7458212695e+03
    6275, -1.2730105052e+02, 1.6124827728e+03, -1.9170577770e+03
    6276, -1.9328079774e+02, 1.6059105776e+03, -1.7839621129e+03
    6277, 1.5912484783e+03, 2.9023185612e+02, -5.5434288221e+03
    6278, 1.6064936267e+03, 1.8837323954e+02, -5.3776373961e+03
    6279, 1.6089270509e+03, 1.6631294252e+02, -5.5167823756e+03
    6280, -1.1480465845e+03, 1.1394276150e+03, -9.4432838473e+02
    6281, 1.3260176842e+03, 9.2627390716e+02, -3.0408480305e+03
    6282, 1.3963158717e+03, 8.1646079914e+02, -2.9713063990e+03
    6283, 1.6117821353e+03, 1.3588450365e+02, -3.8853588328e+03
    6284, 1.5947751252e+03, 2.7018243856e+02, -3.9626546196e+03
    6285, 1.5811829975e+03, 3.4083218521e+02, -3.8366132039e+03
    6286, 1.5902591033e+03, 2.9560486169e+02, -5.7333509559e+03
    6287, 1.5729480360e+03, 3.7701555131e+02, -5.6170382218e+03
    6288, 1.6040712133e+03, 2.0799469359e+02, -5.6597415563e+03
    6289, 1.6164904407e+03, 5.7139349498e+01, -5.5511059684e+03
    6290, 1.5000497745e+03, -6.0510901824e+02, -5.7448800631e+03
    6291, 1.4691527246e+03, -6.7668051671e+02, -5.8569528208e+03
    6292, 1.5485782105e+03, 4.6713143324e+02, -3.9009743749e+03
    6293, 1.5661128759e+03, 4.0447090141e+02, -4.0373817008e+03
    6294, 4.4771800881e+02, 1.5543020410e+03, -2.3655345510e+03
    6295, 1.2506178783e+03, 1.0257978224e+03, -2.8024931095e+03
    6296, 1.3297622343e+03, 9.2089014017e+02, -2.7343640925e+03
    6297, 1.3639906939e+03, 8.6938808197e+02, -2.8527788937e+03
    6298, 1.2889141869e+03, 9.7724432407e+02, -2.9209079107e+03
    6299, 1.5968935889e+03, 2.5736572385e+02, -2.3573105730e+03
    6300, 1.6051671950e+03, 1.9936029207e+02, -2.4545312491e+03
    6301, 1.6113100236e+03, 1.4137276158e+02, -2.3451536174e+03
    6302, 1.4576092260e+03, 7.0120011007e+02, -2.9083918776e+03
    6303, -1.4544167471e+03, 7.0779811802e+02, -5.7695482685e+03
    6304, -1.4169314272e+03, 7.8013561675e+02, -5.6638625505e+03
    6305, -1.6166852981e+03, 5.1331247326e+01, -4.0318161931e+03
    6306, -1.4461751187e+03, 7.2448863075e+02, -1.8165713698e+03
    6307, -1.4906992843e+03, 6.2779128209e+02, -1.9049342821e+03
    6308, -1.5267495679e+03, 5.3417413531e+02, -1.7854955718e+03
    6309, -1.5495070650e+03, -4.6404106021e+02, -2.8700674052e+03
    6310, -1.5849633836e+03, -3.2279610097e+02, -2.8548449645e+03
    6311, -1.5868919978e+03, -3.1317732550e+02, -3.0069393866e+03
    6312, -1.5522929852e+03, -4.5463473026e+02, -3.0221618273e+03
    6313, -1.4022425778e+03, 8.0623942046e+02, -5.8648114324e+03
    6314, -1.3590965790e+03, 8.7701923528e+02, -5.7512497579e+03
    6315, -5.6499023060e+02, 1.5156161418e+03, -4.2354010435e+03
    6316, -4.9232099078e+02, 1.5407551045e+03, -4.1438812315e+03
    6317, -3.7960039035e+02, 1.5723262364e+03, -4.2414721136e+03
    6318, -6.2587723906e+02, 1.4915039161e+03, -3.9911026964e+03
    6319, -4.7789204587e+02, 1.5452913779e+03, -4.0279278195e+03
    6320, -6.3979675374e+02, 1.4855862021e+03, -4.1070561084e+03
    6321, -1.4564163117e+03, -7.0367448220e+02, -5.7510473775e+03
    6322, -6.7809868430e+02, -1.4684986974e+03, -5.9243447525e+03
    6323, -5.4116416437e+02, -1.5242859303e+03, -5.9283024989e+03
    6324, 2.0847894304e+02, 1.6040083480e+03, -8.8926540509e+02
    6325, -2.6585350730e+02, 1.5955024797e+03, -3.0780725722e+03
    6326, -2.7412410061e+02, 1.5941023265e+03, -3.2162088403e+03
    6327, -4.0149244951e+02, 1.5668790837e+03, -3.2235798442e+03
    6328, -1.6086148500e+02, 1.6094812309e+03, -2.9295333461e+03
    6329, -2.7940733505e+02, 1.5931847950e+03, -2.9504433325e+03
    6330, -1.1089702826e+03, -1.1774935933e+03, -2.0293576185e+03
    6331, -9.1506428917e+02, 1.3337779413e+03, -1.5394654676e+03
    6332, -1.0109698809e+03, 1.2626346066e+03, -1.4946326913e+03
    6333, -1.0970162801e+03, 1.1886385200e+03, -1.5544161198e+03
    6334, 1.6000271880e+03, -2.3710598398e+02, -5.1431179080e+03
    6335, 1.6073158700e+03, -1.8122346449e+02, -5.2988334531e+03
    6336, 1.6173661409e+03, -2.0809041928e+01, -5.2478114565e+03
    6337, 9.7351898704e+02, 1.2917302473e+03, -2.4623858107e+03
    6338, 2.6796021477e+02, 1.5951500159e+03, -1.0126910505e+03
    6339, -1.0189274660e+03, 1.2562217436e+03, -2.9973468396e+03
    6340, -6.0844888262e+02, -1.4986981708e+03, -6.0646751272e+03
    6341, -1.1176774345e+03, 1.1692319711e+03, -3.3775319601e+03
    6342, 1.5865791014e+03, -3.1475864577e+02, -1.5704662536e+03
    6343, -1.6165225844e+03, 5.6222631216e+01, -6.4725109539e+03
    6344, -1.6163622430e+03, 6.0657642050e+01, -6.6207591460e+03
    6345, 4.4961785661e+02, 1.5537535303e+03, -2.9867403466e+03
    6346, -1.4720033758e+03, 6.7045679320e+02, -3.5648638412e+03
    6347, 9.8736280203e+02, 1.2811795140e+03, -9.1932242195e+02
    6348, -1.4127782234e+03, 7.8763185663e+02, -3.6114408998e+03
    6349, -1.5608401128e+03, 4.2436351430e+02, -1.8914604463e+03
    6350, -1.5648006309e+03, 4.0951829708e+02, -1.6467045983e+03
    6351, -3.6347591389e+02, 1.5761318187e+03, -9.9969170589e+02
    6352, 3.7113091264e+02, 1.5743468791e+03, -1.5693161966e+02
    6353, -1.0369453246e+03, 1.2413906089e+03, -2.1095237132e+03
    6354, 1.5279059665e+03, 5.3085742681e+02, -4.1047994908e+03
    6355, 9.9087649384e+02, 1.2784639314e+03, -3.4716677189e+03
    6356, -1.3699360606e+03, 8.5998920914e+02, -2.3328550293e+03
    6357, 1.5310325731e+03, 5.2177151149e+02, -2.9718239960e+03
    6358, 1.5641748403e+03, 4.1190207454e+02, -2.9158933843e+03
    6359, 1.6012959688e+03, -2.2838010015e+02, -5.4874311914e+03
    6360, 1.6133633858e+03, -1.1560638126e+02, -5.4388058684e+03
    6361, 1.5510132895e+03, 4.5898150934e+02, -2.7912343906e+03
    6362, 1.5094361141e+03, 5.8129929236e+02, -2.8526624976e+03
    6363, -1.2859832923e+03, 9.8109796754e+02, -1.6352180138e+03
    6364, -1.2608283978e+03, 1.0132215954e+03, -1.7283240152e+03
    6365, 1.6090836418e+03, -1.6479103044e+02, -1.8156249821e+03
    6366, 1.5909416590e+03, -2.9190904017e+02, -1.7766497118e+03
    6367, 1.6071666672e+03, -1.8254192316e+02, -1.9231545776e+03
    6368, 1.6049118208e+03, -2.0140580254e+02, -1.6963140014e+03
    6369, 1.5526163170e+03, -4.5352929568e+02, -4.5364478131e+03
    6370, 1.5924282177e+03, -2.8368754221e+02, -4.4537873012e+03
    6371, 1.5726294015e+03, -3.7834245792e+02, -4.3062801216e+03
    6372, 1.1211054828e+03, 1.1659454303e+03, -2.7629825432e+03
    6373, 1.0098775847e+03, 1.2635084147e+03, -2.2519462594e+03
    6374, 9.2477357288e+02, 1.3270644630e+03, -2.1448141758e+03
    6375, -1.2765535131e+03, -9.9333648788e+02, -5.3139763212e+03
    6376, -1.2693000985e+03, -1.0025884050e+03, -5.4541963583e+03
    6377, -1.1850788838e+03, -1.1008607038e+03, -5.3082147019e+03
    6378, -1.3383390427e+03, -9.0838034802e+02, -5.4427683562e+03
    6379, -1.3585831037e+03, -8.7781444522e+02, -5.3422825606e+03
    6380, 2.6025824495e+02, 1.5964247229e+03, -3.3026565124e+03
    6381, 4.0673651513e+02, 1.5655260002e+03, -3.1363012895e+03
    6382, -6.6645229571e+02, 1.4738207447e+03, -3.5988561257e+03
    6383, -1.4971712125e+03, -6.1219654573e+02, -7.1811026213e+03
    6384, -7.6795126876e+02, 1.4235719507e+03, -3.6443714172e+03
    6385, -8.3744461904e+02, 1.3838326344e+03, -3.4875206947e+03
    6386, -1.5963763965e+03, -2.6055450592e+02, -1.9687065581e+03
    6387, -1.6061918171e+03, -1.9092955947e+02, -2.0702080262e+03
    6388, -1.6086463510e+03, -1.6900641251e+02, -1.8606195435e+03
    6389, -1.6152679730e+03, -8.4944836640e+01, -1.7136660189e+03
    6390, 1.5429982543e+03, 4.8524492495e+02, -5.6971978177e+03
    6391, 1.5634799138e+03, 4.1453203629e+02, -5.7861233665e+03
    6392, -6.6194561704e+02, 1.4758503481e+03, -3.1627490345e+03
    6393, -5.4275283356e+02, 1.5237209757e+03, -3.1978340350e+03
    6394, -9.9157897381e+02, -1.2779191636e+03, -2.6795080445e+03
    6395, 3.1533793654e+01, 1.6171925890e+03, -3.7358703630e+03
    6396, -8.7871950810e+02, 1.3579978925e+03, -4.3415603130e+03
    6397, 1.6023706470e+03, 2.2071375019e+02, -4.9874102032e+03
    6398, 1.6107386855e+03, 1.4774010009e+02, -5.2173973005e+03
    6399, 1.5756857161e+03, 3.6540494523e+02, -4.9497399975e+03
    6400, 1.5239328418e+03, 5.4215767423e+02, -5.0334532532e+03
    6401, -2.8732305842e+02, 1.5917762751e+03, -1.8786293576e+03
    6402, -1.6165708127e+03, -5.4818405517e+01, -2.7033070133e+02
    6403, -1.6160365869e+03, 6.8789532158e+01, -2.8765210360e+02
    6404, -4.4126059667e+02, 1.5561475945e+03, -2.1422540144e+03
    6405, -2.9738148222e+02, 1.5899278298e+03, -1.9967473121e+03
    6406, -1.5228636036e+03, 5.4515382666e+02, -2.0038167603e+03
    6407, -1.5544416029e+03, 4.4723322012e+02, -2.1305145472e+03
    6408, -1.5036938742e+03, 5.9599579079e+02, -4.5015560717e+03
    6409, 1.2138421281e+03, 1.0690619898e+03, -3.3048321119e+03
    6410, 1.1681688679e+03, 1.1187885171e+03, -3.1759305489e+03
    6411, 1.2476783803e+03, 1.0293711232e+03, -3.1087074934e+03
    6412, -9.9383892725e+02, 1.2761623865e+03, -3.4682736999e+03
    6413, -1.0847364727e+03, 1.1998554225e+03, -3.5149451990e+03
    6414, -1.6174818769e+03, 7.6568785342e+00, -4.1536865957e+03
    6415, -1.3103389413e+03, 9.4832384181e+02, -2.5347237185e+03
    6416, -9.6684789106e+02, 1.2967310460e+03, -3.7155006921e+03
    6417, -1.0179450824e+03, 1.2570179232e+03, -3.6291765420e+03
    6418, -9.3888341207e+02, 1.3171196561e+03, -3.5652597348e+03
    6419, -8.8544534741e+02, 1.3536220989e+03, -3.6515838849e+03
    6420, 5.8597784017e+02, 1.5076260215e+03, -3.0235217106e+03
    6421, 5.4431297636e+02, 1.5231643489e+03, -3.1730826535e+03
    6422, 7.3159861696e+02, 1.4425913190e+03, -3.0280186877e+03
    6423, -1.5220748732e+03, -5.4735210835e+02, -3.1282782772e+03
    6424, -2.3391967692e+02, 1.6004961214e+03, -4.2969448918e+03
    6425, -6.1644685284e+01, 1.6163249001e+03, -4.3092909556e+03
    6426, -3.3299577144e+02, 1.5828518775e+03, -4.0936236534e+03
    6427, -7.5141312643e+02, 1.4323702606e+03, -3.7649085252e+03
    6428, 6.6209135606e+02, 1.4757849729e+03, -3.1951203144e+03
    6429, -8.6970942714e+02, 1.3637858198e+03, -3.7721209929e+03
    6430, 1.4342773954e+03, 7.4776640935e+02, -1.2270857251e+03
    6431, 1.4452482503e+03, 7.2633583494e+02, -1.3903613441e+03
    6432, 1.3724639562e+03, 8.5594914502e+02, -1.4110629607e+03
    6433, -1.0041334434e+03, 1.2680781828e+03, -2.6397936422e+03
    6434, -7.9005874275e+02, 1.4114224857e+03, -2.5944911849e+03
    6435, -6.1339635263e+02, 1.4966800475e+03, -2.3553569225e+03
    6436, -7.0501924283e+02, 1.4557658181e+03, -2.4707886379e+03
    6437, -7.1773085110e+02, 1.4495408498e+03, -2.2736504158e+03
    6438, -6.4648553273e+02, 1.4826876630e+03, -2.1419530438e+03
    6439, -8.0940117160e+02, 1.4004199347e+03, -2.2107699436e+03
    6440, -7.4043328570e+02, 1.4380767710e+03, -2.0790725716e+03
    6441, 1.6012867598e+03, -2.2844466073e+02, -3.8206636998e+03
    6442, 1.6111017962e+03, -1.4372631089e+02, -3.7011554414e+03
    6443, 1.6174876543e+03, -6.3196684872e+00, -3.7951980085e+03
    6444, 1.6152557533e+03, -8.5176882958e+01, -3.9223753022e+03
    6445, -1.4318978848e+03, -7.5231289873e+02, -9.1809070989e+02
    6446, -5.8813567510e+02, 1.5067855447e+03, -2.5471014334e+03
    6447, 3.9094281576e+02, 1.5695445087e+03, -2.2787748001e+03
    6448, 3.2737899409e+02, 1.5840231199e+03, -2.1609877309e+03
    6449, 1.6173757876e+03, 2.0045241237e+01, -5.4080515521e+03
    6450, 1.3829170369e+03, 8.3895573128e+02, -1.5525099405e+03
    6451, 1.4549693270e+03, 7.0666152249e+02, -1.5249835204e+03
    6452, -1.6111696255e+03, 1.4296393909e+02, -5.3699746816e+03
    6453, -1.6170659702e+03, 3.7468626781e+01, -5.4403309662e+03
    6454, -1.3738543440e+03, -8.5371569708e+02, -5.2102503585e+03
    6455, -9.3641658234e+02, 1.3188746090e+03, -4.4426089704e+03
    6456, -1.0207796869e+03, 1.2547171318e+03, -4.3746708657e+03
    6457, -1.2163209554e+03, 1.0662408656e+03, -4.1331425249e+03
    6458, -2.5585669433e+02, -1.5971360624e+03, -2.9170819142e+03
    6459, -4.7683764292e+02, -1.5456170652e+03, -2.8347700281e+03
    6460, -1.3582913038e+02, -1.6117868027e+03, -3.0076866950e+03
    6461, 1.4701132012e+03, 6.7459130264e+02, -5.1062263735e+03
    6462, 1.6127631106e+03, -1.2369882457e+02, -4.5824280179e+03
    6463, 1.6166275454e+03, -5.3119010857e+01, -1.8062609520e+03
    6464, 1.5704981832e+03, -3.8709392479e+02, -5.0286658355e+03
    6465, 1.5516920347e+03, -4.5668159539e+02, -4.9419117528e+03
    6466, 1.6172589939e+03, -2.7921257812e+01, -1.9452933304e+03
    6467, -1.5968716137e+03, 2.5750203780e+02, -1.2226749134e+03
    6468, 1.5770350193e+03, -3.5953692164e+02, -4.8642009764e+03
    6469, 1.5937547975e+03, -2.7613745768e+02, -4.9990757374e+03
    6470, 4.5153957206e+02, 1.5531961450e+03, -2.0945971895e+03
    6471, -1.1469933699e+02, 1.6134281242e+03, -4.9261293137e+03
    6472, -1.4646500058e+03, -6.8637206414e+02, -5.1254297941e+03
    6473, -1.5543263558e+03, 4.4763358872e+02, -2.8798165020e+03
    6474, -1.4952125410e+03, 6.1696491573e+02, -2.9114247565e+03
    6475, -1.6150872657e+03, -8.8314066316e+01, -3.1256430992e+03
    6476, -1.6143523107e+03, 1.0086063174e+02, -3.2477977448e+03
    6477, -1.6174721908e+03, 9.4848341716e+00, -2.7720005800e+03
    6478, -1.6096926322e+03, -1.5873210103e+02, -2.8106073995e+03
    6479, -1.6127618086e+03, -1.2371579773e+02, -2.9690965861e+03
    6480, -1.1212713033e+03, 1.1657859642e+03, -2.9349478558e+03
    6481, -1.0589572061e+03, 1.2226675287e+03, -2.7997955602e+03
    6482, -5.2705770354e+02, 1.5292208562e+03, -2.4346476173e+03
    6483, 1.5548594545e+03, -4.4577833814e+02, -4.7547188694e+03
    6484, -1.5012488579e+03, -6.0212799027e+02, -5.6276606471e+03
    6485, -1.2068673257e+03, 1.0769296673e+03, -1.5915212313e+03
    6486, -9.4560172012e+02, 1.3123047043e+03, -2.1652015953e+03
    6487, -8.5136025503e+02, 1.3753152243e+03, -2.1179149392e+03
    6488, -8.9310650309e+02, 1.3485796321e+03, -1.9743763280e+03
    6489, -5.1410179936e+02, 1.5336249835e+03, -2.2484303001e+03
    6490, -1.5091728822e+03, -5.8198235514e+02, -5.8470717153e+03
    6491, -1.4984356738e+03, -6.0909505124e+02, -2.9356773491e+03
    6492, -1.1940052354e+03, 1.0911726480e+03, -1.7366277762e+03
    44, 6.2293643285e-12, -1.6175000000e+03, -7.3850000000e+03
    45, 5.8331910890e-12, 1.6175000000e+03, -7.3850000000e+03
    46, 6.2293643285e-12, 1.6175000000e+03, -9.3850000000e+03
    694, -2.5303274720e+02, 1.5975858909e+03, -7.3850000000e+03
    695, -4.9983498840e+02, 1.5383339151e+03, -7.3850000000e+03
    696, -7.3432963333e+02, 1.4412030529e+03, -7.3850000000e+03
    697, -9.5074264558e+02, 1.3085849884e+03, -7.3850000000e+03
    698, -1.1437452186e+03, 1.1437452186e+03, -7.3850000000e+03
    699, -1.3085849884e+03, 9.5074264558e+02, -7.3850000000e+03
    700, -1.4412030529e+03, 7.3432963333e+02, -7.3850000000e+03
    701, -1.5383339151e+03, 4.9983498840e+02, -7.3850000000e+03
    702, -1.5975858909e+03, 2.5303274720e+02, -7.3850000000e+03
    703, -1.6175000000e+03, -2.5761272581e-12, -7.3850000000e+03
    704, -1.5975858909e+03, -2.5303274720e+02, -7.3850000000e+03
    705, -1.5383339151e+03, -4.9983498840e+02, -7.3850000000e+03
    706, -1.4412030529e+03, -7.3432963333e+02, -7.3850000000e+03
    707, -1.3085849884e+03, -9.5074264558e+02, -7.3850000000e+03
    708, -1.1437452186e+03, -1.1437452186e+03, -7.3850000000e+03
    709, -9.5074264558e+02, -1.3085849884e+03, -7.3850000000e+03
    710, -7.3432963333e+02, -1.4412030529e+03, -7.3850000000e+03
    711, -4.9983498840e+02, -1.5383339151e+03, -7.3850000000e+03
    712, -2.5303274720e+02, -1.5975858909e+03, -7.3850000000e+03
    713, -1.2690758734e+02, 1.6125137873e+03, -7.3850000000e+03
    714, -3.7759787604e+02, 1.5728083462e+03, -7.3850000000e+03
    715, -6.1899045185e+02, 1.4943751438e+03, -7.3850000000e+03
    716, -8.4514142843e+02, 1.3791454658e+03, -7.3850000000e+03
    717, -1.0504822182e+03, 1.2299566494e+03, -7.3850000000e+03
    718, -1.2299566494e+03, 1.0504822182e+03, -7.3850000000e+03
    719, -1.3791454658e+03, 8.4514142843e+02, -7.3850000000e+03
    720, -1.4943751438e+03, 6.1899045185e+02, -7.3850000000e+03
    721, -1.5728083462e+03, 3.7759787604e+02, -7.3850000000e+03
    722, -1.6125137873e+03, 1.2690758734e+02, -7.3850000000e+03
    723, -1.6125137873e+03, -1.2690758734e+02, -7.3850000000e+03
    724, -1.5728083462e+03, -3.7759787604e+02, -7.3850000000e+03
    725, -1.4943751438e+03, -6.1899045185e+02, -7.3850000000e+03
    726, -1.3791454658e+03, -8.4514142843e+02, -7.3850000000e+03
    727, -1.2299566494e+03, -1.0504822182e+03, -7.3850000000e+03
    728, -1.0504822182e+03, -1.2299566494e+03, -7.3850000000e+03
    729, -8.4514142843e+02, -1.3791454658e+03, -7.3850000000e+03
    730, -6.1899045185e+02, -1.4943751438e+03, -7.3850000000e+03
    731, -3.7759787604e+02, -1.5728083462e+03, -7.3850000000e+03
    732, -1.2690758734e+02, -1.6125137873e+03, -7.3850000000e+03
    733, 6.2293643285e-12, 1.6175000000e+03, -7.6350000000e+03
    734, 6.2293643285e-12, 1.6175000000e+03, -7.8850000000e+03
    735, 6.2293643285e-12, 1.6175000000e+03, -8.1350000000e+03
    736, 6.2293643285e-12, 1.6175000000e+03, -8.3850000000e+03
    737, 6.2293643285e-12, 1.6175000000e+03, -8.6350000000e+03
    738, 6.2293643285e-12, 1.6175000000e+03, -8.8850000000e+03
    739, 6.2293643285e-12, 1.6175000000e+03, -9.1350000000e+03
    740, 6.2293643285e-12, 1.6175000000e+03, -7.5100000000e+03
    741, 6.2293643285e-12, 1.6175000000e+03, -7.7600000000e+03
    742, 6.2293643285e-12, 1.6175000000e+03, -8.0100000000e+03
    743, 6.2293643285e-12, 1.6175000000e+03, -8.2600000000e+03
    744, 6.2293643285e-12, 1.6175000000e+03, -8.5100000000e+03
    745, 6.2293643285e-12, 1.6175000000e+03, -8.7600000000e+03
    746, 6.2293643285e-12, 1.6175000000e+03, -9.0100000000e+03
    747, 6.2293643285e-12, 1.6175000000e+03, -9.2600000000e+03
    748, 2.5303274720e+02, 1.5975858909e+03, -9.3850000000e+03
    749, 4.9983498840e+02, 1.5383339151e+03, -9.3850000000e+03
    750, 7.3432963333e+02, 1.4412030529e+03, -9.3850000000e+03
    751, 9.5074264558e+02, 1.3085849884e+03, -9.3850000000e+03
    752, 1.1437452186e+03, 1.1437452186e+03, -9.3850000000e+03
    753, 1.3085849884e+03, 9.5074264558e+02, -9.3850000000e+03
    754, 1.4412030529e+03, 7.3432963333e+02, -9.3850000000e+03
    755, 1.5383339151e+03, 4.9983498840e+02, -9.3850000000e+03
    756, 1.5975858909e+03, 2.5303274720e+02, -9.3850000000e+03
    757, 1.6175000000e+03, 1.1765147553e-12, -9.3850000000e+03
    758, 1.5975858909e+03, -2.5303274720e+02, -9.3850000000e+03
    759, 1.5383339151e+03, -4.9983498840e+02, -9.3850000000e+03
    760, 1.4412030529e+03, -7.3432963333e+02, -9.3850000000e+03
    761, 1.3085849884e+03, -9.5074264558e+02, -9.3850000000e+03
    762, 1.1437452186e+03, -1.1437452186e+03, -9.3850000000e+03
    763, 9.5074264558e+02, -1.3085849884e+03, -9.3850000000e+03
    764, 7.3432963333e+02, -1.4412030529e+03, -9.3850000000e+03
    765, 4.9983498840e+02, -1.5383339151e+03, -9.3850000000e+03
    766, 2.5303274720e+02, -1.5975858909e+03, -9.3850000000e+03
    767, 2.8358794636e-12, -1.6175000000e+03, -9.3850000000e+03
    768, -2.5303274720e+02, -1.5975858909e+03, -9.3850000000e+03
    769, -4.9983498840e+02, -1.5383339151e+03, -9.3850000000e+03
    770, -7.3432963333e+02, -1.4412030529e+03, -9.3850000000e+03
    771, -9.5074264558e+02, -1.3085849884e+03, -9.3850000000e+03
    772, -1.1437452186e+03, -1.1437452186e+03, -9.3850000000e+03
    773, -1.3085849884e+03, -9.5074264558e+02, -9.3850000000e+03
    774, -1.4412030529e+03, -7.3432963333e+02, -9.3850000000e+03
    775, -1.5383339151e+03, -4.9983498840e+02, -9.3850000000e+03
    776, -1.5975858909e+03, -2.5303274720e+02, -9.3850000000e+03
    777, -1.6175000000e+03, 8.3226416335e-12, -9.3850000000e+03
    778, -1.5975858909e+03, 2.5303274720e+02, -9.3850000000e+03
    779, -1.5383339151e+03, 4.9983498840e+02, -9.3850000000e+03
    780, -1.4412030529e+03, 7.3432963333e+02, -9.3850000000e+03
    781, -1.3085849884e+03, 9.5074264558e+02, -9.3850000000e+03
    782, -1.1437452186e+03, 1.1437452186e+03, -9.3850000000e+03
    783, -9.5074264558e+02, 1.3085849884e+03, -9.3850000000e+03
    784, -7.3432963333e+02, 1.4412030529e+03, -9.3850000000e+03
    785, -4.9983498840e+02, 1.5383339151e+03, -9.3850000000e+03
    786, -2.5303274720e+02, 1.5975858909e+03, -9.3850000000e+03
    787, 1.2690758734e+02, 1.6125137873e+03, -9.3850000000e+03
    788, 3.7759787604e+02, 1.5728083462e+03, -9.3850000000e+03
    789, 6.1899045185e+02, 1.4943751438e+03, -9.3850000000e+03
    790, 8.4514142843e+02, 1.3791454658e+03, -9.3850000000e+03
    791, 1.0504822182e+03, 1.2299566494e+03, -9.3850000000e+03
    792, 1.2299566494e+03, 1.0504822182e+03, -9.3850000000e+03
    793, 1.3791454658e+03, 8.4514142843e+02, -9.3850000000e+03
    794, 1.4943751438e+03, 6.1899045185e+02, -9.3850000000e+03
    795, 1.5728083462e+03, 3.7759787604e+02, -9.3850000000e+03
    796, 1.6125137873e+03, 1.2690758734e+02, -9.3850000000e+03
    797, 1.6125137873e+03, -1.2690758734e+02, -9.3850000000e+03
    798, 1.5728083462e+03, -3.7759787604e+02, -9.3850000000e+03
    799, 1.4943751438e+03, -6.1899045185e+02, -9.3850000000e+03
    800, 1.3791454658e+03, -8.4514142843e+02, -9.3850000000e+03
    801, 1.2299566494e+03, -1.0504822182e+03, -9.3850000000e+03
    802, 1.0504822182e+03, -1.2299566494e+03, -9.3850000000e+03
    803, 8.4514142843e+02, -1.3791454658e+03, -9.3850000000e+03
    804, 6.1899045185e+02, -1.4943751438e+03, -9.3850000000e+03
    805, 3.7759787604e+02, -1.5728083462e+03, -9.3850000000e+03
    806, 1.2690758734e+02, -1.6125137873e+03, -9.3850000000e+03
    807, -1.2690758734e+02, -1.6125137873e+03, -9.3850000000e+03
    808, -3.7759787604e+02, -1.5728083462e+03, -9.3850000000e+03
    809, -6.1899045185e+02, -1.4943751438e+03, -9.3850000000e+03
    810, -8.4514142843e+02, -1.3791454658e+03, -9.3850000000e+03
    811, -1.0504822182e+03, -1.2299566494e+03, -9.3850000000e+03
    812, -1.2299566494e+03, -1.0504822182e+03, -9.3850000000e+03
    813, -1.3791454658e+03, -8.4514142843e+02, -9.3850000000e+03
    814, -1.4943751438e+03, -6.1899045185e+02, -9.3850000000e+03
    815, -1.5728083462e+03, -3.7759787604e+02, -9.3850000000e+03
    816, -1.6125137873e+03, -1.2690758734e+02, -9.3850000000e+03
    817, -1.6125137873e+03, 1.2690758734e+02, -9.3850000000e+03
    818, -1.5728083462e+03, 3.7759787604e+02, -9.3850000000e+03
    819, -1.4943751438e+03, 6.1899045185e+02, -9.3850000000e+03
    820, -1.3791454658e+03, 8.4514142843e+02, -9.3850000000e+03
    821, -1.2299566494e+03, 1.0504822182e+03, -9.3850000000e+03
    822, -1.0504822182e+03, 1.2299566494e+03, -9.3850000000e+03
    823, -8.4514142843e+02, 1.3791454658e+03, -9.3850000000e+03
    824, -6.1899045185e+02, 1.4943751438e+03, -9.3850000000e+03
    825, -3.7759787604e+02, 1.5728083462e+03, -9.3850000000e+03
    826, -1.2690758734e+02, 1.6125137873e+03, -9.3850000000e+03
    827, 2.5303274720e+02, -1.5975858909e+03, -7.3850000000e+03
    828, 4.9983498840e+02, -1.5383339151e+03, -7.3850000000e+03
    829, 7.3432963333e+02, -1.4412030529e+03, -7.3850000000e+03
    830, 9.5074264558e+02, -1.3085849884e+03, -7.3850000000e+03
    831, 1.1437452186e+03, -1.1437452186e+03, -7.3850000000e+03
    832, 1.3085849884e+03, -9.5074264558e+02, -7.3850000000e+03
    833, 1.4412030529e+03, -7.3432963333e+02, -7.3850000000e+03
    834, 1.5383339151e+03, -4.9983498840e+02, -7.3850000000e+03
    835, 1.5975858909e+03, -2.5303274720e+02, -7.3850000000e+03
    836, 1.6175000000e+03, 1.6967424325e-12, -7.3850000000e+03
    837, 1.5975858909e+03, 2.5303274720e+02, -7.3850000000e+03
    838, 1.5383339151e+03, 4.9983498840e+02, -7.3850000000e+03
    839, 1.4412030529e+03, 7.3432963333e+02, -7.3850000000e+03
    840, 1.3085849884e+03, 9.5074264558e+02, -7.3850000000e+03
    841, 1.1437452186e+03, 1.1437452186e+03, -7.3850000000e+03
    842, 9.5074264558e+02, 1.3085849884e+03, -7.3850000000e+03
    843, 7.3432963333e+02, 1.4412030529e+03, -7.3850000000e+03
    844, 4.9983498840e+02, 1.5383339151e+03, -7.3850000000e+03
    845, 2.5303274720e+02, 1.5975858909e+03, -7.3850000000e+03
    846, 1.2690758734e+02, -1.6125137873e+03, -7.3850000000e+03
    847, 3.7759787604e+02, -1.5728083462e+03, -7.3850000000e+03
    848, 6.1899045185e+02, -1.4943751438e+03, -7.3850000000e+03
    849, 8.4514142843e+02, -1.3791454658e+03, -7.3850000000e+03
    850, 1.0504822182e+03, -1.2299566494e+03, -7.3850000000e+03
    851, 1.2299566494e+03, -1.0504822182e+03, -7.3850000000e+03
    852, 1.3791454658e+03, -8.4514142843e+02, -7.3850000000e+03
    853, 1.4943751438e+03, -6.1899045185e+02, -7.3850000000e+03
    854, 1.5728083462e+03, -3.7759787604e+02, -7.3850000000e+03
    855, 1.6125137873e+03, -1.2690758734e+02, -7.3850000000e+03
    856, 1.6125137873e+03, 1.2690758734e+02, -7.3850000000e+03
    857, 1.5728083462e+03, 3.7759787604e+02, -7.3850000000e+03
    858, 1.4943751438e+03, 6.1899045185e+02, -7.3850000000e+03
    859, 1.3791454658e+03, 8.4514142843e+02, -7.3850000000e+03
    860, 1.2299566494e+03, 1.0504822182e+03, -7.3850000000e+03
    861, 1.0504822182e+03, 1.2299566494e+03, -7.3850000000e+03
    862, 8.4514142843e+02, 1.3791454658e+03, -7.3850000000e+03
    863, 6.1899045185e+02, 1.4943751438e+03, -7.3850000000e+03
    864, 3.7759787604e+02, 1.5728083462e+03, -7.3850000000e+03
    865, 1.2690758734e+02, 1.6125137873e+03, -7.3850000000e+03
    6493, -1.3918245355e+02, -1.6115006964e+03, -8.6092790332e+03
    6494, 1.3475281386e+02, -1.6118771446e+03, -8.9214965567e+03
    6495, -1.7977494555e+02, -1.6074785283e+03, -8.9159215278e+03
    6496, -7.0911808043e+01, -1.6159448522e+03, -9.1682151400e+03
    6497, 1.5467716401e+02, -1.6100873346e+03, -8.6921399247e+03
    6498, 4.0097071661e+02, -1.5670126784e+03, -8.9230856547e+03
    6499, 1.8377628729e+02, -1.6070259880e+03, -9.1560371915e+03
    6500, -6.1219488207e+02, -1.4971718927e+03, -8.7616722809e+03
    6501, -5.0023349645e+02, -1.5382043749e+03, -8.9856381236e+03
    6502, -7.4988758188e+02, -1.4331695170e+03, -8.8874284235e+03
    6503, -5.2076442727e+02, -1.5313754149e+03, -9.1761676218e+03
    6504, -8.6681458306e+02, -1.3656275951e+03, -8.6448766258e+03
    6505, -1.0120145944e+03, -1.2617974127e+03, -8.9040476104e+03
    6506, -7.5149347821e+02, -1.4323281056e+03, -9.1542761772e+03
    6507, -1.0704194056e+03, -1.2126452681e+03, -8.6683739260e+03
    6508, -1.2066937906e+03, -1.0771241087e+03, -8.9103020501e+03
    6509, -9.7681988537e+02, -1.2892358828e+03, -9.1460827049e+03
    6510, 1.4285420913e+03, 7.5866576520e+02, -8.4089816150e+03
    6511, 1.5244095870e+03, 5.4081573662e+02, -8.2651373413e+03
    6512, 1.3984451195e+03, 8.1280840164e+02, -8.1703581474e+03
    6513, 1.5892661103e+03, -3.0089779103e+02, -8.0904243854e+03
    6514, 1.6089610988e+03, -1.6598322981e+02, -8.3367414579e+03
    6515, 1.5900098887e+03, -2.9694242537e+02, -8.2602328931e+03
    6516, 1.6143993251e+03, 1.0010528941e+02, -8.1420593902e+03
    6517, 1.6169509864e+03, 4.2139737403e+01, -8.3894590476e+03
    6518, 1.6132279744e+03, -1.1748086092e+02, -8.1104902179e+03
    6519, 9.5367908647e+02, 1.3064464972e+03, -8.7215350249e+03
    6520, 1.1923613350e+03, 1.0929687538e+03, -8.6201340427e+03
    6521, 1.0569726937e+03, 1.2243835081e+03, -8.3333002982e+03
    6522, 1.2743510700e+03, 9.9616042902e+02, -8.2557814259e+03
    6523, 1.0625745987e+03, -1.2195251011e+03, -8.6547273548e+03
    6524, 1.0511928289e+03, -1.2293493752e+03, -8.3942935793e+03
    6525, 1.2777810935e+03, -9.9175688905e+02, -8.3852555757e+03
    6526, -9.6223956738e+02, 1.3001543235e+03, -8.0675441311e+03
    6527, -1.1649642004e+03, 1.1221250651e+03, -8.1682350219e+03
    6528, -1.0308325266e+03, 1.2464712400e+03, -8.3749745667e+03
    6529, -1.1644379253e+03, 1.1226711754e+03, -8.5287395837e+03
    6530, -1.2525634199e+03, -1.0234212862e+03, -8.6772778075e+03
    6531, -1.3632469871e+03, -8.7055379048e+02, -8.9127287346e+03
    6532, -1.1735363012e+03, -1.1131571316e+03, -9.1475203993e+03
    6533, 6.3177249670e+02, -1.4890163741e+03, -8.6783669047e+03
    6534, 8.6724591219e+02, -1.3653537189e+03, -8.9072389196e+03
    6535, 6.4561034406e+02, -1.4830689578e+03, -8.9153449027e+03
    6536, 6.8144492162e+02, -1.4669488978e+03, -9.1505425151e+03
    6537, -1.3995249150e+03, -8.1094775556e+02, -8.6805588333e+03
    6538, -1.4843367795e+03, -6.4269010798e+02, -8.9130562540e+03
    6539, -1.3356176841e+03, -9.1237692427e+02, -9.1486032568e+03
    6540, 8.5570070145e+02, -1.3726188690e+03, -8.6618070881e+03
    6541, 1.0740310103e+03, -1.2094476586e+03, -8.9061647457e+03
    6542, 9.0456412522e+02, -1.3409213226e+03, -9.1476170057e+03
    6543, -1.5104810665e+03, -5.7857860115e+02, -8.6819049534e+03
    6544, -1.5685112893e+03, -3.9506782372e+02, -8.9137257101e+03
    6545, -1.4632715955e+03, -6.8930580143e+02, -9.1485202207e+03
    6546, -1.5835205393e+03, -3.2980138214e+02, -8.6854431725e+03
    6547, -1.6118696668e+03, -1.3484223084e+02, -8.9198167721e+03
    6548, -1.5544808865e+03, -4.4709666012e+02, -9.1484684531e+03
    6549, -1.6158627080e+03, -7.2759597431e+01, -8.6972464327e+03
    6550, -1.6060694653e+03, -1.9195604326e+02, -9.1510736137e+03
    6551, 1.2548149584e+03, -1.0206594291e+03, -8.9106629934e+03
    6552, 1.1046430316e+03, -1.1815540710e+03, -9.1469002487e+03
    6553, -1.6076861367e+03, 1.7790878563e+02, -8.7205659076e+03
    6554, -1.6127096682e+03, 1.2439363415e+02, -8.9338452314e+03
    6555, -1.6161028836e+03, 6.7213983295e+01, -9.1582742549e+03
    6556, 1.2504041758e+03, -1.0260583059e+03, -8.6675088598e+03
    6557, 1.2785061855e+03, -9.9082197372e+02, -9.1477812445e+03
    6558, -1.5771065988e+03, 3.5922280823e+02, -8.7485209066e+03
    6559, -1.5659565611e+03, 4.0507567042e+02, -8.9391556615e+03
    6560, -1.5867871477e+03, 3.1370814139e+02, -9.1744363219e+03
    6561, 1.3941898159e+03, -8.2008597546e+02, -8.6791648427e+03
    6562, 1.4048531062e+03, -8.0168198181e+02, -8.9097553893e+03
    6563, 1.4214128391e+03, -7.7194027678e+02, -9.1470018679e+03
    6564, -1.3917445829e+03, 8.2422889179e+02, -8.7459593807e+03
    6565, -1.4565077889e+03, 7.0348511766e+02, -9.0045500959e+03
    6566, -1.3493914531e+03, 8.9187945165e+02, -8.9535388685e+03
    6567, -1.4414589158e+03, 7.3382725766e+02, -9.1895441543e+03
    6568, 1.5036749331e+03, -5.9604357697e+02, -8.6547392424e+03
    6569, 1.5170847396e+03, -5.6103488571e+02, -8.8978785062e+03
    6570, 1.5271806955e+03, -5.3294030920e+02, -9.1437798802e+03
    6571, -1.2792606741e+03, 9.8984765378e+02, -8.6628783483e+03
    6572, -1.1818460432e+03, 1.1043306480e+03, -8.8958830749e+03
    6573, -1.1762600248e+03, 1.1102786155e+03, -9.1653307064e+03
    6574, -2.1588398509e+02, 1.6030284948e+03, -7.7624346342e+03
    6575, -1.8708342990e+02, 1.6066443416e+03, -8.0092302676e+03
    6576, -1.7103746932e+02, 1.6084316691e+03, -7.5293991247e+03
    6577, 1.7103746932e+02, 1.6084316691e+03, -9.2406008753e+03
    6578, 2.1588398509e+02, 1.6030284948e+03, -9.0075653658e+03
    6579, 5.9963505427e+02, 1.5022463352e+03, -8.9853893622e+03
    6580, 5.6870226329e+02, 1.5142271909e+03, -9.1754708214e+03
    6581, 7.6985104633e+02, 1.4225454708e+03, -9.1735949631e+03
    6582, 4.0865012208e+02, -1.5650275805e+03, -8.4710138228e+03
    6583, 6.2487696326e+02, -1.4919232657e+03, -8.4401231147e+03
    6584, -6.3834088104e+02, 1.4862123568e+03, -7.7753732546e+03
    6585, -6.7401753711e+02, 1.4703763497e+03, -7.5766508540e+03
    6586, -8.2816716235e+02, 1.3894046931e+03, -7.5872995493e+03
    6587, 6.4652898970e+02, 1.4826687140e+03, -7.6037415821e+03
    6588, 5.5429402768e+02, 1.5195605881e+03, -7.8101497725e+03
    6589, 4.6124928907e+02, 1.5503403960e+03, -8.9883308310e+03
    6590, -7.0354716573e+02, 1.4564778184e+03, -8.9073040593e+03
    6591, -6.4149754467e+02, 1.4848525685e+03, -9.1218374121e+03
    6592, -4.8359211589e+02, 1.5435170603e+03, -8.9887972387e+03
    6593, -4.2338365934e+02, 1.5611061870e+03, -7.7718837112e+03
    6594, 1.6174313429e+03, -1.4903050017e+01, -8.6392510159e+03
    6595, 1.8708342990e+02, 1.6066443416e+03, -8.7607697324e+03
    6596, -1.5661623334e+03, -4.0427935316e+02, -8.2388976485e+03
    6597, -1.6100597817e+03, -1.5496370365e+02, -8.2451899360e+03
    6598, -1.5886582443e+03, -3.0409082993e+02, -8.0271781080e+03
    6599, 1.6170625631e+03, -3.7615380937e+01, -8.8944333678e+03
    6600, 1.5892713004e+03, -3.0087037715e+02, -8.8865090693e+03
    6601, 1.6172894611e+03, -2.6096918820e+01, -9.1428705644e+03
    6602, -1.1295704241e+03, 1.1577464779e+03, -7.9011485015e+03
    6603, -1.2913464479e+03, 9.7402802906e+02, -7.8768763468e+03
    6604, -1.2232627730e+03, 1.0582695490e+03, -7.6353503579e+03
    6605, -1.5983915949e+03, -2.4789223359e+02, -8.4641536561e+03
    6606, 4.4277474473e+02, 1.5557174472e+03, -8.0131085576e+03
    6607, 7.4281416636e+02, 1.4368484138e+03, -7.8902630831e+03
    6608, -8.7025711225e+02, 1.3634363970e+03, -7.7845380101e+03
    6609, 7.6903664919e+02, 1.4229859037e+03, -8.7792823832e+03
    6610, 5.9600401925e+02, 1.5036906128e+03, -8.8017635042e+03
    6611, 1.3762386008e+03, 8.4986679174e+02, -8.6704686756e+03
    6612, -4.8883463470e+02, 1.5418647638e+03, -8.8279008784e+03
    6613, -7.8933470114e+02, 1.4118275318e+03, -8.7252779127e+03
    6614, -7.9639570068e+02, 1.4078565758e+03, -8.0098541588e+03
    6615, -6.1060827597e+02, 1.4978196765e+03, -7.9875231915e+03
    6616, 3.5703024049e+02, -1.5776044046e+03, -8.0334556552e+03
    6617, 1.3400384145e+02, -1.6119395834e+03, -8.0664124357e+03
    6618, 3.2119027121e+02, -1.5852895823e+03, -7.8357991876e+03
    6619, 1.3023386246e+03, 9.5928116679e+02, -8.4167180742e+03
    6620, 5.4501689263e+02, -1.5229126163e+03, -7.9916073404e+03
    6621, 4.8000210152e+02, -1.5446372495e+03, -7.8429511022e+03
    6622, -1.5213920780e+03, -5.4924711643e+02, -8.0253424776e+03
    6623, -1.4833449276e+03, -6.4497602724e+02, -8.2379627212e+03
    6624, 8.0180509510e+02, -1.4047828442e+03, -8.1681843390e+03
    6625, 7.2697382209e+02, -1.4449274418e+03, -7.9363710717e+03
    6626, -1.5396743815e+03, -4.9569047708e+02, -8.4592698283e+03
    6627, 1.0059278412e+03, -1.2666552128e+03, -8.1380154864e+03
    6628, 9.2711523553e+02, -1.3254295870e+03, -7.8907422141e+03
    6629, 8.3849233254e+02, -1.3831980546e+03, -8.4152964060e+03
    6630, 1.2017899257e+03, -1.0825928249e+03, -8.1024377865e+03
    6631, 1.1244338347e+03, -1.1627359122e+03, -7.8613526507e+03
    6632, 1.1654348345e+03, 1.1216362586e+03, -9.1536111922e+03
    6633, 1.3285889224e+03, 9.2258209672e+02, -9.1515025035e+03
    6634, 1.3467240349e+03, 8.9590212845e+02, -8.9115369773e+03
    6635, -1.6166075624e+03, -5.3723729577e+01, -8.0328126552e+03
    6636, -1.6146950989e+03, 9.5215480448e+01, -8.2615177901e+03
    6637, 1.5576155610e+03, -4.3605047186e+02, -8.0673431804e+03
    6638, 1.5566889584e+03, -4.3934694343e+02, -8.3348871369e+03
    6639, 1.4308632889e+03, -7.5427879359e+02, -8.2337078425e+03
    6640, 1.5839526509e+03, 3.2771977333e+02, -8.1854204780e+03
    6641, 1.6136509549e+03, 1.1152060696e+02, -7.8856073214e+03
    6642, 1.5951687154e+03, 2.6784887422e+02, -8.4305636132e+03
    6643, 1.4876978900e+03, 6.3487104062e+02, -8.0586103718e+03
    6644, 1.5662470073e+03, 4.0395118779e+02, -7.8988130277e+03
    6645, -1.6174913789e+03, 5.2810178011e+00, -8.4809179574e+03
    6646, 1.3666705236e+03, 8.6516930703e+02, -8.0309024803e+03
    6647, 1.4260512372e+03, 7.6333748685e+02, -7.8575815373e+03
    6648, -1.3634955766e+03, -8.7016438822e+02, -8.2363705662e+03
    6649, -1.4164192307e+03, -7.8106517841e+02, -8.0247777230e+03
    6650, 1.2679791890e+03, 1.0042584459e+03, -8.0441711646e+03
    6651, 1.2880351543e+03, 9.7840262231e+02, -7.8271847641e+03
    6652, -1.4422729477e+03, -7.3222605412e+02, -8.4568603345e+03
    6653, 1.1078359506e+03, 1.1785608837e+03, -8.0358773507e+03
    6654, 1.1455180539e+03, 1.1419696311e+03, -7.8054789014e+03
    6655, 1.1589556522e+03, 1.1283297595e+03, -7.5939720378e+03
    6656, 9.9703592119e+02, 1.2736662129e+03, -7.7489570589e+03
    6657, -1.2760553135e+03, -9.9397640151e+02, -8.0234992667e+03
    6658, -1.2096014364e+03, -1.0738578188e+03, -8.2333230919e+03
    6659, -1.3083313343e+03, -9.5109167266e+02, -8.4537593558e+03
    6660, 1.4822961257e+03, 6.4738276608e+02, -8.6936016196e+03
    6661, 1.4934915260e+03, 6.2111940230e+02, -8.5296310173e+03
    6662, 1.6012409664e+03, 2.2876542062e+02, -8.6690266679e+03
    6663, 1.6029607506e+03, 2.1638641818e+02, -8.9077216797e+03
    6664, 7.8323353231e+02, 1.4152213551e+03, -8.9683044110e+03
    6665, 9.7323179028e+02, 1.2919466446e+03, -9.1625729728e+03
    6666, 1.1791009593e+03, 1.1072611154e+03, -8.9134585629e+03
    6667, -1.5807496430e+03, 3.4283642791e+02, -8.2898595183e+03
    6668, -1.6056832331e+03, 1.9516045976e+02, -8.0455620569e+03
    6669, 1.4689878682e+03, 6.7703832464e+02, -8.9183526469e+03
    6670, -1.5972906495e+03, 2.5488984082e+02, -8.5137990895e+03
    6671, 1.5539233901e+03, 4.4903045293e+02, -8.6915306401e+03
    6672, 1.5525999587e+03, 4.5358529330e+02, -8.9169002215e+03
    6673, -1.0259581160e+03, -1.2504863830e+03, -8.2282089969e+03
    6674, -1.1040649564e+03, -1.1820942526e+03, -8.0213729601e+03
    6675, -1.1414193709e+03, -1.1460663461e+03, -8.4468183990e+03
    6676, 1.5880439652e+03, -3.0728262964e+02, -8.5744175536e+03
    6677, 1.5454073581e+03, 4.7751685580e+02, -8.4807342986e+03
    6678, 1.3941968458e+03, -8.2007402416e+02, -8.5057053640e+03
    6679, 4.0237468773e+02, -1.5666527569e+03, -8.6947912154e+03
    6680, -9.0457722031e+02, -1.3409124888e+03, -8.0163438253e+03
    6681, -8.1794163844e+02, -1.3954489335e+03, -8.2192607293e+03
    6682, -9.4840770850e+02, -1.3102782409e+03, -8.4347838131e+03
    6683, -4.4812008579e+02, -1.5541861660e+03, -8.8082652444e+03
    6684, 1.3029571875e+03, 9.5844082633e+02, -7.6040105105e+03
    6685, -5.9082162463e+02, -1.5057343915e+03, -8.2015322250e+03
    6686, -6.8399255136e+02, -1.4657627501e+03, -8.0031750067e+03
    6687, -1.4902375983e+03, 6.2888643690e+02, -8.8205787703e+03
    6688, -7.3647462171e+02, -1.4401081145e+03, -8.4204203162e+03
    6689, -3.5275319449e+02, -1.5785662589e+03, -8.1624738201e+03
    6690, -4.5394220260e+02, -1.5524956447e+03, -7.9692957677e+03
    6691, -5.0541586268e+02, -1.5365093738e+03, -8.4026978261e+03
    6692, -1.0453615223e+03, 1.2343117668e+03, -8.7011734022e+03
    6693, -1.0098686390e+03, 1.2635155646e+03, -9.0235738660e+03
    6694, 3.9047170065e+02, -1.5696617792e+03, -8.2477655918e+03
    6695, -4.3158633855e+02, -1.5588583907e+03, -7.6037660499e+03
    6696, 1.6012822307e+03, 2.2847640492e+02, -9.1464443463e+03
    6697, -1.0588624468e+03, 1.2227495937e+03, -7.6795613341e+03
    6698, -1.3500757822e+03, 8.9084321427e+02, -8.1153307993e+03
    6699, -3.6449001964e+01, -1.6170892741e+03, -8.3168183925e+03
    6700, -1.4723224315e+03, 6.6975585678e+02, -8.0859909616e+03
    6701, -1.4254899060e+03, 7.6438522865e+02, -7.8551199369e+03
    6702, -2.6587490913e+02, -1.5954989134e+03, -8.3661510149e+03
    6703, -1.5570193981e+03, 4.3817444481e+02, -8.0642072445e+03
    6704, -1.5254744348e+03, 5.3780479623e+02, -7.8393418025e+03
    6705, -1.5066467721e+03, 5.8849108246e+02, -8.3200754500e+03
    6706, -1.5898385867e+03, 2.9785821860e+02, -7.8276871325e+03
    6707, -1.3705906152e+03, 8.5894564177e+02, -7.6215119916e+03
    6708, -1.6167561212e+03, 4.9049918841e+01, -7.8199824355e+03
    6709, -1.4866947685e+03, 6.3721653730e+02, -7.6131315649e+03
    6710, -1.6047294847e+03, -2.0285347175e+02, -7.8159130957e+03
    6711, 1.5862307848e+03, 3.1650931645e+02, -7.6198539141e+03
    6712, 1.5234376502e+03, 5.4354758393e+02, -7.6045893734e+03
    6713, 1.5119901839e+03, 5.7462329733e+02, -7.7755458158e+03
    6714, -1.5533125739e+03, -4.5113888974e+02, -7.8142304917e+03
    6715, -1.4634534526e+03, -6.8891961938e+02, -7.8135445400e+03
    6716, -1.3373002914e+03, -9.0990888586e+02, -7.8129356218e+03
    6717, -1.1779646636e+03, -1.1084698920e+03, -7.8116685840e+03
    6718, -9.8967966974e+02, -1.2793906367e+03, -7.8085289946e+03
    6719, -2.0378361457e+02, -1.6046116317e+03, -7.6151239755e+03
    6720, 4.4529119606e+01, -1.6168869495e+03, -7.6196935992e+03
    6721, 8.3065560542e+01, -1.6153657055e+03, -7.8487951810e+03
    6722, -7.7864232209e+02, -1.4177525822e+03, -7.8028666630e+03
    6723, -5.4920091696e+02, -1.5214087560e+03, -7.8089535507e+03
    6724, -1.3235076528e+03, 9.2985684009e+02, -9.1711817593e+03
    6725, -1.3317661067e+03, 9.1798980766e+02, -8.5341300764e+03
    6726, -1.2779832309e+03, 9.9149640017e+02, -8.4012720948e+03
    6727, -1.5673736023e+03, 3.9955755632e+02, -7.6073660956e+03
    6728, -1.6104037548e+03, 1.5134727179e+02, -7.6036106346e+03
    6729, 1.4557721276e+03, 7.0500621457e+02, -9.1510583966e+03
    6730, -1.5277013729e+03, 5.3144591936e+02, -9.1920855336e+03
    6731, -1.5191685921e+03, 5.5536748093e+02, -9.0500354132e+03
    6732, -1.6143127648e+03, -1.0149161218e+02, -7.6015051276e+03
    6733, -1.5786182602e+03, -3.5252040855e+02, -7.6005157870e+03
    6734, -1.5039956219e+03, -5.9523391987e+02, -7.6000781220e+03
    6735, -1.3922189285e+03, -8.2342741342e+02, -7.5997453455e+03
    6736, -1.2460578256e+03, -1.0313322186e+03, -7.5991076487e+03
    6737, -1.4166602397e+03, 7.8062796217e+02, -8.5509962633e+03
    6738, -1.0693883317e+03, -1.2135546325e+03, -7.5978153095e+03
    6739, -1.3971268864e+03, 8.1507221352e+02, -8.3446413579e+03
    6740, 1.4787803996e+03, -6.5537377095e+02, -8.4306008803e+03
    6741, -8.6769306025e+02, -1.3650695965e+03, -7.5967212467e+03
    6742, -6.5352051387e+02, -1.4796003474e+03, -7.5947757940e+03
    6743, -4.0645313562e+02, -1.5655995971e+03, -7.7539009270e+03
    6744, 5.9419683756e+02, -1.5044056528e+03, -8.2108644854e+03
    6745, 1.7803751262e+02, -1.6076718863e+03, -8.2804486945e+03
    6746, 1.8953673558e+02, -1.6063567710e+03, -8.4849943329e+03
    6747, 1.4297001535e+03, 7.5648114387e+02, -7.6051781217e+03
    6748, 1.6123566068e+03, -1.2888918752e+02, -7.8721012641e+03
    6749, 1.6160859897e+03, 6.7618961725e+01, -7.6314459102e+03
    6750, 1.5799245411e+03, -3.4661894692e+02, -7.8555050158e+03
    6751, 1.6072122418e+03, -1.8214021975e+02, -7.6277212342e+03
    6752, 1.5203415869e+03, -5.5214826744e+02, -7.8351214836e+03
    6753, 1.5620614871e+03, -4.1984540089e+02, -7.6202026988e+03
    6754, 8.2190308956e+02, 1.3931193637e+03, -8.2091337083e+03
    6755, -7.5690676464e+02, 1.4294748685e+03, -8.4126960311e+03
    6756, -5.9537352082e+02, 1.5039403647e+03, -8.2366935524e+03
    6757, -7.6527465763e+02, 1.4250126134e+03, -8.1595194183e+03
    6758, -8.7958441282e+02, 1.3574378478e+03, -8.2479048295e+03
    6759, 1.4246805405e+03, -7.6589268665e+02, -7.8269704894e+03
    6760, 1.4825947273e+03, -6.4669863498e+02, -7.6128985403e+03
    6761, 1.3706442516e+03, -8.5886004999e+02, -8.0604242778e+03
    6762, 1.2913518810e+03, -9.7402082600e+02, -7.8357113684e+03
    6763, 1.3683658430e+03, -8.6248546051e+02, -7.6097132541e+03
    6764, 1.2198159524e+03, -1.0622406942e+03, -7.6131699463e+03
    6765, -2.1838236325e+02, -1.6026900491e+03, -7.8613788731e+03
    6766, 1.0399144575e+03, -1.2389044237e+03, -7.6235212182e+03
    6767, 8.3075916049e+02, -1.3878564289e+03, -7.6430358540e+03
    6768, 2.9219635722e+02, -1.5908889147e+03, -7.6251111257e+03
    6769, 3.9664899259e+02, 1.5681121856e+03, -7.7644053472e+03
    6770, 2.0022159750e+02, 1.6050599870e+03, -7.9371325389e+03
    6771, -2.9863158618e+02, -1.5896935006e+03, -9.1838246843e+03
    6772, -3.3559127310e+02, -1.5823036205e+03, -9.0360531395e+03
    6773, -6.6624626673e+02, -1.4739138924e+03, -8.6174163425e+03
    6774, -4.4495868038e+02, -1.5550942167e+03, -8.6120326608e+03
    6775, 1.3566249660e+01, -1.6174431078e+03, -8.4645987498e+03
    6776, 1.4600413450e+03, -6.9612177164e+02, -7.9748077435e+03
    6777, 4.4257390911e+02, -1.5557745932e+03, -9.1533607648e+03
    6778, 1.5929765536e+03, -2.8059214119e+02, -9.1406467910e+03
    6779, -8.6203270876e+02, 1.3686511093e+03, -9.1100252519e+03
    6780, 1.5465962475e+03, 4.7365208464e+02, -9.1497619423e+03
    6781, -8.2716946732e+02, 1.3899988929e+03, -8.9579441422e+03
    6782, 8.6249210544e+02, 1.3683616547e+03, -8.5386150861e+03
    6783, 7.4820096703e+02, 1.4340507533e+03, -8.6459127931e+03
    6784, 8.3565513708e+02, 1.3849139836e+03, -7.6670533877e+03
    6785, -9.0834275756e+02, 1.3383645560e+03, -8.5531807809e+03
    6786, -3.7671730856e+02, 1.5730194911e+03, -8.1602231058e+03
    6787, -1.5908092506e+02, 1.6096581964e+03, -8.2073868998e+03
    6788, 5.7031944651e+02, -1.5136188354e+03, -7.6886160491e+03
    6789, -2.0022159750e+02, 1.6050599870e+03, -8.8328674611e+03
    6790, -1.4685774885e+02, 1.6108193727e+03, -8.5608942539e+03
    6791, -3.6398893115e+02, 1.5760134225e+03, -8.6124167581e+03
    6792, 4.1365748035e+02, 1.5637115268e+03, -8.5908123030e+03
    6793, 1.5908092506e+02, 1.6096581964e+03, -8.5626131002e+03
    6794, 1.4685774885e+02, 1.6108193727e+03, -8.2091057461e+03
    6795, 3.5444829257e+02, 1.5781865092e+03, -8.1723876640e+03
    6796, -1.1512455200e+02, -1.6133978392e+03, -8.1074936918e+03
    6797, 4.0100405334e+02, 1.5670041478e+03, -7.5746146948e+03
    6798, 3.9019370585e+02, 1.5697309075e+03, -9.1304075018e+03
    6799, 3.8538375478e+02, 1.5709187158e+03, -8.8303331910e+03
    6800, -3.8451240037e+02, 1.5711322236e+03, -9.0144452407e+03
    6801, -3.9860935061e+02, 1.5676150151e+03, -9.1978856974e+03
    6802, -4.5136713004e+02, 1.5532462663e+03, -7.5690587991e+03
    6803, -4.0251258224e+02, 1.5666173340e+03, -7.9856937638e+03
    6804, -1.5305566652e+03, 5.2316588629e+02, -8.5951534288e+03
    6805, 4.5073004785e+02, 1.5534312582e+03, -8.3422671987e+03
    6806, 6.2648809656e+02, 1.4912474358e+03, -8.1072029985e+03
    6807, -4.5661046175e+02, 1.5517129684e+03, -8.4663671730e+03
    6808, -6.3245301184e+02, 1.4887274559e+03, -8.5977928182e+03
    6809, 9.8137033599e+02, 1.2857754523e+03, -8.9384459224e+03
    6810, 6.9940436663e+02, 1.4584717282e+03, -8.4244927065e+03
    6811, 1.5012284551e+02, 1.6105183579e+03, -7.6377081850e+03
    6812, -1.5012284551e+02, 1.6105183579e+03, -9.1322918150e+03
    6813, 6.1680204892e+02, 1.4952797338e+03, -8.6178126502e+03
    6814, -9.2153770180e+02, 1.3293135500e+03, -8.8562316378e+03
    6815, -2.5294320773e+02, 1.5976000700e+03, -8.3730087943e+03
    6816, 2.5294320773e+02, 1.5976000700e+03, -8.3969912057e+03
    6817, 9.2486999060e+02, 1.3269972685e+03, -7.9749796276e+03
    6818, -9.9872596572e+02, 1.2723414225e+03, -7.9264015807e+03
    6819, -1.0558841918e+03, 1.2253223345e+03, -9.1709081845e+03
    6820, 1.0426003639e+03, 1.2366449495e+03, -7.5906440903e+03
    6821, -1.9347958948e+02, 1.6058866394e+03, -7.6459168794e+03
    6822, -1.0818424040e+02, 1.6138780685e+03, -7.8237173171e+03
    6823, -8.5638850027e+01, 1.6152313263e+03, -7.5821995623e+03
    6824, 1.9347958948e+02, 1.6058866394e+03, -9.1240831206e+03
    6825, 1.0818424040e+02, 1.6138780685e+03, -8.9462826829e+03
    6826, 8.5638850027e+01, 1.6152313263e+03, -9.1878004377e+03
    6827, 1.6159350885e+03, 7.1133955724e+01, -8.2657592189e+03
    6828, 1.6163093725e+03, -6.2050481297e+01, -8.3631002527e+03
    6829, 1.6112770481e+03, -1.4174810137e+02, -8.2236158379e+03
    6830, 1.6174765622e+03, -8.7075046371e+00, -8.1262748041e+03
    6831, -7.5218270395e+02, 1.4319662810e+03, -7.5819752016e+03
    6832, -8.4931139298e+02, 1.3765814207e+03, -7.6859187797e+03
    6833, -7.5679287815e+02, 1.4295351656e+03, -7.7799556323e+03
    6834, -6.5622697994e+02, 1.4784019754e+03, -7.6760120543e+03
    6835, -8.3362232922e+02, 1.3861385437e+03, -7.8971960845e+03
    6836, -7.0493856998e+02, 1.4558048848e+03, -7.9986886752e+03
    6837, -6.2450154657e+02, 1.4920804497e+03, -7.8814482230e+03
    6838, 1.4879517727e+03, 6.3427578548e+02, -8.6116163185e+03
    6839, 1.4626345633e+03, 6.9065648797e+02, -8.4693063162e+03
    6840, 1.4031315297e+03, 8.0469134484e+02, -8.5397251453e+03
    6841, 1.4328486106e+03, 7.5050057245e+02, -8.6820351476e+03
    6842, 6.7084471014e+02, 1.4718266287e+03, -9.1745328922e+03
    6843, 7.7655092413e+02, 1.4188991903e+03, -9.0709496870e+03
    6844, 6.9280207760e+02, 1.4616194892e+03, -8.9768468866e+03
    6845, 5.8419937276e+02, 1.5083160620e+03, -9.0804300918e+03
    6846, 1.2900391655e+03, 9.7575878244e+02, -8.6453013592e+03
    6847, 1.1857526813e+03, 1.1001349139e+03, -8.7667963028e+03
    6848, 1.2673263711e+03, 1.0050821455e+03, -8.9124977701e+03
    6849, 1.3616758762e+03, 8.7300919701e+02, -8.7910028265e+03
    6850, 1.6150129299e+03, 8.9663182065e+01, -8.9010775237e+03
    6851, 1.6172868235e+03, -2.6259862854e+01, -8.7668421918e+03
    6852, 1.6139412751e+03, 1.0723716922e+02, -8.6541388419e+03
    6853, 1.6021128146e+03, 2.2257758043e+02, -8.7883741738e+03
    6854, 1.6085614720e+03, -1.6981236904e+02, -8.8904712185e+03
    6855, 1.5886608680e+03, -3.0407712263e+02, -8.7304633114e+03
    6856, 1.6093910160e+03, -1.6176157621e+02, -8.6068342848e+03
    6857, 1.6174426522e+03, 1.3620461466e+01, -8.5143550318e+03
    6858, 1.6000630378e+03, -2.3686393784e+02, -8.4555795058e+03
    6859, 1.4659153966e+03, -6.8366534221e+02, -8.9038169477e+03
    6860, 1.3995517128e+03, -8.1090150650e+02, -8.7944601160e+03
    6861, 1.4532562661e+03, -7.1017777706e+02, -8.6669520426e+03
    6862, 1.5104812651e+03, -5.7857808282e+02, -8.7763088743e+03
    6863, 1.2526124758e+03, -1.0233612438e+03, -8.7890859266e+03
    6864, 1.3263014346e+03, -9.2586756853e+02, -8.6733368512e+03
    6865, 1.3343336667e+03, -9.1425374809e+02, -8.9102091913e+03
    6866, 6.3869834305e+02, -1.4860587729e+03, -8.7968559037e+03
    6867, 7.4601020342e+02, -1.4351916340e+03, -8.6700869964e+03
    6868, 8.6148096553e+02, -1.3689984646e+03, -8.7845230039e+03
    6869, 7.5871452628e+02, -1.4285161944e+03, -8.9112919111e+03
    6870, 1.4471775591e+02, -1.6110130419e+03, -8.8068182407e+03
    6871, 2.7937131566e+02, -1.5931911116e+03, -8.6934655700e+03
    6872, 4.0167274248e+02, -1.5668328749e+03, -8.8089384351e+03
    6873, 2.6879942402e+02, -1.5950088149e+03, -8.9222911057e+03
    6874, -1.5949137929e+02, -1.6096175788e+03, -8.7626002805e+03
    6875, 7.7795186862e+00, -1.6174812917e+03, -8.6507094789e+03
    6876, -2.2618245771e+01, -1.6173418516e+03, -8.9187090423e+03
    6877, -6.8179266326e+02, -1.4667873105e+03, -8.8245503522e+03
    6878, -5.3092336039e+02, -1.5278830568e+03, -8.7849687626e+03
    6879, -4.7424411820e+02, -1.5464148106e+03, -8.8969516840e+03
    6880, -6.2726290976e+02, -1.4909216921e+03, -8.9365332735e+03
    6881, 1.2338838154e+03, 1.0458666168e+03, -7.5989912741e+03
    6882, 1.3057767610e+03, 9.5459588329e+02, -7.4945052552e+03
    6883, 1.1513762348e+03, 1.1360629454e+03, -7.4894860189e+03
    6884, -8.8510842228e+02, -1.3538424320e+03, -8.8957380169e+03
    6885, -1.0415069968e+03, -1.2375659278e+03, -8.7862107682e+03
    6886, -9.7163253331e+02, -1.2931498251e+03, -8.6566252759e+03
    6887, -8.0905620963e+02, -1.4006192558e+03, -8.7661525246e+03
    6888, -1.1131903618e+03, -1.1735047798e+03, -8.9071748302e+03
    6889, -1.2299217476e+03, -1.0505230815e+03, -8.7937899288e+03
    6890, -1.1653384619e+03, -1.1217363858e+03, -8.6728258668e+03
    6891, -1.2891147057e+03, -9.7697979795e+02, -8.9115153924e+03
    6892, -1.3817074096e+03, -8.4094642180e+02, -8.7966437840e+03
    6893, -1.3302929694e+03, -9.2012328829e+02, -8.6789183204e+03
    6894, -1.4283430230e+03, -7.5904048542e+02, -8.9128924943e+03
    6895, -1.4977520002e+03, -6.1077425937e+02, -8.7974806037e+03
    6896, -1.4596343923e+03, -6.9697467019e+02, -8.6812318934e+03
    6897, -1.5314370806e+03, -5.2058305603e+02, -8.9133909820e+03
    6898, -1.5763537323e+03, -3.6251229055e+02, -8.7995844413e+03
    6899, -1.5519935600e+03, -4.5565583465e+02, -8.6836740630e+03
    6900, -1.5955046525e+03, -2.6584046664e+02, -8.9167712411e+03
    6901, -1.6141646862e+03, -1.0382011303e+02, -8.8085316024e+03
    6902, -1.6048460706e+03, -2.0192904580e+02, -8.6913448026e+03
    6903, -1.6104202100e+03, 1.5117207817e+02, -8.8272055695e+03
    6904, -1.6166401727e+03, 5.2733310384e+01, -8.7089061702e+03
    6905, -1.6174915086e+03, -5.2411538576e+00, -8.9268310018e+03
    6906, -1.5716988032e+03, 3.8218990299e+02, -8.8438382840e+03
    6907, -1.5949748856e+03, 2.6900067716e+02, -8.7345434071e+03
    6908, -1.5955172674e+03, 2.6576474442e+02, -8.9365004465e+03
    6909, -1.3709853542e+03, 8.5831544814e+02, -8.8497491246e+03
    6910, -1.4442974042e+03, 7.2822473052e+02, -8.7832690755e+03
    6911, -1.4738447459e+03, 6.6639921583e+02, -8.9125644331e+03
    6912, -1.4061083690e+03, 7.9947827025e+02, -8.9790444822e+03
    6913, -1.2318839870e+03, 1.0482213948e+03, -8.7793807116e+03
    6914, -1.3380675111e+03, 9.0878027363e+02, -8.7044188645e+03
    6915, -1.2700687751e+03, 1.0016144750e+03, -8.9247109717e+03
    6916, -1.1154986140e+03, 1.1713108436e+03, -8.7985282385e+03
    6917, -1.1063088651e+03, 1.1799944682e+03, -8.6149564929e+03
    6918, -1.2236528238e+03, 1.0578185179e+03, -8.5958089660e+03
    6919, 5.9781997292e+02, 1.5029695705e+03, -8.8935764332e+03
    6920, 7.7614480038e+02, 1.4191213827e+03, -8.8737933971e+03
    6921, 6.8371216103e+02, 1.4658935605e+03, -8.7905229437e+03
    6922, -1.2139389369e+03, 1.0689520605e+03, -7.8890124241e+03
    6923, -1.3213658758e+03, 9.3289788950e+02, -7.9961035730e+03
    6924, -1.2628259390e+03, 1.0107308731e+03, -8.1417829106e+03
    6925, -1.1474055548e+03, 1.1400731305e+03, -8.0346917617e+03
    6926, -7.5809249029e+01, -1.6157225033e+03, -8.2121560421e+03
    6927, -1.5154693241e+02, -1.6103849780e+03, -8.3414847037e+03
    6928, -3.0942989730e+02, -1.5876269677e+03, -8.2643124175e+03
    6929, -2.3458624461e+02, -1.6003985578e+03, -8.1349837560e+03
    6930, -1.4329378528e+03, 7.5033016741e+02, -7.6173217782e+03
    6931, -1.3403738849e+03, 9.0537511496e+02, -7.5032559958e+03
    6932, -1.4647539559e+03, 6.8615020119e+02, -7.4990657824e+03
    6933, -1.4155221030e+03, 7.8268986576e+02, -8.1006608805e+03
    6934, -1.3624564101e+03, 8.7179055999e+02, -7.8659981418e+03
    6935, -1.4496785042e+03, 7.1745277516e+02, -7.9705554493e+03
    6936, -1.2531351143e+03, 1.0227211913e+03, -9.1682562329e+03
    6937, -1.3160877524e+03, 9.4032934542e+02, -9.2780908796e+03
    6938, -1.1601233063e+03, 1.1271291693e+03, -9.2751653532e+03
    6939, -1.5190903422e+03, 5.5558148127e+02, -8.0750991030e+03
    6940, -1.4798250938e+03, 6.5301144073e+02, -7.8472308697e+03
    6941, -1.5420517530e+03, 4.8824444791e+02, -7.9517745235e+03
    6942, -1.5860125890e+03, 3.1760087775e+02, -8.0548846507e+03
    6943, -1.5622699496e+03, 4.1906903322e+02, -7.8335144675e+03
    6944, -1.5985858227e+03, 2.4663661023e+02, -7.9366245947e+03
    6945, -1.2229705563e+03, 1.0586072305e+03, -8.4650058393e+03
    6946, -1.3053921656e+03, 9.5512174298e+02, -8.4677010856e+03
    6947, -1.3060076953e+03, 9.5427991173e+02, -8.5985042123e+03
    6948, -1.6159440979e+03, 7.0928995512e+01, -8.0391873560e+03
    6949, -1.6081165373e+03, 1.7397543612e+02, -7.8238347840e+03
    6950, -1.6174983102e+03, -2.3380855690e+00, -7.9263975453e+03
    6951, 1.5213458341e+03, 5.4937519325e+02, -8.6925661299e+03
    6952, 1.4757164925e+03, 6.6224397605e+02, -8.8059771333e+03
    6953, 1.5149194907e+03, 5.6685552549e+02, -8.9176264342e+03
    6954, 1.5532633440e+03, 4.5130835822e+02, -8.8042154308e+03
    6955, -1.6075145860e+03, -1.7945223834e+02, -8.0299953816e+03
    6956, -1.6156596816e+03, -7.7136523246e+01, -7.8179477656e+03
    6957, -1.5974960243e+03, -2.5359949220e+02, -7.9215456018e+03
    6958, -1.5598489199e+03, -4.2799251974e+02, -8.0262602928e+03
    6959, -1.5838935643e+03, -3.2800522389e+02, -7.8150717937e+03
    6960, -1.5381347406e+03, -5.0044756953e+02, -7.9197864846e+03
    6961, -1.4734716573e+03, -6.6722374442e+02, -8.0250601003e+03
    6962, -1.5130612127e+03, -5.7179718124e+02, -7.8138875158e+03
    6963, -1.4406732347e+03, -7.3536853410e+02, -7.9191611315e+03
    6964, -1.3504397765e+03, -8.9029133429e+02, -8.0241384948e+03
    6965, -1.4047293147e+03, -8.0189887288e+02, -7.8132400809e+03
    6966, -1.3073537074e+03, -9.5243505485e+02, -7.9182174442e+03
    6967, -1.1937714213e+03, -1.0914284419e+03, -8.0224361134e+03
    6968, -1.2615451109e+03, -1.0123290884e+03, -7.8123021029e+03
    6969, -1.1416084851e+03, -1.1458779677e+03, -7.9165207721e+03
    6970, -1.0074555357e+03, -1.2654404741e+03, -8.0188583927e+03
    6971, -1.0871862601e+03, -1.1976361241e+03, -7.8100987893e+03
    6972, -9.4762784148e+02, -1.3108423719e+03, -7.9124364099e+03
    6973, 1.3941933309e+03, -8.2007999982e+02, -8.5924351033e+03
    6974, 1.4388471450e+03, -7.3893514155e+02, -8.4681531221e+03
    6975, 1.4915227021e+03, -6.2583246889e+02, -8.5426700614e+03
    6976, -7.9673419457e+02, -1.4076650430e+03, -8.0097594160e+03
    6977, -8.8686339066e+02, -1.3526934525e+03, -7.8056978288e+03
    6978, -7.3171130736e+02, -1.4425341634e+03, -7.9030208348e+03
    6979, -5.7061766956e+02, -1.5135064338e+03, -7.9862353872e+03
    6980, -6.6594148952e+02, -1.4740516214e+03, -7.8059101068e+03
    6981, -5.0181234365e+02, -1.5376900279e+03, -7.8891246592e+03
    6982, 1.1911002180e+03, 1.0943429630e+03, -8.0400242577e+03
    6983, 1.2780725573e+03, 9.9138125276e+02, -7.9356779643e+03
    6984, 1.2195219743e+03, 1.0625781873e+03, -7.8163318327e+03
    6985, 1.1268255399e+03, 1.1604182232e+03, -7.9206781260e+03
    6986, 5.6968202331e+02, -1.5138588581e+03, -8.1012359129e+03
    6987, 4.9341425095e+02, -1.5404053450e+03, -8.2293150386e+03
    6988, 3.7377206868e+02, -1.5737219229e+03, -8.1406106235e+03
    6989, 4.5185180704e+02, -1.5531053391e+03, -8.0125314978e+03
    6990, 1.3191592869e+03, 9.3601550509e+02, -8.0375368225e+03
    6991, 1.3972888528e+03, 8.1479452116e+02, -7.9442420088e+03
    6992, 1.3612969875e+03, 8.7359988653e+02, -7.8423831507e+03
    6993, 1.6140352320e+03, 1.0581360980e+02, -8.0138333558e+03
    6994, 1.5966579701e+03, 2.5882344631e+02, -7.8922101745e+03
    6995, 1.5755609410e+03, 3.6594257923e+02, -8.0421167528e+03
    6996, 1.6032204867e+03, 2.1445354059e+02, -8.1637399341e+03
    6997, 1.5414824986e+03, 4.9003872955e+02, -7.8371794218e+03
    6998, 1.4720479304e+03, 6.7035896402e+02, -7.8165636766e+03
    6999, 1.4582898892e+03, 6.9978343008e+02, -7.9580959546e+03
    7000, 1.5313313990e+03, 5.2089384381e+02, -7.9787116998e+03
    7001, 1.4132112159e+03, -7.8685469394e+02, -9.0283786286e+03
    7002, 1.3543884170e+03, -8.8427273273e+02, -9.1473915562e+03
    7003, 1.2667484253e+03, -1.0058104578e+03, -9.0292221190e+03
    7004, -6.8146772768e+02, 1.4669383035e+03, -8.1981064854e+03
    7005, -8.2312327609e+02, 1.3923987656e+03, -8.2037121239e+03
    7006, -8.1903795795e+02, 1.3948057476e+03, -8.3303004303e+03
    7007, -6.7716450745e+02, 1.4689297056e+03, -8.3246947917e+03
    7008, 9.0650118749e+02, -1.3396125735e+03, -8.1530999127e+03
    7009, 1.0287294563e+03, -1.2482074971e+03, -8.2661545328e+03
    7010, 9.4796880561e+02, -1.3105958163e+03, -8.4047949926e+03
    7011, 8.2021971969e+02, -1.3941111367e+03, -8.2917403725e+03
    7012, 1.1076886635e+03, -1.1786993148e+03, -8.1202266364e+03
    7013, 9.6696819540e+02, -1.2966413379e+03, -8.0143788502e+03
    7014, 1.0289949975e+03, -1.2479885998e+03, -7.8760474324e+03
    7015, 1.1638019481e+03, -1.1233304392e+03, -7.9818952186e+03
    7016, -4.7833761577e+02, -1.5451535119e+03, -7.7814272388e+03
    7017, -3.1296769094e+02, -1.5869333554e+03, -7.8076399000e+03
    7018, -3.3709783449e+02, -1.5819833438e+03, -7.9153373204e+03
    7019, 7.6465295500e+02, -1.4253463117e+03, -8.0522777054e+03
    7020, 8.2919996802e+02, -1.3887885595e+03, -7.9135566429e+03
    7021, 3.3913202608e+02, -1.5815485193e+03, -7.9346274214e+03
    7022, 4.0111152759e+02, -1.5669766407e+03, -7.8393751449e+03
    7023, 5.1262459414e+02, -1.5341193811e+03, -7.9172792213e+03
    7024, 8.4711303195e+02, -1.3779353254e+03, -8.5385517471e+03
    7025, 1.0568951290e+03, -1.2244504630e+03, -8.5245104670e+03
    7026, 9.6218732961e+02, -1.3001929829e+03, -8.6582672215e+03
    7027, -8.2358904924e+02, -1.3921233164e+03, -7.6997939548e+03
    7028, -7.6275946913e+02, -1.4263604882e+03, -7.5957485204e+03
    7029, -6.0172393654e+02, -1.5014108546e+03, -7.7018646724e+03
    7030, -1.0300601213e+03, -1.2471096169e+03, -7.7031721520e+03
    7031, -9.7149898394e+02, -1.2932501592e+03, -7.5972682781e+03
    7032, -1.2126247615e+03, -1.0704426364e+03, -7.7053881163e+03
    7033, -1.1613027077e+03, -1.1259139715e+03, -7.5984614791e+03
    7034, -1.3654444530e+03, -8.6710304796e+02, -7.7063404836e+03
    7035, -1.3232279319e+03, -9.3025485227e+02, -7.5994264971e+03
    7036, -1.4844637938e+03, -6.4239668038e+02, -7.7068113310e+03
    7037, -1.4525951769e+03, -7.1152898882e+02, -7.5999117338e+03
    7038, -1.5667415513e+03, -4.0202880664e+02, -7.7073731393e+03
    7039, -1.5460771484e+03, -4.7534377170e+02, -7.6002969545e+03
    7040, -1.6103188528e+03, -1.5224796335e+02, -7.7087091116e+03
    7041, -1.6013918936e+03, -2.2770650662e+02, -7.6010104573e+03
    7042, -1.6143904123e+03, 1.0024892340e+02, -7.7117965350e+03
    7043, -1.6173067221e+03, 2.5004335395e+01, -7.6025578811e+03
    7044, -1.5794248606e+03, 3.4888874969e+02, -7.7175266140e+03
    7045, -1.5937281196e+03, 2.7629138769e+02, -7.6054883651e+03
    7046, -1.5069046091e+03, 5.8783054463e+02, -7.7262366837e+03
    7047, -1.5316506949e+03, 5.1995422766e+02, -7.6102488303e+03
    7048, -1.3988395148e+03, 8.1212946120e+02, -7.7383159642e+03
    7049, -1.2580099530e+03, 1.0167188442e+03, -7.7561133523e+03
    7050, -1.3007503046e+03, 9.6143377057e+02, -7.6284311747e+03
    7051, -1.0946990266e+03, 1.1907729805e+03, -7.7903549178e+03
    7052, -1.1440224215e+03, 1.1434679484e+03, -7.6574558460e+03
    7053, -3.1507627896e+02, -1.5865160536e+03, -8.8620933861e+03
    7054, -4.4653961390e+02, -1.5546409950e+03, -8.7101489526e+03
    7055, -2.9342910358e+02, -1.5906620041e+03, -8.6106558470e+03
    7056, -1.5234819350e+03, 5.4342344801e+02, -9.1210604734e+03
    7057, -1.5443918576e+03, 4.8079105675e+02, -8.9945955374e+03
    7058, -1.5770336806e+03, 3.5954279351e+02, -9.0567959917e+03
    7059, -1.5610452015e+03, 4.2360846167e+02, -9.1832609278e+03
    7060, 1.3619975621e+03, -8.7250724395e+02, -7.8313409289e+03
    7061, 1.4427827571e+03, -7.3122101015e+02, -7.9008891164e+03
    7062, 1.4176798558e+03, -7.7877472768e+02, -8.0176160106e+03
    7063, 1.3322429784e+03, -9.1729760514e+02, -7.9480678231e+03
    7064, -1.6146594074e+03, 9.5818830319e+01, -9.0460597432e+03
    7065, -1.6061805567e+03, 1.9102426380e+02, -9.1663552884e+03
    7066, -1.6092229682e+03, -1.6342487134e+02, -9.0354451929e+03
    7067, -1.6162892493e+03, -6.2572460011e+01, -9.1546739343e+03
    7068, -1.5617127721e+03, -4.2114067425e+02, -9.0310970816e+03
    7069, -1.5854159754e+03, -3.2056580415e+02, -9.1497710334e+03
    7070, -1.4739884799e+03, -6.6608123466e+02, -9.0307882373e+03
    7071, -1.5137284524e+03, -5.7002843995e+02, -9.1484943369e+03
    7072, -1.3495943546e+03, -8.9157239078e+02, -9.0306659957e+03
    7073, -1.4038822890e+03, -8.0338083667e+02, -9.1485617388e+03
    7074, -2.5799036576e+02, -1.5967927922e+03, -8.9759873337e+03
    7075, -4.1849366448e+02, -1.5624241751e+03, -9.0108456315e+03
    7076, -1.1902514093e+03, -1.0952661013e+03, -9.0289112247e+03
    7077, -1.2585871458e+03, -1.0160042552e+03, -9.1480618281e+03
    7078, -9.9451187240e+02, -1.2756380308e+03, -9.0250651577e+03
    7079, -1.0787765589e+03, -1.2052167382e+03, -9.1468015521e+03
    7080, -7.5069064793e+02, -1.4327490363e+03, -9.0208523003e+03
    7081, -8.6711338171e+02, -1.3654378907e+03, -9.1501794411e+03
    7082, -5.1051038063e+02, -1.5348242249e+03, -9.0809028727e+03
    7083, -6.3805378839e+02, -1.4863356327e+03, -9.1652218995e+03
    7084, -3.1713295538e+02, -1.5861062192e+03, -9.1099389119e+03
    7085, -1.2541483870e+02, -1.6126305740e+03, -9.0420683339e+03
    7086, -1.8523731649e+02, -1.6068582347e+03, -9.1760199122e+03
    7087, 1.5928302012e+02, -1.6096382107e+03, -9.0387668741e+03
    7088, 5.6608163753e+01, -1.6165091295e+03, -9.1621261658e+03
    7089, 4.2180974092e+02, -1.5615321939e+03, -9.0382232097e+03
    7090, 3.1422176643e+02, -1.5866855175e+03, -9.1546989782e+03
    7091, 8.8598924241e+02, -1.3532661646e+03, -9.0274279627e+03
    7092, 7.9550418704e+02, -1.4083605144e+03, -9.1490797604e+03
    7093, 6.6357658460e+02, -1.4751177466e+03, -9.0329437089e+03
    7094, 9.7376367634e+02, -1.2915457997e+03, -8.9067018326e+03
    7095, 1.0894262978e+03, -1.1955988423e+03, -9.0265324972e+03
    7096, 1.0077588154e+03, -1.2651989646e+03, -9.1472586272e+03
    7097, 1.1682427553e+03, -1.1187113634e+03, -8.9084138695e+03
    7098, 1.1953847627e+03, -1.0896611946e+03, -9.1473407466e+03
    7099, 1.5221975352e+03, -5.4701089007e+02, -9.0208291932e+03
    7100, 1.4791319090e+03, -6.5458005300e+02, -9.1453908741e+03
    7101, 1.6171862672e+03, -3.1856351890e+01, -9.0186519661e+03
    7102, 1.6101689122e+03, -1.5382562937e+02, -9.1417586777e+03
    7103, 1.5911562314e+03, -2.9073716186e+02, -9.0135779301e+03
    7104, 1.6021328949e+03, 2.2243299485e+02, -9.0270830130e+03
    7105, 1.6143118745e+03, 1.0150577301e+02, -9.1446574553e+03
    7106, 1.4624468568e+03, 6.9105386262e+02, -9.0347055218e+03
    7107, 1.5056344670e+03, 5.9107622331e+02, -9.1504101695e+03
    7108, 1.5496305850e+03, 4.6362840713e+02, -9.0333310819e+03
    7109, -6.0299866439e+02, 1.5008993506e+03, -8.1121083720e+03
    7110, -7.8088229549e+02, 1.4165200636e+03, -8.0846867886e+03
    7111, 1.3377229945e+03, 9.0928732525e+02, -9.0315197404e+03
    7112, 1.1722899314e+03, 1.1144696347e+03, -9.0335348775e+03
    7113, 1.2509773239e+03, 1.0253594419e+03, -9.1525568478e+03
    7114, -1.4896802307e+03, 6.3020556988e+02, -9.0272927546e+03
    7115, -1.5321891201e+03, 5.1836546005e+02, -8.8798672159e+03
    7116, 1.5177934507e+03, 5.5911473871e+02, -7.6900675946e+03
    7117, 1.5768451343e+03, 3.6036880051e+02, -7.7593334709e+03
    7118, 1.5589727508e+03, 4.3117306550e+02, -7.6122216437e+03
    7119, 8.0601600967e+02, 1.4023710073e+03, -8.5922639396e+03
    7120, 7.5863898116e+02, 1.4285563154e+03, -8.7125975882e+03
    7121, 8.6332655165e+02, 1.3678353392e+03, -8.7504087040e+03
    7122, 9.0861313069e+02, 1.3381810149e+03, -8.6300750555e+03
    7123, 1.6150176536e+03, 8.9578058787e+01, -7.7585266158e+03
    7124, 1.6059871678e+03, 1.9264336697e+02, -7.6256499121e+03
    7125, 1.6174765576e+03, -8.7083713717e+00, -7.8788542927e+03
    7126, 1.6100045996e+03, -1.5553597388e+02, -7.7499112492e+03
    7127, 1.6164800600e+03, -5.7432268676e+01, -7.6295835722e+03
    7128, 7.4270212283e+02, 1.4369063319e+03, -7.6353974849e+03
    7129, 6.0069479136e+02, 1.5018228982e+03, -7.7069456773e+03
    7130, 6.4987132780e+02, 1.4812067740e+03, -7.8502064278e+03
    7131, 7.8966171981e+02, 1.4116446501e+03, -7.7786582354e+03
    7132, 1.5998488347e+03, -2.3830643340e+02, -7.8638031400e+03
    7133, 1.5714196062e+03, -3.8333623791e+02, -7.7378538573e+03
    7134, 1.5890877668e+03, -3.0183823404e+02, -7.6239619665e+03
    7135, 1.4763842663e+03, -6.6075392402e+02, -7.8310459865e+03
    7136, 1.3973580666e+03, -8.1467581517e+02, -7.7183418717e+03
    7137, 1.4295576351e+03, -7.5675043312e+02, -7.6113058972e+03
    7138, 1.5022122253e+03, -5.9972050174e+02, -7.7240100119e+03
    7139, 1.2563584911e+03, -1.0187588488e+03, -7.7244406573e+03
    7140, 1.2979394400e+03, -9.6522508263e+02, -7.6114416002e+03
    7141, 1.2115727390e+03, -1.0716332153e+03, -7.8485320096e+03
    7142, 1.0828440760e+03, -1.2015635468e+03, -7.7424369344e+03
    7143, 1.1333127987e+03, -1.1540833377e+03, -7.6183455822e+03
    7144, 8.7949125959e+02, -1.3574982042e+03, -7.7668890340e+03
    7145, 9.3829719240e+02, -1.3175373349e+03, -7.6332785361e+03
    7146, 6.4955529640e+02, -1.4813453908e+03, -7.8124935604e+03
    7147, 7.0335578583e+02, -1.4565702484e+03, -7.6658259515e+03
    7148, 3.0670609240e+02, -1.5881554152e+03, -7.7304551566e+03
    7149, 4.3298503924e+02, -1.5584704700e+03, -7.6568635874e+03
    7150, 5.2538973540e+02, -1.5297947169e+03, -7.7657835757e+03
    7151, 1.0683146872e+03, -1.2144998885e+03, -8.7804460502e+03
    7152, 3.2244339905e+02, 1.5850351745e+03, -7.9751205482e+03
    7153, 4.9886206896e+02, 1.5386496957e+03, -7.9116291650e+03
    7154, 4.7609082259e+02, 1.5458472689e+03, -7.7872775599e+03
    7155, 2.9900653895e+02, 1.5896230181e+03, -7.8507689431e+03
    7156, 1.1605279200e+03, -1.1267125618e+03, -8.6611181073e+03
    7157, 1.1705308327e+03, -1.1163170785e+03, -8.3897745775e+03
    7158, 1.2642089763e+03, -1.0090004530e+03, -8.5263822177e+03
    7159, 1.5535356744e+03, -4.5037002399e+02, -7.8453132497e+03
    7160, 1.5847602192e+03, -3.2379205937e+02, -7.9729647006e+03
    7161, 1.5748913058e+03, -3.6881380785e+02, -8.0788837829e+03
    7162, 1.5400729611e+03, -4.9445072998e+02, -7.9512323320e+03
    7163, 1.2910726114e+03, -9.7439096987e+02, -8.0814310322e+03
    7164, 1.6128023778e+03, -1.2318579469e+02, -7.9912957410e+03
    7165, 1.6038711087e+03, -2.0953213795e+02, -8.1004573016e+03
    7166, 2.5118352402e+02, 1.5978776822e+03, -8.1907467050e+03
    7167, 3.9876980514e+02, 1.5675742064e+03, -8.0927481108e+03
    7168, 1.7356356414e+02, 1.6081610427e+03, -8.0731191425e+03
    7169, 3.0106225806e+02, 1.5892349627e+03, -8.9189492784e+03
    7170, 2.8679042778e+02, 1.5918723254e+03, -8.7955514617e+03
    7171, 9.3699059579e+01, 1.6147838048e+03, -8.8228848662e+03
    7172, -3.4597403348e+02, 1.5800658904e+03, -8.8303841698e+03
    7173, -4.8621407717e+02, 1.5426931390e+03, -8.9083490586e+03
    7174, -4.3427181822e+02, 1.5581123958e+03, -9.0016212397e+03
    7175, -2.9285872933e+02, 1.5907671152e+03, -8.9236563509e+03
    7176, -2.5601551937e+02, 1.5971106110e+03, -8.5866555060e+03
    7177, -4.2675349013e+02, 1.5601883568e+03, -8.7201588183e+03
    7178, -1.7356356414e+02, 1.6081610427e+03, -8.6968808575e+03
    7179, 1.5603526835e+02, -1.6099562867e+03, -8.1734305651e+03
    7180, 7.0950675719e+01, -1.6159431462e+03, -8.2986335435e+03
    7181, 9.4677621413e+00, -1.6174722908e+03, -8.0869530637e+03
    7182, -1.5559923116e+03, 4.4180784979e+02, -8.6718371677e+03
    7183, -1.5696656380e+03, 3.9045618805e+02, -8.5544762591e+03
    7184, -1.6029505827e+03, 2.1646172710e+02, -8.6171824985e+03
    7185, 1.1265848182e+03, 1.1606519278e+03, -8.4767171704e+03
    7186, 1.2491397299e+03, 1.0275972875e+03, -8.5184260584e+03
    7187, 1.2884768005e+03, 9.7782093681e+02, -8.3362497500e+03
    7188, 1.1712339929e+03, 1.1155793041e+03, -8.2945408621e+03
    7189, 6.9074053339e+02, 1.4625948740e+03, -7.4943707910e+03
    7190, 8.9401386363e+02, 1.3479782868e+03, -7.5260266939e+03
    7191, 1.6100199994e+03, 1.5537648363e+02, -8.4100113304e+03
    7192, 1.5983243077e+03, 2.4832570853e+02, -8.5497951406e+03
    7193, 1.5898425383e+03, 2.9783712581e+02, -8.3079920456e+03
    7194, 1.5571531321e+03, -4.3769895285e+02, -8.2011151586e+03
    7195, 1.5215733480e+03, -5.4874474622e+02, -8.3827440086e+03
    7196, 1.4556621000e+03, -7.0523336602e+02, -8.3321543614e+03
    7197, 1.5026871848e+03, -5.9852942674e+02, -8.1505255114e+03
    7198, 5.3950573639e+02, 1.5248737031e+03, -8.2247350986e+03
    7199, 5.3560232592e+02, 1.5262491273e+03, -8.0601557780e+03
    7200, 4.0277940064e+02, 1.5665487558e+03, -8.2573274313e+03
    7201, 1.4017294442e+03, -8.0713122556e+02, -8.1470660602e+03
    7202, 1.3595173993e+03, -8.7636675593e+02, -8.3094817091e+03
    7203, 1.2406171455e+03, -1.0378705836e+03, -8.2438466811e+03
    7204, -5.4544166147e+02, 1.5227605340e+03, -8.5320799956e+03
    7205, -5.6127300839e+02, 1.5169966579e+03, -8.7128468483e+03
    7206, -4.1047955969e+02, 1.5645487468e+03, -8.5393919656e+03
    7207, 1.5144215301e+03, -5.6818454673e+02, -8.0210754619e+03
    7208, 1.5525872464e+03, -4.5362880451e+02, -8.6145783980e+03
    7209, 1.5737523744e+03, -3.7364383303e+02, -8.4546523452e+03
    7210, 6.2832641104e+02, -1.4904738076e+03, -8.5592450097e+03
    7211, 7.3370138126e+02, -1.4415229908e+03, -8.4277097603e+03
    7212, 6.3718954515e+02, -1.4867063374e+03, -7.9639892061e+03
    7213, 1.5586158457e+03, -4.3246143808e+02, -8.8921937877e+03
    7214, 1.5651725829e+03, -4.0809439557e+02, -9.1422133356e+03
    7215, 5.2497106225e+02, -1.5299384412e+03, -8.9192152787e+03
    7216, 5.1852864120e+02, -1.5321339035e+03, -8.6865790601e+03
    7217, -1.0996573600e+03, 1.1861955743e+03, -8.2716047943e+03
    7218, -1.2232187049e+03, 1.0583204854e+03, -8.2847535583e+03
    7219, -1.0993792354e+03, 1.1864533479e+03, -8.4518570752e+03
    7220, 5.6376154889e+02, -1.5160736018e+03, -9.1519516400e+03
    7221, 1.5265478910e+03, -5.3475020953e+02, -7.6165506196e+03
    7222, 1.5067877964e+03, 5.8812990633e+02, -8.1618738565e+03
    7223, 1.5578290737e+03, 4.3528706289e+02, -8.2252789096e+03
    7224, -1.6122288962e+03, 1.3047695691e+02, -8.4973585234e+03
    7225, -1.6171478742e+03, -3.3749115833e+01, -8.5890821950e+03
    7226, 1.4804882851e+03, 6.5150647547e+02, -8.3370594782e+03
    7227, 1.4458114655e+03, 7.2521407608e+02, -8.1144842596e+03
    7228, 1.4137528174e+03, 7.8588117498e+02, -8.2896698812e+03
    7229, -1.6129166126e+03, -1.2168093912e+02, -8.4725358068e+03
    7230, -1.5914831085e+03, -2.8894249512e+02, -8.5747984143e+03
    7231, 1.5352347398e+03, 5.0927452694e+02, -8.3729358199e+03
    7232, 1.5737835569e+03, 3.7351247107e+02, -8.4556489559e+03
    7233, -1.5739172501e+03, -3.7294870919e+02, -8.4617117422e+03
    7234, -1.5256407423e+03, -5.3733283495e+02, -8.5705873908e+03
    7235, -1.4214440016e+03, -7.7188289286e+02, -8.5687095839e+03
    7236, -1.3796490564e+03, -8.4431909328e+02, -8.4553098451e+03
    7237, -1.2809579926e+03, -9.8765017658e+02, -8.5655185817e+03
    7238, -1.5113218401e+03, 5.7637882129e+02, -8.7078660996e+03
    7239, -1.4956569588e+03, -6.1588676859e+02, -8.4580650814e+03
    7240, -1.2287487173e+03, -1.0518948806e+03, -8.4502888774e+03
    7241, -1.1064203006e+03, -1.1798899815e+03, -8.5575961625e+03
    7242, -1.0481343864e+03, -1.2319580179e+03, -8.4408011060e+03
    7243, -9.0803297280e+02, -1.3385747534e+03, -8.5398302194e+03
    7244, -2.0268665725e+02, -1.6047505629e+03, -8.4877150241e+03
    7245, -1.1442743894e+01, -1.6174595246e+03, -8.3907085711e+03
    7246, -6.2878340729e+01, -1.6162773785e+03, -8.5369388915e+03
    7247, -1.3741236977e+03, 8.5328208307e+02, -8.2299860786e+03
    7248, -1.3404607075e+03, 9.0524656401e+02, -8.3729567264e+03
    7249, -1.4563001467e+03, 7.0391486189e+02, -8.3323584039e+03
    7250, -1.4900387142e+03, 6.2935751375e+02, -8.2030332058e+03
    7251, 5.7702393445e+02, 1.5110756530e+03, -8.3833799526e+03
    7252, 7.6135525673e+02, 1.4271105154e+03, -8.3168132074e+03
    7253, 7.2585572715e+02, 1.4454894373e+03, -8.1581683534e+03
    7254, -1.5189529371e+03, 5.5595703502e+02, -8.4576144394e+03
    7255, -1.5485769946e+03, 4.6713546404e+02, -8.3049674841e+03
    7256, -1.5896284710e+03, 2.9897754816e+02, -8.4018293039e+03
    7257, -5.4399878644e+02, -1.5232765902e+03, -7.5992709220e+03
    7258, -4.1903329347e+02, -1.5622795361e+03, -7.6788334884e+03
    7259, 1.7308873733e+02, 1.6082122183e+03, -8.6616914163e+03
    7260, 3.9953686908e+02, 1.5673788758e+03, -8.7105727470e+03
    7261, 2.8728921729e+02, 1.5917823833e+03, -8.5767127016e+03
    7262, 1.5814217338e+03, 3.3972275432e+02, -8.6802786540e+03
    7263, 1.5822315488e+03, 3.3593090939e+02, -8.9123109506e+03
    7264, -1.7308873733e+02, 1.6082122183e+03, -8.1083085837e+03
    7265, -2.9547657220e+02, 1.5902829450e+03, -7.9974620157e+03
    7266, -3.8962809522e+02, 1.5698713952e+03, -8.0729584348e+03
    7267, -2.6852473902e+02, 1.5950550820e+03, -8.1838050028e+03
    7268, 2.7642103082e+02, 1.5937056390e+03, -7.6061614399e+03
    7269, 1.7519348059e+02, 1.6079842954e+03, -7.7874203619e+03
    7270, 3.9882690776e+02, 1.5675596791e+03, -7.6695100210e+03
    7271, 1.0030384094e+02, 1.6143870012e+03, -7.9110662695e+03
    7272, 7.5142551309e+01, 1.6157536467e+03, -7.6363540925e+03
    7273, -2.7520343379e+02, 1.5939163466e+03, -9.1650887562e+03
    7274, -1.7519348059e+02, 1.6079842954e+03, -8.9825796381e+03
    7275, -3.9156482465e+02, 1.5693894476e+03, -9.1061654691e+03
    7276, -1.0030384094e+02, 1.6143870012e+03, -8.8589337305e+03
    7277, -7.5142551309e+01, 1.6157536467e+03, -9.1336459075e+03
    7278, 7.3504811370e+01, 1.6158289800e+03, -8.1720528730e+03
    7279, -7.5400696318e+02, 1.4310065512e+03, -9.1159313320e+03
    7280, -6.7267198534e+02, 1.4709924032e+03, -9.0145707357e+03
    7281, -7.6607977037e+02, 1.4245799505e+03, -8.9326241008e+03
    7282, -8.4466853255e+02, 1.3794351453e+03, -9.0339846971e+03
    7283, 7.9637043202e+01, 1.6155383596e+03, -8.5988065501e+03
    7284, 1.5787059596e+03, 3.5212745299e+02, -9.1481031443e+03
    7285, -7.3504811370e+01, 1.6158289800e+03, -8.5979471270e+03
    7286, -6.8825970824e+02, 1.4637639236e+03, -9.2534187061e+03
    7287, -9.0688511183e+02, 1.3393526959e+03, -9.2475126260e+03
    7288, -2.0149181863e+02, 1.6049010241e+03, -7.8858324509e+03
    7289, -9.3699059579e+01, 1.6147838048e+03, -8.0721151338e+03
    7290, 2.4611652430e+02, -1.5986659771e+03, -8.0499340454e+03
    7291, 1.0854821923e+02, -1.6138536285e+03, -7.9576038083e+03
    7292, 2.0268655030e+02, -1.6047505764e+03, -7.8422971843e+03
    7293, 2.1210444328e+02, 1.6035329604e+03, -9.3128004377e+03
    7294, 3.2191465096e+02, 1.5851426458e+03, -9.2577037509e+03
    7295, 3.0349583884e+02, 1.5887720182e+03, -9.0689864338e+03
    7296, 5.2546121209e+02, 1.5297701672e+03, -7.5891781384e+03
    7297, 5.3098696515e+02, 1.5278609534e+03, -8.9868600966e+03
    7298, 4.2583188160e+02, 1.5604401490e+03, -9.0593691664e+03
    7299, 4.8025049250e+02, 1.5445600391e+03, -9.1529391616e+03
    7300, 4.5064757887e+02, 1.5534551843e+03, -7.4798073474e+03
    7301, 5.3440457343e+02, 1.5266689235e+03, -9.2802354107e+03
    7302, 7.5214819391e+02, 1.4319844079e+03, -9.2792974815e+03
    7303, -5.6330903306e+02, 1.5162417958e+03, -9.0553173254e+03
    7304, -5.2169722449e+02, 1.5310578879e+03, -9.1598615548e+03
    7305, -4.4946068046e+02, 1.5537990046e+03, -9.2914428487e+03
    7306, -5.3218138013e+02, 1.5274453275e+03, -7.7736284829e+03
    7307, -4.3739305032e+02, 1.5572390855e+03, -7.6704712552e+03
    7308, -5.6421584348e+02, 1.5159045920e+03, -7.5728548265e+03
    7309, -3.1242315614e+02, 1.5870406490e+03, -7.5492289619e+03
    7310, -3.2032038692e+02, 1.5854655782e+03, -7.7671591727e+03
    7311, -7.0432464704e+02, 1.4561020025e+03, -7.4808254270e+03
    7312, -4.7565950226e+02, 1.5459800412e+03, -7.4770293995e+03
    7313, -5.9771759395e+02, 1.5030102887e+03, -8.8676024689e+03
    7314, 6.3801874160e+01, -1.6162411859e+03, -7.7342443901e+03
    7315, 1.6886380944e+02, -1.6086613267e+03, -7.6224023624e+03
    7316, 2.0168148194e+02, 1.6048772009e+03, -7.5113540925e+03
    7317, 4.9184387280e+02, 1.5409074777e+03, -8.8160483476e+03
    7318, 4.2344154797e+02, 1.5610904860e+03, -8.9093320110e+03
    7319, -5.0772704059e+02, 1.5357472130e+03, -7.9866084777e+03
    7320, -4.1295731456e+02, 1.5638965779e+03, -7.8787887375e+03
    7321, -2.0168148194e+02, 1.6048772009e+03, -9.2586459075e+03
    7322, -2.1210444328e+02, 1.6035329604e+03, -7.4571995623e+03
    7323, 6.8519120339e+02, 1.4652028067e+03, -7.9987330408e+03
    7324, -1.6025123425e+03, 2.1968259398e+02, -8.2756886542e+03
    7325, -1.5696085413e+03, 3.9068564980e+02, -8.1770333814e+03
    7326, -1.6109644316e+03, 1.4525787447e+02, -8.1535399235e+03
    7327, -8.3387005286e+02, 1.3859895328e+03, -8.4829384060e+03
    7328, -8.4963309178e+02, 1.3763828898e+03, -8.6392293468e+03
    7329, -7.1193291452e+02, 1.4523972512e+03, -8.6615353655e+03
    7330, -6.9531134350e+02, 1.4604274667e+03, -8.5052444247e+03
    7331, -7.4677471779e+02, 1.4347939820e+03, -8.8162909860e+03
    7332, -1.6172224386e+03, -2.9963879679e+01, -8.2533538631e+03
    7333, -1.6048984350e+03, -2.0151243929e+02, -8.3546717961e+03
    7334, -1.6167187166e+03, 5.0267696741e+01, -8.3712178737e+03
    7335, -1.5929960152e+03, -2.8048163155e+02, -8.2420437922e+03
    7336, -1.6141276035e+03, -1.0439506480e+02, -8.1390012956e+03
    7337, -1.5782055172e+03, -3.5436364878e+02, -8.1330378782e+03
    7338, -1.5294957849e+03, -5.2625934101e+02, -8.2384301848e+03
    7339, -1.4634593024e+03, -6.8890719267e+02, -8.3474115278e+03
    7340, -1.5535908159e+03, -4.5017977157e+02, -8.3490837384e+03
    7341, 8.7398424309e+02, 1.3610502536e+03, -9.1680839679e+03
    7342, 9.6202318895e+02, 1.3003144366e+03, -9.2737864864e+03
    7343, -1.4278664726e+03, -7.5993656734e+02, -8.2371666437e+03
    7344, -1.5031307742e+03, -5.9741453417e+02, -8.1316525994e+03
    7345, -1.3906711514e+03, -8.2603873923e+02, -8.1305741446e+03
    7346, -8.9037238410e+02, 1.3503863401e+03, -7.4861497746e+03
    7347, -1.2905734435e+03, -9.7505201758e+02, -8.2348468290e+03
    7348, -1.1760647206e+03, -1.1104854898e+03, -8.3400707454e+03
    7349, -1.3365261190e+03, -9.1104565376e+02, -8.3450649610e+03
    7350, -1.1212631451e+03, -1.1657938109e+03, -8.2307660444e+03
    7351, -1.2434699956e+03, -1.0344508786e+03, -8.1284111793e+03
    7352, -1.0655603892e+03, -1.2169171323e+03, -8.1247909785e+03
    7353, -9.2479463202e+02, -1.3270497875e+03, -8.2237348631e+03
    7354, -7.7752883424e+02, -1.4183635507e+03, -8.3198405227e+03
    7355, -8.4493849817e+02, -1.3792698011e+03, -8.4276020646e+03
    7356, -9.8763549392e+02, -1.2809693131e+03, -8.3314964050e+03
    7357, 1.5953407342e+03, -2.6682239763e+02, -9.2628233955e+03
    7358, 1.5328466810e+03, -5.1641775958e+02, -9.2643899401e+03
    7359, -7.0653676720e+02, -1.4550299126e+03, -8.2103964772e+03
    7360, -8.6169098907e+02, -1.3688662788e+03, -8.1178022773e+03
    7361, -6.3772033750e+02, -1.4864787322e+03, -8.1023536159e+03
    7362, -7.9863442190e+01, -1.6155271835e+03, -7.6174087873e+03
    7363, -2.2843519290e+02, -1.6012881104e+03, -7.5000619878e+03
    7364, 2.2266669732e+01, -1.6173467301e+03, -7.5023467996e+03
    7365, 2.7263511595e+02, -1.5943576586e+03, -7.5050555628e+03
    7366, -5.4833468979e+02, -1.5217211696e+03, -8.3021150256e+03
    7367, -6.2281320996e+02, -1.4927859711e+03, -8.4115590711e+03
    7368, -6.9419060482e+02, -1.4609605245e+03, -7.4898878970e+03
    7369, -4.6582371730e+02, -1.5489720832e+03, -7.4943830250e+03
    7370, -9.0965638117e+02, -1.3374720626e+03, -7.4908606234e+03
    7371, -4.7319074383e+02, -1.5467374599e+03, -8.1820030226e+03
    7372, -4.0355827975e+02, -1.5663482898e+03, -8.0658847939e+03
    7373, -1.1071171421e+03, -1.1792361441e+03, -7.4914076548e+03
    7374, -1.2779568250e+03, -9.9153043491e+02, -7.4920538243e+03
    7375, -1.4174112440e+03, -7.7926350824e+02, -7.4923726727e+03
    7376, -1.5219124456e+03, -5.4780357617e+02, -7.4925390610e+03
    7377, -1.5888809430e+03, -3.0292507137e+02, -7.4927578935e+03
    7378, 1.5211449733e+03, 5.4993110506e+02, -8.5051826579e+03
    7379, -1.6167029948e+03, -5.0770822850e+01, -7.4932525638e+03
    7380, -1.6048004161e+03, 2.0229155778e+02, -7.4943053173e+03
    7381, -1.5536629901e+03, 4.4993062047e+02, -7.4961830478e+03
    7382, 1.5497308284e+03, 4.6329322198e+02, -8.5861324693e+03
    7383, -1.1842754031e+03, 1.1017250199e+03, -7.5101751789e+03
    7384, -1.0057186911e+03, 1.2668212835e+03, -7.5322806670e+03
    7385, -9.7067568788e+02, 1.2938682155e+03, -8.4640776738e+03
    7386, -9.7823660176e+02, 1.2881612480e+03, -8.6271770915e+03
    7387, -1.5924755220e+03, 2.8342187974e+02, -9.2797181609e+03
    7388, -1.5330991193e+03, 5.1566785862e+02, -9.2885427668e+03
    7389, -1.6171506832e+03, 3.3614251013e+01, -9.2716371275e+03
    7390, -1.6021187538e+03, -2.2253482574e+02, -9.2680368068e+03
    7391, -1.5466322065e+03, -4.7353465334e+02, -9.2667342266e+03
    7392, -1.4524117984e+03, -7.1190323635e+02, -9.2667601104e+03
    7393, -1.3222404946e+03, -9.3165783663e+02, -9.2668016284e+03
    7394, -1.1587416961e+03, -1.1285494813e+03, -9.2662601996e+03
    7395, -9.6382982142e+02, -1.2989758756e+03, -9.2655413525e+03
    7396, -7.4292480835e+02, -1.4367912093e+03, -9.2696380886e+03
    7397, -5.1031156855e+02, -1.5348903391e+03, -9.2805838109e+03
    7398, -3.5464429378e+01, -1.6171111663e+03, -9.2766075700e+03
    7399, -2.7586039338e+02, -1.5938027774e+03, -9.2844123422e+03
    7400, 2.1845551495e+02, -1.6026800797e+03, -9.2705185958e+03
    7401, 4.7128513327e+02, -1.5473191569e+03, -9.2691803824e+03
    7402, 7.0800431478e+02, -1.4543163824e+03, -9.2677712576e+03
    7403, 9.2779427303e+02, -1.3249543528e+03, -9.2663085029e+03
    7404, 1.1243530621e+03, -1.1628140186e+03, -9.2659501244e+03
    7405, 1.2937008053e+03, -9.7089879819e+02, -9.2663906223e+03
    7406, -5.2653407327e+02, 1.5294012291e+03, -8.3515303627e+03
    7407, 1.3387439182e+03, -9.0778354874e+02, -8.4454804698e+03
    7408, 1.4314314780e+03, -7.5319995597e+02, -9.2660009340e+03
    7409, 1.5749597361e+03, -3.6852147800e+02, -8.2975600150e+03
    7410, 1.6008252317e+03, -2.3165670214e+02, -8.2984871755e+03
    7411, 1.6174473644e+03, -1.3048884038e+01, -9.2639352822e+03
    7412, 1.5994811873e+03, 2.4076166976e+02, -9.2657221731e+03
    7413, 1.5425206362e+03, 4.8676106755e+02, -9.2673809712e+03
    7414, 1.4485617918e+03, 7.1970479035e+02, -9.2680291983e+03
    7415, 1.1546429452e+03, 1.1327426535e+03, -9.2693055961e+03
    7416, 1.3186621300e+03, 9.3671577166e+02, -9.2682512517e+03
    7417, 1.0727185744e+03, 1.2106118743e+03, -9.1580920825e+03
    7418, -5.5708318040e+02, -1.5185402794e+03, -8.6147245016e+03
    7419, -7.0156409570e+02, -1.4574340704e+03, -8.5189183293e+03
    7420, -4.7527812081e+02, -1.5460973313e+03, -8.5073652434e+03
    7421, -7.6844022073e+02, -1.4233080753e+03, -8.6311464841e+03
    7422, -6.3932634576e+02, -1.4857887042e+03, -8.6895443117e+03
    7423, 1.0826467775e+03, 1.2017413221e+03, -8.1845888244e+03
    7424, 1.2711715781e+03, 1.0002145115e+03, -8.1499762953e+03
    7425, 1.4804022755e+03, 6.5170188955e+02, -7.6048837475e+03
    7426, 1.4278798107e+03, 7.5991150551e+02, -7.7313798295e+03
    7427, 1.5310417947e+03, 5.2174445156e+02, -7.4947946867e+03
    7428, 1.4354943321e+03, 7.4542757698e+02, -7.4950890608e+03
    7429, 1.5922246936e+03, 2.8482762362e+02, -7.5024269570e+03
    7430, 5.3521989633e+02, -1.5263832784e+03, -7.5368080246e+03
    7431, 1.6171464588e+03, 3.3816872305e+01, -7.5082229551e+03
    7432, 7.8299884975e+02, -1.4153512113e+03, -7.5140179270e+03
    7433, 1.6027910673e+03, -2.1763971249e+02, -7.5063606171e+03
    7434, 9.9593813604e+02, -1.2745248052e+03, -7.5042606091e+03
    7435, 1.1824830227e+03, -1.1036485632e+03, -7.4990849731e+03
    7436, 1.5507135441e+03, -4.5999321085e+02, -7.5026013494e+03
    7437, 1.3392026625e+03, -9.0710665240e+02, -7.4973566270e+03
    7438, 1.5896392297e+03, -2.9892033953e+02, -8.1753286393e+03
    7439, 1.4625553538e+03, -6.9082420857e+02, -7.4989492701e+03
    7440, 1.7211705738e+02, -1.6083165014e+03, -8.5885671288e+03
    7441, 2.9980644534e+02, -1.5894723481e+03, -8.4780040779e+03
    7442, 4.0551321906e+02, -1.5658433125e+03, -8.5829025191e+03
    7443, -6.7954597641e+01, -1.6160719114e+03, -7.8550870270e+03
    7444, -1.6683938331e+02, -1.6088725463e+03, -7.9844362825e+03
    7445, -1.4880247836e+03, 6.3410448151e+02, -9.1908148440e+03
    7446, -1.4490627719e+03, 7.1869557756e+02, -9.0970471251e+03
    7447, -1.4413310062e+03, 7.3407845664e+02, -9.2872720771e+03
    7448, -4.1073435027e+02, -1.5644818770e+03, -9.1799961531e+03
    7449, 1.3395388606e+03, 9.0661010961e+02, -8.2130697866e+03
    7450, 1.3691197924e+03, 8.6128813067e+02, -8.4128498446e+03
    7451, 1.3828056791e+03, 8.3913926373e+02, -8.1006303138e+03
    7452, -3.8677164466e+02, -1.5705775832e+03, -8.3844244205e+03
    7453, -9.8459609696e+02, 1.2833069687e+03, -8.7787025200e+03
    7454, -8.5643051912e+02, 1.3721636258e+03, -8.7907547753e+03
    7455, 2.8488923015e+02, -1.5922136718e+03, -8.2641071431e+03
    7456, -7.9637043202e+01, 1.6155383596e+03, -8.2961934499e+03
    7457, 1.4121025889e+03, 7.8884252451e+02, -8.9149448121e+03
    7458, 1.3964245165e+03, 8.1627496573e+02, -9.1512804501e+03
    7459, -3.1507005992e+02, 1.5865172887e+03, -8.2666159501e+03
    7460, -1.2686239942e+02, 1.6125173430e+03, -8.3790043972e+03
    7461, 3.5252905361e+02, 1.5786163297e+03, -8.3696292022e+03
    7462, 2.0610026953e+02, 1.6043157198e+03, -8.4798021529e+03
    7463, 4.3222432915e+02, 1.5586816158e+03, -8.4665397508e+03
    7464, 1.2686239942e+02, 1.6125173430e+03, -8.3909956028e+03
    7465, -2.0000972154e+02, 1.6050864031e+03, -8.4669515241e+03
    7466, -3.5551794468e+02, 1.5779458929e+03, -8.4196879837e+03
    7467, -1.0987439517e+03, 1.1870416920e+03, -8.9597284704e+03
    7468, -9.6626339941e+02, 1.2971666404e+03, -8.9399027519e+03
    7469, 2.0000972154e+02, 1.6050864031e+03, -8.3030484759e+03
    7470, -1.3759283828e+03, 8.5036894078e+02, -8.5425631698e+03
    7471, -1.4069989692e+03, 7.9790986373e+02, -8.4478188106e+03
    7472, -1.4043716289e+03, 8.0252512603e+02, -8.6484778220e+03
    7473, 1.0190592235e+03, 1.2561148630e+03, -8.0054284891e+03
    7474, 8.7401206013e+02, 1.3610323908e+03, -8.0920566680e+03
    7475, 9.4321869120e+02, 1.3140185503e+03, -8.2712170033e+03
    7476, -9.5681848728e+02, 1.3041490070e+03, -8.3114396981e+03
    7477, -9.2135728360e+02, 1.3294386056e+03, -8.1577244803e+03
    7478, -1.0673202761e+03, 1.2153738842e+03, -8.1178895765e+03
    7479, 8.3564910721e+02, 1.3849176220e+03, -7.9326213553e+03
    7480, 3.9956762987e+02, -1.5673710343e+03, -8.3593897073e+03
    7481, 6.0956885211e+02, -1.4982429925e+03, -8.3254938000e+03
    7482, 5.1805464890e+02, -1.5322942377e+03, -8.4555684687e+03
    7483, 9.6242854562e+02, 1.3000144401e+03, -8.4359576921e+03
    7484, 1.0783160758e+03, 1.2056287532e+03, -8.6708345338e+03
    7485, 6.9977605346e+02, -1.4582934290e+03, -8.1895244122e+03
    7486, 1.0732988314e+03, 1.2100974624e+03, -7.7772179801e+03
    7487, 9.6132285618e+02, 1.3008322783e+03, -7.8619683432e+03
    7488, -3.1850758876e+02, -1.5858307495e+03, -7.6094450127e+03
    7489, -2.1108517553e+02, -1.6036674526e+03, -7.7382514243e+03
    7490, 9.1803221370e+02, 1.3317368751e+03, -7.7080052233e+03
    7491, -8.7487991664e+02, 1.3604746898e+03, -8.9070878900e+03
    7492, -9.3742574887e+02, 1.3181575078e+03, -9.0667995590e+03
    7493, 1.8378830040e+02, -1.6070246142e+03, -8.3827215137e+03
    7494, 6.8318778926e+02, 1.4661380203e+03, -8.6318627217e+03
    7495, 7.8224683042e+02, 1.4157669816e+03, -8.4815538963e+03
    7496, 6.5836049350e+02, 1.4774531162e+03, -8.5211526784e+03
    7497, 1.0170266648e+02, -1.6142994820e+03, -8.4747965414e+03
    7498, 5.1636463660e+02, 1.5328645772e+03, -8.6043124766e+03
    7499, -1.1790567847e+03, 1.1073081542e+03, -9.0306068907e+03
    7500, -1.1175534508e+03, 1.1693504756e+03, -9.1681194455e+03
    7501, -1.0330529368e+03, 1.2446316241e+03, -9.0972410253e+03
    7502, -1.0041767690e+03, 1.2680438740e+03, -9.2779540923e+03
    7503, 1.1522570360e+03, 1.1351695790e+03, -7.6997254696e+03
    7504, 1.1021094628e+03, 1.1839176415e+03, -7.5923080640e+03
    7505, 1.0199861212e+03, 1.2553623233e+03, -7.6698005746e+03
    7506, 9.9732037514e+02, 1.2734434889e+03, -7.4878220451e+03
    7507, -9.6712137936e+02, 1.2965270871e+03, -7.7320496721e+03
    7508, -8.8096506474e+02, 1.3565422237e+03, -8.0386991450e+03
    7509, -9.8058138105e+02, 1.2863772406e+03, -7.9969728559e+03
    7510, -1.0656896270e+03, 1.2168039567e+03, -7.9137750411e+03
    7511, -9.3560088180e+02, 1.3194533868e+03, -7.8554697954e+03
    7512, 8.8467268718e+02, 1.3541272047e+03, -8.9533751667e+03
    7513, 9.7730593414e+02, 1.2888674723e+03, -9.0505094476e+03
    7514, -1.3859534374e+03, 8.3393004466e+02, -9.1803629568e+03
    7515, -1.3365844448e+03, 9.1096008252e+02, -9.0623603139e+03
    7516, 9.6757991394e+02, 1.2961849251e+03, -8.8299904736e+03
    7517, 1.0839169233e+03, 1.2005958327e+03, -8.9259522426e+03
    7518, 1.3700550953e+03, 8.5979956142e+02, -7.6045943161e+03
    7519, 1.2955346183e+03, 9.6845046487e+02, -7.7155976373e+03
    7520, -1.4792205891e+03, 6.5437962893e+02, -8.5730748461e+03
    7521, 6.0641761639e+02, 1.4995212318e+03, -8.7097880772e+03
    7522, -4.8727110172e+02, 1.5423595960e+03, -8.1984583291e+03
    47, 1.5000000000e+03, 2.0992219852e+02, -3.3350583342e+03
    48, 1.5000000000e+03, 5.6343561452e-13, -2.7050000000e+03
    49, 1.6175000000e+03, 5.7437662587e-13, -2.7050000000e+03
    866, 1.5000000000e+03, 3.3405798560e+02, -3.1594282637e+03
    867, 1.5000000000e+03, 3.3205452638e+02, -2.9443664088e+03
    868, 1.5000000000e+03, 2.0466832078e+02, -2.7710794504e+03
    869, 1.5000000000e+03, 2.8581478373e+02, -3.2570146267e+03
    870, 1.5000000000e+03, 3.4998481398e+02, -3.0517396343e+03
    871, 1.5000000000e+03, 2.8200167756e+02, -2.8476957457e+03
    872, 1.5000000000e+03, 1.0753559330e+02, -2.7219292925e+03
    873, 1.5587500000e+03, 4.8064700086e-13, -2.7050000000e+03
    874, 1.5881250000e+03, 4.8211533199e-13, -2.7050000000e+03
    875, 1.5293750000e+03, 4.7917866972e-13, -2.7050000000e+03
    876, 1.6043473275e+03, -2.0585427986e+02, -2.7719379020e+03
    877, 1.5828944121e+03, -3.3279353381e+02, -2.9466097095e+03
    878, 1.5828943401e+03, -3.3279408984e+02, -3.1633905704e+03
    879, 1.6043472869e+03, -2.0585415930e+02, -3.3380620193e+03
    880, 1.6174999983e+03, -8.4656582752e-06, -3.4049999920e+03
    881, 1.6043473490e+03, 2.0585453261e+02, -3.3380624375e+03
    882, 1.5828943853e+03, 3.3279370262e+02, -3.1633903810e+03
    883, 1.5828944724e+03, 3.3279320611e+02, -2.9466097785e+03
    884, 1.6043473007e+03, 2.0585403343e+02, -2.7719382390e+03
    885, 1.6138639434e+03, -1.0839348729e+02, -2.7222079802e+03
    886, 1.5925380860e+03, -2.8307014856e+02, -2.8491569732e+03
    887, 1.5791789785e+03, -3.5000000215e+02, -3.0550010987e+03
    888, 1.5925380420e+03, -2.8307037221e+02, -3.2608425604e+03
    889, 1.6138640198e+03, -1.0839365835e+02, -3.3877924827e+03
    890, 1.6138639278e+03, 1.0839477497e+02, -3.3877920452e+03
    891, 1.5925380993e+03, 2.8307002490e+02, -3.2608430212e+03
    892, 1.5791789749e+03, 3.5000002587e+02, -3.0549999345e+03
    893, 1.5925380542e+03, 2.8307026413e+02, -2.8491574377e+03
    894, 1.6138641199e+03, 1.0839376400e+02, -2.7222069127e+03
    895, 1.5000000000e+03, -2.0642759734e+02, -2.7723559711e+03
    896, 1.5000000000e+03, -3.3340301590e+02, -2.9484991597e+03
    897, 1.5000000000e+03, -3.3205452638e+02, -3.1656335912e+03
    898, 1.5000000000e+03, -2.0290115061e+02, -3.3401861201e+03
    899, 1.5000000000e+03, 4.3471054018e+00, -3.4049730028e+03
    900, 1.5000000000e+03, -1.0856930942e+02, -2.7222648124e+03
    901, 1.5000000000e+03, -2.8392054957e+02, -2.8503316792e+03
    902, 1.5000000000e+03, -3.4999325063e+02, -3.0571735946e+03
    903, 1.5000000000e+03, -2.8135660720e+02, -3.2631789124e+03
    904, 1.5000000000e+03, -1.0442826370e+02, -3.3890579856e+03
    905, 1.5000000000e+03, 1.1269360617e+02, -3.3863610586e+03
    7523, 1.5613169461e+03, -7.8888359118e+01, -2.7140064124e+03
    7524, 1.5613245499e+03, 7.8642638652e+01, -2.7139496586e+03
    7525, 1.5521736745e+03, 1.1029704079e+02, -3.3871664685e+03
    7526, 1.5521736745e+03, 2.0789360675e+02, -3.3365674844e+03
    7527, 1.5414471926e+03, 2.8460951736e+02, -3.2587091619e+03
    7528, 1.5414471700e+03, -3.4999859191e+02, -3.0559928036e+03
    7529, 1.5414472061e+03, -3.3309962054e+02, -2.9475540005e+03
    7530, 1.5414472061e+03, -2.8333893240e+02, -2.8495272539e+03
    7531, 1.5414472362e+03, 3.4999382285e+02, -3.0529205844e+03
    7532, 1.5414472362e+03, 3.3242592256e+02, -2.9454874162e+03
    7533, 1.5414472362e+03, 2.8269950005e+02, -2.8486483761e+03
    7534, 1.5414471700e+03, -2.8205745949e+02, -3.2622283512e+03
    7535, 1.5414471700e+03, -3.3242591397e+02, -3.1645126099e+03
    7536, 1.5414471926e+03, 3.3343164532e+02, -3.1614111737e+03
    7537, 1.5587499992e+03, -1.0650084556e+02, -3.3884030142e+03
    7538, 1.5587499992e+03, 2.1735904083e+00, -3.4049932507e+03
    7539, 1.5521736435e+03, -2.0438039716e+02, -3.3391278819e+03
    7540, 1.5600334730e+03, -3.9700405125e+01, -2.7072588925e+03
    7541, 1.5306584730e+03, -1.4561066755e+02, -2.7367272655e+03
    7542, 1.5828321368e+03, -1.4528799159e+02, -2.7365798381e+03
    7543, 1.5306622750e+03, 1.4450684487e+02, -2.7362245747e+03
    7544, 1.5600372750e+03, 3.9575121613e+01, -2.7072446122e+03
    7545, 1.5828359253e+03, 1.4517322553e+02, -2.7365274979e+03
    50, 1.7000000000e+03, 7.9856993365e-13, -2.7050000000e+03
    51, 1.7000000000e+03, 2.0992219852e+02, -3.3350583342e+03
    906, 1.6587500000e+03, 7.9650802184e-13, -2.7050000000e+03
    907, 1.6793750000e+03, 7.9753897775e-13, -2.7050000000e+03
    908, 1.6381250000e+03, 7.9547706594e-13, -2.7050000000e+03
    909, 1.7000000000e+03, 3.3405798560e+02, -3.1594282637e+03
    910, 1.7000000000e+03, 3.3205452638e+02, -2.9443664088e+03
    911, 1.7000000000e+03, 2.0466832078e+02, -2.7710794504e+03
    912, 1.7000000000e+03, 2.8581478373e+02, -3.2570146267e+03
    913, 1.7000000000e+03, 3.4998481398e+02, -3.0517396343e+03
    914, 1.7000000000e+03, 2.8200167756e+02, -2.8476957457e+03
    915, 1.7000000000e+03, 1.0753559330e+02, -2.7219292925e+03
    916, 1.7000000000e+03, -2.0642759734e+02, -2.7723559711e+03
    917, 1.7000000000e+03, -3.3340301590e+02, -2.9484991597e+03
    918, 1.7000000000e+03, -3.3205452638e+02, -3.1656335912e+03
    919, 1.7000000000e+03, -2.0290115061e+02, -3.3401861201e+03
    920, 1.7000000000e+03, 4.3471054018e+00, -3.4049730028e+03
    921, 1.7000000000e+03, -1.0856930942e+02, -2.7222648124e+03
    922, 1.7000000000e+03, -2.8392054957e+02, -2.8503316792e+03
    923, 1.7000000000e+03, -3.4999325063e+02, -3.0571735946e+03
    924, 1.7000000000e+03, -2.8135660720e+02, -3.2631789124e+03
    925, 1.7000000000e+03, -1.0442826370e+02, -3.3890579856e+03
    926, 1.7000000000e+03, 1.1269360617e+02, -3.3863610586e+03
    7546, 1.6793750000e+03, 1.0753559330e+02, -2.7219292925e+03
    7547, 1.6793750000e+03, -1.0856930942e+02, -2.7222648124e+03
    7548, 1.6521736504e+03, 2.8243465789e+02, -2.8482860333e+03
    7549, 1.6414472362e+03, 3.3242592256e+02, -2.9454874162e+03
    7550, 1.6414472362e+03, 3.4999382285e+02, -3.0529205844e+03
    7551, 1.6418611637e+03, -1.5916153000e+02, -2.7432828087e+03
    7552, 1.6896875000e+03, -1.5947740863e+02, -2.7434442969e+03
    7553, 1.6521736637e+03, -2.0614098736e+02, -2.7721468697e+03
    7554, 1.6521736637e+03, -2.8371292180e+02, -2.8500439608e+03
    7555, 1.6521736745e+03, 2.8434793366e+02, -3.2590741351e+03
    7556, 1.6414471926e+03, 3.3343164532e+02, -3.1614111737e+03
    7557, 1.6521736435e+03, -2.8243461630e+02, -3.2617140235e+03
    7558, 1.6414471700e+03, -3.3242591397e+02, -3.1645126099e+03
    7559, 1.6414471700e+03, -3.4999859191e+02, -3.0559928036e+03
    7560, 1.6414472061e+03, -3.3309962054e+02, -2.9475540005e+03
    7561, 1.6587499992e+03, -1.0650084556e+02, -3.3884030142e+03
    7562, 1.6521736435e+03, -2.0438039716e+02, -3.3391278819e+03
    7563, 1.6521736745e+03, 2.0789360675e+02, -3.3365674844e+03
    7564, 1.6521736745e+03, 1.1029704079e+02, -3.3871664685e+03
    7565, 1.6587499992e+03, 2.1735904083e+00, -3.4049932507e+03
    7566, 1.6690625000e+03, 5.4430011875e+01, -2.7092582267e+03
    7567, 1.6896875000e+03, 1.5802454081e+02, -2.7427048760e+03
    7568, 1.6418611504e+03, 1.5867734321e+02, -2.7430360586e+03
    7569, 1.6690625000e+03, -5.4966736978e+01, -2.7093431502e+03
    52, 1.7800000000e+03, 4.4408920985e-13, 1.2825000000e+03
    927, 1.7618821665e+03, -2.5332041213e+02, 1.2825000000e+03
    928, 1.7078974930e+03, -5.0148395118e+02, 1.2825000000e+03
    929, 1.6191449517e+03, -7.3943872314e+02, 1.2825000000e+03
    930, 1.4974312884e+03, -9.6234065507e+02, 1.2825000000e+03
    931, 1.3452342424e+03, -1.1656521064e+03, 1.2825000000e+03
    932, 1.1656521064e+03, -1.3452342424e+03, 1.2825000000e+03
    933, 9.6234065507e+02, -1.4974312884e+03, 1.2825000000e+03
    934, 7.3943872314e+02, -1.6191449517e+03, 1.2825000000e+03
    935, 5.0148395118e+02, -1.7078974930e+03, 1.2825000000e+03
    936, 2.5332041213e+02, -1.7618821665e+03, 1.2825000000e+03
    937, 9.1538834841e-12, -1.7800000000e+03, 1.2825000000e+03
    938, -2.5332041213e+02, -1.7618821665e+03, 1.2825000000e+03
    939, -5.0148395118e+02, -1.7078974930e+03, 1.2825000000e+03
    940, -7.3943872314e+02, -1.6191449517e+03, 1.2825000000e+03
    941, -9.6234065507e+02, -1.4974312884e+03, 1.2825000000e+03
    942, -1.1656521064e+03, -1.3452342424e+03, 1.2825000000e+03
    943, -1.3452342424e+03, -1.1656521064e+03, 1.2825000000e+03
    944, -1.4974312884e+03, -9.6234065507e+02, 1.2825000000e+03
    945, -1.6191449517e+03, -7.3943872314e+02, 1.2825000000e+03
    946, -1.7078974930e+03, -5.0148395118e+02, 1.2825000000e+03
    947, -1.7618821665e+03, -2.5332041213e+02, 1.2825000000e+03
    948, -1.7800000000e+03, -9.3573430690e-12, 1.2825000000e+03
    949, -1.7618821665e+03, 2.5332041213e+02, 1.2825000000e+03
    950, -1.7078974930e+03, 5.0148395118e+02, 1.2825000000e+03
    951, -1.6191449517e+03, 7.3943872314e+02, 1.2825000000e+03
    952, -1.4974312884e+03, 9.6234065507e+02, 1.2825000000e+03
    953, -1.3452342424e+03, 1.1656521064e+03, 1.2825000000e+03
    954, -1.1656521064e+03, 1.3452342424e+03, 1.2825000000e+03
    955, -9.6234065507e+02, 1.4974312884e+03, 1.2825000000e+03
    956, -7.3943872314e+02, 1.6191449517e+03, 1.2825000000e+03
    957, -5.0148395118e+02, 1.7078974930e+03, 1.2825000000e+03
    958, -2.5332041213e+02, 1.7618821665e+03, 1.2825000000e+03
    959, -1.1932239034e-11, 1.7800000000e+03, 1.2825000000e+03
    960, 2.5332041213e+02, 1.7618821665e+03, 1.2825000000e+03
    961, 5.0148395118e+02, 1.7078974930e+03, 1.2825000000e+03
    962, 7.3943872314e+02, 1.6191449517e+03, 1.2825000000e+03
    963, 9.6234065507e+02, 1.4974312884e+03, 1.2825000000e+03
    964, 1.1656521064e+03, 1.3452342424e+03, 1.2825000000e+03
    965, 1.3452342424e+03, 1.1656521064e+03, 1.2825000000e+03
    966, 1.4974312884e+03, 9.6234065507e+02, 1.2825000000e+03
    967, 1.6191449517e+03, 7.3943872314e+02, 1.2825000000e+03
    968, 1.7078974930e+03, 5.0148395118e+02, 1.2825000000e+03
    969, 1.7618821665e+03, 2.5332041213e+02, 1.2825000000e+03
    970, 1.7754647640e+03, -1.2698374609e+02, 1.2825000000e+03
    971, 1.7393214214e+03, -3.7836621540e+02, 1.2825000000e+03
    972, 1.6677705105e+03, -6.2204623969e+02, 1.2825000000e+03
    973, 1.5622686014e+03, -8.5306319636e+02, 1.2825000000e+03
    974, 1.4249634088e+03, -1.0667142464e+03, 1.2825000000e+03
    975, 1.2586500705e+03, -1.2586500705e+03, 1.2825000000e+03
    976, 1.0667142464e+03, -1.4249634088e+03, 1.2825000000e+03
    977, 8.5306319636e+02, -1.5622686014e+03, 1.2825000000e+03
    978, 6.2204623969e+02, -1.6677705105e+03, 1.2825000000e+03
    979, 3.7836621540e+02, -1.7393214214e+03, 1.2825000000e+03
    980, 1.2698374609e+02, -1.7754647640e+03, 1.2825000000e+03
    981, -1.2698374609e+02, -1.7754647640e+03, 1.2825000000e+03
    982, -3.7836621540e+02, -1.7393214214e+03, 1.2825000000e+03
    983, -6.2204623969e+02, -1.6677705105e+03, 1.2825000000e+03
    984, -8.5306319636e+02, -1.5622686014e+03, 1.2825000000e+03
    985, -1.0667142464e+03, -1.4249634088e+03, 1.2825000000e+03
    986, -1.2586500705e+03, -1.2586500705e+03, 1.2825000000e+03
    987, -1.4249634088e+03, -1.0667142464e+03, 1.2825000000e+03
    988, -1.5622686014e+03, -8.5306319636e+02, 1.2825000000e+03
    989, -1.6677705105e+03, -6.2204623969e+02, 1.2825000000e+03
    990, -1.7393214214e+03, -3.7836621540e+02, 1.2825000000e+03
    991, -1.7754647640e+03, -1.2698374609e+02, 1.2825000000e+03
    992, -1.7754647640e+03, 1.2698374609e+02, 1.2825000000e+03
    993, -1.7393214214e+03, 3.7836621540e+02, 1.2825000000e+03
    994, -1.6677705105e+03, 6.2204623969e+02, 1.2825000000e+03
    995, -1.5622686014e+03, 8.5306319636e+02, 1.2825000000e+03
    996, -1.4249634088e+03, 1.0667142464e+03, 1.2825000000e+03
    997, -1.2586500705e+03, 1.2586500705e+03, 1.2825000000e+03
    998, -1.0667142464e+03, 1.4249634088e+03, 1.2825000000e+03
    999, -8.5306319636e+02, 1.5622686014e+03, 1.2825000000e+03
    1000, -6.2204623969e+02, 1.6677705105e+03, 1.2825000000e+03
    1001, -3.7836621540e+02, 1.7393214214e+03, 1.2825000000e+03
    1002, -1.2698374609e+02, 1.7754647640e+03, 1.2825000000e+03
    1003, 1.2698374609e+02, 1.7754647640e+03, 1.2825000000e+03
    1004, 3.7836621540e+02, 1.7393214214e+03, 1.2825000000e+03
    1005, 6.2204623969e+02, 1.6677705105e+03, 1.2825000000e+03
    1006, 8.5306319636e+02, 1.5622686014e+03, 1.2825000000e+03
    1007, 1.0667142464e+03, 1.4249634088e+03, 1.2825000000e+03
    1008, 1.2586500705e+03, 1.2586500705e+03, 1.2825000000e+03
    1009, 1.4249634088e+03, 1.0667142464e+03, 1.2825000000e+03
    1010, 1.5622686014e+03, 8.5306319636e+02, 1.2825000000e+03
    1011, 1.6677705105e+03, 6.2204623969e+02, 1.2825000000e+03
    1012, 1.7393214214e+03, 3.7836621540e+02, 1.2825000000e+03
    1013, 1.7754647640e+03, 1.2698374609e+02, 1.2825000000e+03
    7570, -1.8892698194e+02, 1.7004791865e+03, 1.2825000000e+03
    7571, 1.8892698194e+02, -1.7004791865e+03, 1.2825000000e+03
    7572, -1.8892698194e+02, -1.7004791865e+03, 1.2825000000e+03
    7573, 1.8892698194e+02, 1.7004791865e+03, 1.2825000000e+03
    7574, 2.2112369703e+02, -1.7311806765e+03, 1.2825000000e+03
    7575, 9.4463490970e+01, -1.7402395933e+03, 1.2825000000e+03
    7576, -9.4463490970e+01, -1.7402395933e+03, 1.2825000000e+03
    7577, -2.2112369703e+02, -1.7311806765e+03, 1.2825000000e+03
    7578, -2.2112369703e+02, 1.7311806765e+03, 1.2825000000e+03
    7579, -9.4463490970e+01, 1.7402395933e+03, 1.2825000000e+03
    7580, 9.4463490970e+01, 1.7402395933e+03, 1.2825000000e+03
    7581, 2.2112369703e+02, 1.7311806765e+03, 1.2825000000e+03
    7582, 1.2444897305e+03, 1.1546986625e+03, 1.2825000000e+03
    7583, 1.4030081384e+03, 9.5654165033e+02, 1.2825000000e+03
    7584, -1.2444897305e+03, -1.1546986625e+03, 1.2825000000e+03
    7585, -1.4030081384e+03, -9.5654165033e+02, 1.2825000000e+03
    7586, 1.4030081384e+03, -9.5654165033e+02, 1.2825000000e+03
    7587, 1.2444897305e+03, -1.1546986625e+03, 1.2825000000e+03
    7588, -1.4030081384e+03, 9.5654165033e+02, 1.2825000000e+03
    7589, -1.2444897305e+03, 1.1546986625e+03, 1.2825000000e+03
    7590, 1.0581973760e+03, 1.3269096154e+03, 1.2825000000e+03
    7591, -1.0581973760e+03, 1.3269096154e+03, 1.2825000000e+03
    7592, -1.0581973760e+03, -1.3269096154e+03, 1.2825000000e+03
    7593, 1.0581973760e+03, -1.3269096154e+03, 1.2825000000e+03
    7594, -2.2097986457e+02, 1.6490325387e+03, 1.2825000000e+03
    7595, -3.6379788071e-12, 1.6987500000e+03, 1.2825000000e+03
    7596, 2.2097986457e+02, 1.6490325387e+03, 1.2825000000e+03
    7597, 2.2097986457e+02, -1.6490325387e+03, 1.2825000000e+03
    7598, 3.4106051316e-12, -1.6987500000e+03, 1.2825000000e+03
    7599, -2.2097986457e+02, -1.6490325387e+03, 1.2825000000e+03
    7600, -1.6231157041e+03, 5.0065946979e+02, 1.2825000000e+03
    7601, -1.6797340287e+03, 2.5317657966e+02, 1.2825000000e+03
    7602, -1.5301740023e+03, 7.3688417824e+02, 1.2825000000e+03
    7603, -8.4833514420e+02, 1.4693171707e+03, 1.2825000000e+03
    7604, -6.1963685577e+02, 1.5787394334e+03, 1.2825000000e+03
    7605, -3.7725834919e+02, 1.6527416920e+03, 1.2825000000e+03
    7606, 3.7725834919e+02, 1.6527416920e+03, 1.2825000000e+03
    7607, 6.1963685577e+02, 1.5787394334e+03, 1.2825000000e+03
    7608, 8.4833514420e+02, 1.4693171707e+03, 1.2825000000e+03
    7609, 1.5301740023e+03, 7.3688417824e+02, 1.2825000000e+03
    7610, 1.6231157041e+03, 5.0065946979e+02, 1.2825000000e+03
    7611, 1.6797340287e+03, 2.5317657966e+02, 1.2825000000e+03
    7612, 1.6231157041e+03, -5.0065946979e+02, 1.2825000000e+03
    7613, 1.6797340287e+03, -2.5317657966e+02, 1.2825000000e+03
    7614, 1.5301740023e+03, -7.3688417824e+02, 1.2825000000e+03
    7615, 8.4833514420e+02, -1.4693171707e+03, 1.2825000000e+03
    7616, 6.1963685577e+02, -1.5787394334e+03, 1.2825000000e+03
    7617, 3.7725834919e+02, -1.6527416920e+03, 1.2825000000e+03
    7618, -3.7725834919e+02, -1.6527416920e+03, 1.2825000000e+03
    7619, -6.1963685577e+02, -1.5787394334e+03, 1.2825000000e+03
    7620, -8.4833514420e+02, -1.4693171707e+03, 1.2825000000e+03
    7621, -1.5301740023e+03, -7.3688417824e+02, 1.2825000000e+03
    7622, -1.6231157041e+03, -5.0065946979e+02, 1.2825000000e+03
    7623, -1.6797340287e+03, -2.5317657966e+02, 1.2825000000e+03
    7624, 1.6987500000e+03, -1.4746978275e-12, 1.2825000000e+03
    7625, -1.6987500000e+03, -4.6786715345e-12, 1.2825000000e+03
*ELEMENT, TYPE=S8, ELSET=S8
    1, 62, 63, 55, 54, 66, 1014, 58, 1015, 
    2, 1, 4, 61, 53, 68, 64, 1016, 56, 
    3, 62, 54, 53, 61, 1015, 57, 1016, 65, 
    4, 63, 3, 2, 55, 67, 60, 59, 1014, 
    5, 3, 69, 73, 2, 70, 1017, 75, 60, 
    6, 6, 73, 69, 5, 74, 1017, 71, 72, 
    7, 85, 86, 78, 77, 89, 1018, 81, 1019, 
    8, 6, 5, 84, 76, 72, 87, 1020, 79, 
    9, 85, 77, 76, 84, 1019, 80, 1020, 88, 
    10, 86, 8, 7, 78, 90, 83, 82, 1018, 
    11, 7, 8, 91, 94, 83, 93, 1021, 95, 
    12, 94, 91, 4, 1, 1021, 92, 68, 96, 
    13, 5, 10, 98, 84, 105, 101, 1022, 87, 
    14, 84, 98, 99, 85, 1022, 102, 1023, 88, 
    15, 86, 85, 99, 100, 89, 1023, 103, 1024, 
    16, 8, 86, 100, 9, 90, 1024, 104, 97, 
    17, 9, 106, 91, 8, 107, 1025, 93, 97, 
    18, 106, 11, 4, 91, 108, 109, 92, 1025, 
    19, 4, 11, 111, 61, 109, 114, 1026, 64, 
    20, 61, 111, 112, 62, 1026, 115, 1027, 65, 
    21, 63, 62, 112, 113, 66, 1027, 116, 1028, 
    22, 3, 63, 113, 12, 67, 1028, 117, 110, 
    23, 3, 12, 118, 69, 110, 120, 1029, 70, 
    24, 69, 118, 10, 5, 1029, 119, 105, 71, 
    25, 123, 124, 130, 131, 127, 1030, 134, 1031, 
    26, 16, 130, 124, 15, 133, 1030, 128, 129, 
    27, 123, 131, 132, 122, 1031, 135, 1032, 126, 
    28, 122, 132, 14, 13, 1032, 136, 121, 125, 
    29, 14, 141, 138, 13, 142, 1033, 139, 121, 
    30, 141, 18, 17, 138, 143, 137, 140, 1033, 
    31, 146, 147, 152, 153, 150, 1034, 156, 1035, 
    32, 18, 152, 147, 17, 155, 1034, 151, 137, 
    33, 146, 153, 154, 145, 1035, 157, 1036, 149, 
    34, 145, 154, 20, 19, 1036, 158, 144, 148, 
    35, 159, 162, 16, 15, 1037, 163, 129, 160, 
    36, 19, 20, 162, 159, 144, 164, 1037, 161, 
    37, 166, 22, 19, 159, 168, 169, 161, 1038, 
    38, 21, 166, 159, 15, 167, 1038, 160, 165, 
    39, 17, 147, 170, 23, 151, 1039, 173, 177, 
    40, 147, 146, 171, 170, 150, 1040, 174, 1039, 
    41, 19, 22, 172, 145, 169, 176, 1041, 148, 
    42, 171, 146, 145, 172, 1040, 149, 1041, 175, 
    43, 138, 178, 24, 13, 1042, 179, 181, 139, 
    44, 17, 23, 178, 138, 177, 180, 1042, 140, 
    45, 15, 124, 182, 21, 128, 1043, 185, 165, 
    46, 124, 123, 183, 182, 127, 1044, 186, 1043, 
    47, 13, 24, 184, 122, 181, 188, 1045, 125, 
    48, 183, 123, 122, 184, 1044, 126, 1045, 187, 
    49, 309, 1046, 268, 26, 1086, 1087, 270, 349, 
    50, 268, 1046, 227, 25, 1087, 1088, 267, 269, 
    51, 268, 1047, 271, 26, 1089, 1090, 310, 270, 
    52, 268, 25, 189, 1047, 269, 228, 1091, 1089, 
    53, 308, 1049, 226, 1048, 1092, 1093, 1094, 1095, 
    54, 1085, 190, 191, 1084, 1096, 230, 1097, 1098, 
    55, 1085, 1084, 273, 272, 1098, 1099, 312, 1100, 
    56, 1084, 191, 192, 1083, 1097, 231, 1101, 1102, 
    57, 1084, 1083, 274, 273, 1102, 1103, 313, 1099, 
    58, 1083, 192, 193, 1082, 1101, 232, 1104, 1105, 
    59, 1083, 1082, 275, 274, 1105, 1106, 314, 1103, 
    60, 1082, 193, 194, 1081, 1104, 233, 1107, 1108, 
    61, 1082, 1081, 276, 275, 1108, 1109, 315, 1106, 
    62, 1081, 194, 195, 1080, 1107, 234, 1110, 1111, 
    63, 1081, 1080, 277, 276, 1111, 1112, 316, 1109, 
    64, 1079, 196, 197, 1078, 1113, 236, 1114, 1115, 
    65, 1079, 1078, 279, 278, 1115, 1116, 318, 1117, 
    66, 1080, 195, 196, 1079, 1110, 235, 1113, 1118, 
    67, 1080, 1079, 278, 277, 1118, 1117, 317, 1112, 
    68, 1078, 197, 198, 1077, 1114, 237, 1119, 1120, 
    69, 1078, 1077, 280, 279, 1120, 1121, 319, 1116, 
    70, 1077, 198, 199, 1076, 1119, 238, 1122, 1123, 
    71, 1077, 1076, 281, 280, 1123, 1124, 320, 1121, 
    72, 1075, 200, 201, 1074, 1125, 240, 1126, 1127, 
    73, 1075, 1074, 283, 282, 1127, 1128, 322, 1129, 
    74, 1076, 199, 200, 1075, 1122, 239, 1125, 1130, 
    75, 1076, 1075, 282, 281, 1130, 1129, 321, 1124, 
    76, 1074, 201, 202, 1073, 1126, 241, 1131, 1132, 
    77, 1074, 1073, 284, 283, 1132, 1133, 323, 1128, 
    78, 1073, 1072, 285, 284, 1134, 1135, 324, 1133, 
    79, 1073, 202, 203, 1072, 1131, 242, 1136, 1134, 
    80, 1071, 1070, 287, 286, 1137, 1138, 326, 1139, 
    81, 1071, 204, 205, 1070, 1140, 244, 1141, 1137, 
    82, 1072, 203, 204, 1071, 1136, 243, 1140, 1142, 
    83, 1072, 1071, 286, 285, 1142, 1139, 325, 1135, 
    84, 1069, 1068, 289, 288, 1143, 1144, 328, 1145, 
    85, 1069, 206, 207, 1068, 1146, 246, 1147, 1143, 
    86, 1070, 205, 206, 1069, 1141, 245, 1146, 1148, 
    87, 1070, 1069, 288, 287, 1148, 1145, 327, 1138, 
    88, 1068, 207, 208, 1067, 1147, 247, 1149, 1150, 
    89, 1068, 1067, 290, 289, 1150, 1151, 329, 1144, 
    90, 1067, 208, 209, 1066, 1149, 248, 1152, 1153, 
    91, 1067, 1066, 291, 290, 1153, 1154, 330, 1151, 
    92, 1066, 209, 210, 1065, 1152, 249, 1155, 1156, 
    93, 1066, 1065, 292, 291, 1156, 1157, 331, 1154, 
    94, 1065, 1064, 293, 292, 1158, 1159, 332, 1157, 
    95, 1065, 210, 211, 1064, 1155, 250, 1160, 1158, 
    96, 1063, 212, 213, 1062, 1161, 252, 1162, 1163, 
    97, 1063, 1062, 295, 294, 1163, 1164, 334, 1165, 
    98, 1064, 1063, 294, 293, 1166, 1165, 333, 1159, 
    99, 1064, 211, 212, 1063, 1160, 251, 1161, 1166, 
    100, 1062, 213, 214, 1061, 1162, 253, 1167, 1168, 
    101, 1062, 1061, 296, 295, 1168, 1169, 335, 1164, 
    102, 1061, 214, 215, 1060, 1167, 254, 1170, 1171, 
    103, 1061, 1060, 297, 296, 1171, 1172, 336, 1169, 
    104, 1060, 215, 216, 1059, 1170, 255, 1173, 1174, 
    105, 1060, 1059, 298, 297, 1174, 1175, 337, 1172, 
    106, 1058, 217, 218, 1057, 1176, 257, 1177, 1178, 
    107, 1058, 1057, 300, 299, 1178, 1179, 339, 1180, 
    108, 1059, 216, 217, 1058, 1173, 256, 1176, 1181, 
    109, 1059, 1058, 299, 298, 1181, 1180, 338, 1175, 
    110, 1057, 218, 219, 1056, 1177, 258, 1182, 1183, 
    111, 1057, 1056, 301, 300, 1183, 1184, 340, 1179, 
    112, 1055, 220, 221, 1054, 1185, 260, 1186, 1187, 
    113, 1055, 1054, 303, 302, 1187, 1188, 342, 1189, 
    114, 1056, 219, 220, 1055, 1182, 259, 1185, 1190, 
    115, 1056, 1055, 302, 301, 1190, 1189, 341, 1184, 
    116, 1054, 221, 222, 1053, 1186, 261, 1191, 1192, 
    117, 1054, 1053, 304, 303, 1192, 1193, 343, 1188, 
    118, 1053, 222, 223, 1052, 1191, 262, 1194, 1195, 
    119, 1053, 1052, 305, 304, 1195, 1196, 344, 1193, 
    120, 1052, 223, 224, 1051, 1194, 263, 1197, 1198, 
    121, 1052, 1051, 306, 305, 1198, 1199, 345, 1196, 
    122, 1051, 224, 225, 1050, 1197, 264, 1200, 1201, 
    123, 1051, 1050, 307, 306, 1201, 1202, 346, 1199, 
    124, 1050, 225, 226, 1049, 1200, 265, 1093, 1203, 
    125, 1050, 1049, 308, 307, 1203, 1092, 347, 1202, 
    126, 1046, 1048, 226, 227, 1204, 1094, 266, 1088, 
    127, 1046, 309, 308, 1048, 1086, 348, 1095, 1204, 
    128, 272, 271, 1047, 1085, 311, 1090, 1205, 1100, 
    129, 190, 1085, 1047, 189, 1096, 1205, 1091, 229, 
    144, 356, 27, 365, 1206, 364, 367, 1225, 1223, 
    145, 368, 1206, 365, 28, 1224, 1225, 366, 375, 
    146, 350, 1207, 365, 27, 1219, 1226, 367, 357, 
    147, 365, 1207, 374, 28, 1226, 1218, 382, 366, 
    164, 383, 1228, 386, 29, 1248, 1244, 388, 384, 
    165, 383, 28, 374, 1228, 385, 382, 1245, 1248, 
    166, 383, 1227, 368, 28, 1234, 1242, 375, 385, 
    167, 1251, 1250, 1252, 1249, 2964, 2965, 2966, 2967, 
    168, 1259, 1258, 1260, 1257, 2968, 2969, 2970, 2971, 
    169, 1264, 1265, 1266, 1536, 2972, 2973, 2974, 2975, 
    170, 1280, 1279, 1281, 1278, 2976, 2977, 2978, 2979, 
    171, 1282, 1284, 1285, 1283, 2980, 2981, 2982, 2983, 
    172, 1291, 1290, 1292, 1289, 2984, 2985, 2986, 2987, 
    173, 1293, 1295, 1298, 1294, 2988, 2989, 2990, 2991, 
    174, 1299, 1301, 1305, 1300, 2992, 2993, 2994, 2995, 
    175, 1314, 1316, 1317, 1315, 2996, 2997, 2998, 2999, 
    176, 1395, 1313, 1322, 1312, 3000, 3001, 3002, 3003, 
    177, 1343, 1345, 1346, 1344, 3004, 3005, 3006, 3007, 
    178, 1338, 1348, 1349, 1347, 3008, 3009, 3010, 3011, 
    179, 1340, 1339, 1350, 1338, 3012, 3013, 3014, 3015, 
    180, 1341, 1342, 1305, 1334, 3016, 3017, 3018, 3019, 
    181, 1323, 1351, 1355, 1325, 3020, 3021, 3022, 3023, 
    182, 1332, 602, 603, 1333, 3024, 612, 3025, 3026, 
    183, 462, 1297, 1344, 1296, 3027, 3028, 3029, 3030, 
    184, 1387, 1386, 1388, 1385, 3031, 3032, 3033, 3034, 
    185, 1396, 1348, 1398, 1397, 3035, 3036, 3037, 3038, 
    186, 1399, 1401, 1402, 1400, 3039, 3040, 3041, 3042, 
    187, 1359, 1357, 422, 423, 3043, 3044, 452, 3045, 
    188, 1392, 1394, 1421, 1393, 3046, 3047, 3048, 3049, 
    189, 1318, 1429, 1431, 1428, 3050, 3051, 3052, 3053, 
    190, 1436, 1438, 1439, 1437, 3054, 3055, 3056, 3057, 
    191, 1459, 1461, 1463, 1460, 3058, 3059, 3060, 3061, 
    192, 1464, 1466, 1470, 1465, 3062, 3063, 3064, 3065, 
    193, 1452, 1454, 1473, 1453, 3066, 3067, 3068, 3069, 
    194, 1445, 1444, 1475, 1443, 3070, 3071, 3072, 3073, 
    195, 1479, 1481, 1484, 1480, 3074, 3075, 3076, 3077, 
    196, 1432, 1500, 1501, 1434, 3078, 3079, 3080, 3081, 
    197, 1383, 1382, 1504, 1381, 3082, 3083, 3084, 3085, 
    198, 1410, 1409, 1507, 1408, 3086, 3087, 3088, 3089, 
    199, 1476, 1381, 1504, 1477, 3090, 3084, 3091, 3092, 
    200, 1362, 1361, 1518, 1360, 3093, 3094, 3095, 3096, 
    201, 1267, 1430, 1518, 1361, 3097, 3098, 3094, 3099, 
    202, 1522, 1521, 1487, 1520, 3100, 3101, 3102, 3103, 
    203, 1523, 1525, 1526, 1524, 3104, 3105, 3106, 3107, 
    204, 1534, 1536, 1390, 1535, 3108, 3109, 3110, 3111, 
    205, 1530, 1443, 1541, 1540, 3112, 3113, 3114, 3115, 
    206, 1543, 1542, 1398, 1350, 3116, 3117, 3118, 3119, 
    207, 1527, 1529, 1546, 1528, 3120, 3121, 3122, 3123, 
    208, 1405, 1548, 1549, 1547, 3124, 3125, 3126, 3127, 
    209, 1496, 1498, 1562, 1497, 3128, 3129, 3130, 3131, 
    210, 1529, 1527, 1566, 1307, 3120, 3132, 3133, 3134, 
    211, 1255, 1327, 1326, 1256, 3135, 3136, 3137, 3138, 
    212, 1271, 1416, 1579, 1415, 3139, 3140, 3141, 3142, 
    213, 1346, 1560, 1462, 1377, 3143, 3144, 3145, 3146, 
    214, 1593, 1595, 1597, 1594, 3147, 3148, 3149, 3150, 
    215, 1512, 1511, 1502, 1510, 3151, 3152, 3153, 3154, 
    216, 1602, 1604, 1605, 1603, 3155, 3156, 3157, 3158, 
    217, 1359, 1358, 1611, 1357, 3159, 3160, 3161, 3043, 
    218, 1607, 1609, 487, 1608, 3162, 3163, 3164, 3165, 
    219, 1629, 1628, 1630, 1627, 3166, 3167, 3168, 3169, 
    220, 1625, 1599, 1600, 1631, 3170, 3171, 3172, 3173, 
    221, 1594, 1632, 1635, 1593, 3174, 3175, 3176, 3150, 
    222, 1591, 1590, 1647, 1589, 3177, 3178, 3179, 3180, 
    223, 1291, 1669, 1670, 1606, 3181, 3182, 3183, 3184, 
    224, 1645, 1648, 1639, 1646, 3185, 3186, 3187, 3188, 
    225, 1625, 1626, 1299, 1599, 3189, 3190, 3191, 3170, 
    226, 1688, 1687, 1689, 1686, 3192, 3193, 3194, 3195, 
    227, 1688, 1547, 1549, 1690, 3196, 3126, 3197, 3198, 
    228, 1695, 1694, 1696, 1693, 3199, 3200, 3201, 3202, 
    229, 1698, 1697, 1704, 1699, 3203, 3204, 3205, 3206, 
    230, 1705, 1706, 1707, 1614, 3207, 3208, 3209, 3210, 
    231, 1598, 1712, 1714, 1713, 3211, 3212, 3213, 3214, 
    232, 1620, 1716, 1717, 1715, 3215, 3216, 3217, 3218, 
    233, 1514, 1620, 1715, 1513, 3219, 3218, 3220, 3221, 
    234, 1719, 1721, 1727, 1720, 3222, 3223, 3224, 3225, 
    235, 1729, 36, 630, 1728, 3226, 632, 3227, 3228, 
    236, 1731, 1730, 1323, 1324, 3229, 3230, 3231, 3232, 
    237, 1741, 1740, 1289, 1739, 3233, 3234, 3235, 3236, 
    238, 1751, 459, 460, 1750, 3237, 491, 3238, 3239, 
    239, 1747, 1749, 1754, 1748, 3240, 3241, 3242, 3243, 
    240, 1757, 1756, 1367, 1755, 3244, 3245, 3246, 3247, 
    241, 1759, 1761, 1762, 1760, 3248, 3249, 3250, 3251, 
    242, 1324, 1736, 1764, 1731, 3252, 3253, 3254, 3232, 
    243, 1541, 1443, 1475, 1763, 3113, 3072, 3255, 3256, 
    244, 1767, 1560, 1346, 1768, 3257, 3143, 3258, 3259, 
    245, 1771, 1581, 1419, 1420, 3260, 3261, 3262, 3263, 
    246, 1771, 1420, 1776, 1772, 3263, 3264, 3265, 3266, 
    247, 1328, 1330, 1779, 1329, 3267, 3268, 3269, 3270, 
    248, 1781, 1780, 1783, 1782, 3271, 3272, 3273, 3274, 
    249, 1298, 1295, 1787, 1786, 2989, 3275, 3276, 3277, 
    250, 1793, 1795, 1796, 1794, 3278, 3279, 3280, 3281, 
    251, 1793, 1690, 1549, 1797, 3282, 3197, 3283, 3284, 
    252, 1799, 1801, 1798, 1800, 3285, 3286, 3287, 3288, 
    253, 1264, 1807, 404, 405, 3289, 3290, 434, 3291, 
    254, 1810, 1779, 1813, 1800, 3292, 3293, 3294, 3295, 
    255, 1812, 1811, 1813, 1779, 3296, 3297, 3293, 3298, 
    256, 1255, 1256, 1586, 1453, 3138, 3299, 3300, 3301, 
    257, 1677, 1582, 1820, 1819, 3302, 3303, 3304, 3305, 
    258, 1587, 1452, 1453, 1586, 3306, 3069, 3300, 3307, 
    259, 1740, 1741, 479, 1826, 3233, 3308, 3309, 3310, 
    260, 1634, 1633, 1835, 1834, 3311, 3312, 3313, 3314, 
    261, 1560, 1767, 1837, 1766, 3257, 3315, 3316, 3317, 
    262, 1838, 1840, 1841, 1839, 3318, 3319, 3320, 3321, 
    263, 1845, 1384, 1674, 1846, 3322, 3323, 3324, 3325, 
    264, 1844, 1843, 1847, 1842, 3326, 3327, 3328, 3329, 
    265, 1823, 1850, 1851, 1822, 3330, 3331, 3332, 3333, 
    266, 1365, 1785, 1853, 1784, 3334, 3335, 3336, 3337, 
    267, 427, 428, 1853, 1785, 457, 3338, 3335, 3339, 
    268, 1428, 1854, 1855, 1318, 3340, 3341, 3342, 3053, 
    269, 1838, 1852, 1856, 1840, 3343, 3344, 3345, 3318, 
    270, 1564, 1563, 1864, 1565, 3346, 3347, 3348, 3349, 
    271, 1869, 1868, 1870, 1765, 3350, 3351, 3352, 3353, 
    272, 1763, 1765, 1870, 1541, 3354, 3352, 3355, 3256, 
    273, 1740, 1742, 1291, 1289, 3356, 3357, 2987, 3234, 
    274, 1732, 1508, 1873, 1733, 3358, 3359, 3360, 3361, 
    275, 1509, 1349, 1873, 1508, 3362, 3363, 3359, 3364, 
    276, 1878, 1790, 1879, 1877, 3365, 3366, 3367, 3368, 
    277, 1283, 1544, 678, 1282, 3369, 3370, 3371, 2983, 
    278, 1586, 1585, 1882, 1587, 3372, 3373, 3374, 3307, 
    279, 1563, 1883, 1735, 1864, 3375, 3376, 3377, 3347, 
    280, 1587, 1882, 1883, 1563, 3374, 3378, 3375, 3379, 
    281, 1496, 1497, 1724, 1499, 3131, 3380, 3381, 3382, 
    282, 1453, 1474, 1635, 1255, 3383, 3384, 3385, 3301, 
    283, 1891, 1892, 1745, 1658, 3386, 3387, 3388, 3389, 
    284, 1891, 1893, 1820, 1583, 3390, 3391, 3392, 3393, 
    285, 1902, 1783, 483, 484, 3394, 3395, 515, 3396, 
    286, 1611, 1895, 1906, 1896, 3397, 3398, 3399, 3400, 
    287, 1338, 1347, 1503, 1340, 3011, 3401, 3402, 3015, 
    288, 1913, 1805, 37, 1914, 3403, 3404, 3405, 3406, 
    289, 1775, 1803, 1916, 1774, 3407, 3408, 3409, 3410, 
    290, 1915, 1918, 1689, 1917, 3411, 3412, 3413, 3414, 
    291, 1828, 1827, 1357, 1610, 3415, 3416, 3417, 3418, 
    292, 1718, 1925, 1926, 1924, 3419, 3420, 3421, 3422, 
    293, 1751, 1929, 559, 560, 3423, 3424, 599, 3425, 
    294, 1930, 522, 523, 1269, 3426, 562, 3427, 3428, 
    295, 1843, 1537, 1538, 1927, 3429, 3430, 3431, 3432, 
    296, 1838, 1839, 1936, 525, 3321, 3433, 3434, 3435, 
    297, 1360, 1938, 462, 461, 3436, 3437, 493, 3438, 
    298, 543, 1472, 1952, 542, 3439, 3440, 3441, 582, 
    299, 1472, 1953, 1954, 1952, 3442, 3443, 3444, 3440, 
    300, 1268, 524, 525, 1936, 3445, 564, 3434, 3446, 
    301, 1951, 1424, 1959, 1950, 3447, 3448, 3449, 3450, 
    302, 1389, 1960, 36, 1729, 3451, 3452, 3226, 3453, 
    303, 1353, 1354, 1871, 1964, 3454, 3455, 3456, 3457, 
    304, 1960, 1389, 1266, 1275, 3451, 3458, 3459, 3460, 
    305, 1925, 1718, 1512, 1510, 3419, 3461, 3154, 3462, 
    306, 1286, 1288, 1860, 1287, 3463, 3464, 3465, 3466, 
    307, 1711, 1320, 1507, 1409, 3467, 3468, 3087, 3469, 
    308, 1472, 1931, 1596, 1953, 3470, 3471, 3472, 3442, 
    309, 1955, 1967, 641, 642, 3473, 3474, 649, 3475, 
    310, 410, 411, 1969, 1968, 440, 3476, 3477, 3478, 
    311, 1972, 1971, 1975, 1970, 3479, 3480, 3481, 3482, 
    312, 1473, 1961, 1981, 1963, 3483, 3484, 3485, 3486, 
    313, 1471, 1359, 423, 424, 3487, 3045, 453, 3488, 
    314, 1377, 1462, 1752, 1296, 3145, 3489, 3490, 3491, 
    315, 1752, 1462, 1427, 1750, 3489, 3492, 3493, 3494, 
    316, 1425, 1427, 1462, 1426, 3495, 3492, 3496, 3497, 
    317, 1261, 1262, 623, 624, 3498, 3499, 627, 3500, 
    318, 1512, 606, 607, 1511, 3501, 616, 3502, 3151, 
    319, 1984, 1983, 401, 402, 3503, 3504, 431, 3505, 
    320, 1276, 625, 36, 1960, 3506, 629, 3452, 3507, 
    321, 1845, 1846, 1985, 1982, 3325, 3508, 3509, 3510, 
    322, 1954, 1953, 1596, 1833, 3443, 3472, 3511, 3512, 
    323, 1288, 1945, 1986, 1860, 3513, 3514, 3515, 3464, 
    324, 1262, 1261, 1989, 1263, 3498, 3516, 3517, 3518, 
    325, 1983, 1967, 1955, 401, 3519, 3473, 3520, 3504, 
    326, 1563, 1564, 538, 1992, 3346, 3521, 3522, 3523, 
    327, 1563, 1992, 1452, 1587, 3523, 3524, 3306, 3379, 
    328, 402, 403, 1993, 1984, 432, 3525, 3526, 3505, 
    329, 1639, 1638, 1994, 1646, 3527, 3528, 3529, 3187, 
    330, 1269, 2000, 459, 1930, 3530, 3531, 3532, 3428, 
    331, 406, 407, 1277, 1265, 436, 3533, 3534, 3535, 
    332, 1275, 1277, 407, 1274, 3536, 3533, 3537, 3538, 
    333, 1265, 1277, 1275, 1266, 3534, 3536, 3459, 2973, 
    334, 1453, 1473, 1963, 1474, 3068, 3486, 3539, 3383, 
    335, 1425, 559, 1929, 1427, 3540, 3424, 3541, 3495, 
    336, 1269, 523, 524, 1268, 3427, 563, 3445, 3542, 
    337, 1360, 461, 460, 1362, 3438, 492, 3543, 3096, 
    338, 1268, 1267, 2000, 1269, 3544, 3545, 3530, 3542, 
    339, 2004, 1378, 2006, 2005, 3546, 3547, 3548, 3549, 
    340, 1362, 2000, 1267, 1361, 3550, 3545, 3099, 3093, 
    341, 1984, 1991, 2008, 1983, 3551, 3552, 3553, 3503, 
    342, 407, 408, 1989, 1274, 437, 3554, 3555, 3537, 
    343, 462, 1296, 1752, 461, 3030, 3490, 3556, 493, 
    344, 2001, 2003, 2009, 2002, 3557, 3558, 3559, 3560, 
    345, 1389, 1391, 1535, 1390, 3561, 3562, 3110, 3563, 
    346, 1618, 1770, 2012, 1617, 3564, 3565, 3566, 3567, 
    347, 1274, 1276, 1960, 1275, 3568, 3507, 3460, 3538, 
    348, 1751, 1750, 1427, 1929, 3239, 3493, 3541, 3423, 
    349, 1472, 543, 544, 1931, 3439, 583, 3569, 3470, 
    350, 1750, 460, 461, 1752, 3238, 492, 3556, 3494, 
    351, 1785, 1363, 426, 427, 3570, 3571, 456, 3339, 
    352, 1362, 460, 459, 2000, 3543, 491, 3531, 3550, 
    353, 1962, 1952, 1954, 1961, 3572, 3444, 3573, 3574, 
    354, 1290, 1567, 1440, 1292, 3575, 3576, 3577, 2985, 
    355, 1961, 1954, 1833, 1981, 3573, 3512, 3578, 3484, 
    356, 1878, 1877, 1514, 1314, 3368, 3579, 3580, 3581, 
    357, 2021, 2022, 1504, 1382, 3582, 3583, 3083, 3584, 
    358, 1267, 1268, 1936, 1430, 3544, 3446, 3585, 3097, 
    359, 1620, 1514, 1877, 1621, 3219, 3579, 3586, 3587, 
    360, 1430, 1936, 1839, 1841, 3585, 3433, 3320, 3588, 
    361, 1425, 1426, 2031, 2025, 3497, 3589, 3590, 3591, 
    362, 2023, 1477, 1504, 2024, 3592, 3091, 3593, 3594, 
    363, 1962, 541, 542, 1952, 3595, 581, 3441, 3572, 
    364, 1390, 1536, 1266, 1389, 3109, 2974, 3458, 3563, 
    365, 2032, 1501, 2027, 2028, 3596, 3597, 3598, 3599, 
    366, 459, 1751, 560, 33, 3237, 3425, 600, 490, 
    367, 1958, 644, 645, 1990, 3600, 652, 3601, 3602, 
    368, 1274, 1989, 1261, 1276, 3555, 3516, 3603, 3568, 
    369, 624, 625, 1276, 1261, 628, 3506, 3603, 3500, 
    370, 1451, 2034, 469, 468, 3604, 3605, 500, 3606, 
    371, 522, 1930, 459, 33, 3426, 3532, 490, 561, 
    372, 1498, 1496, 1596, 1931, 3128, 3607, 3471, 3608, 
    373, 2037, 2036, 2038, 1540, 3609, 3610, 3611, 3612, 
    374, 2040, 1850, 1823, 2002, 3613, 3330, 3614, 3615, 
    375, 1709, 1681, 1506, 1542, 3616, 3617, 3618, 3619, 
    376, 405, 406, 1265, 1264, 435, 3535, 2972, 3291, 
    377, 1535, 2011, 2041, 1534, 3620, 3621, 3622, 3111, 
    378, 2008, 1991, 2041, 1836, 3552, 3623, 3624, 3625, 
    379, 1998, 2042, 534, 535, 3626, 3627, 574, 3628, 
    380, 1562, 1723, 1724, 1497, 3629, 3630, 3380, 3130, 
    381, 1263, 1989, 408, 409, 3517, 3554, 438, 3631, 
    382, 1968, 1263, 409, 410, 3632, 3631, 439, 3478, 
    383, 1957, 1958, 608, 609, 3633, 3634, 618, 3635, 
    384, 1956, 400, 401, 1955, 3636, 430, 3520, 3637, 
    385, 2016, 2044, 2048, 2015, 3638, 3639, 3640, 3641, 
    386, 2054, 2053, 2056, 2052, 3642, 3643, 3644, 3645, 
    387, 1958, 1957, 643, 644, 3633, 3646, 651, 3600, 
    388, 609, 31, 643, 1957, 619, 3647, 3646, 3635, 
    389, 1955, 642, 643, 1956, 3475, 650, 3648, 3637, 
    390, 1791, 2058, 1868, 1869, 3649, 3650, 3350, 3651, 
    391, 1326, 1327, 669, 668, 3136, 3652, 672, 3653, 
    392, 400, 1956, 643, 31, 3636, 3648, 3647, 429, 
    393, 2060, 2062, 2063, 2061, 3654, 3655, 3656, 3657, 
    394, 2880, 1379, 2064, 1380, 3658, 3659, 3660, 3661, 
    395, 1540, 1541, 1870, 2037, 3114, 3355, 3662, 3612, 
    396, 471, 1791, 1869, 1792, 3663, 3651, 3664, 3665, 
    397, 1506, 1681, 2076, 1680, 3617, 3666, 3667, 3668, 
    398, 1580, 1596, 1496, 1499, 3669, 3607, 3382, 3670, 
    399, 1482, 1483, 1410, 1408, 3671, 3672, 3089, 3673, 
    400, 2075, 2074, 1792, 1869, 3674, 3675, 3664, 3676, 
    401, 1251, 1249, 1440, 1567, 2967, 3677, 3576, 3678, 
    402, 2080, 2079, 1386, 1387, 3679, 3680, 3031, 3681, 
    403, 1663, 1662, 2082, 1661, 3682, 3683, 3684, 3685, 
    404, 1369, 1368, 1419, 1367, 3686, 3687, 3688, 3689, 
    405, 1617, 2012, 2083, 1670, 3566, 3690, 3691, 3692, 
    406, 2082, 2081, 2084, 1661, 3693, 3694, 3695, 3684, 
    407, 480, 1711, 1409, 479, 3696, 3469, 3697, 511, 
    408, 1410, 478, 479, 1409, 3698, 510, 3697, 3086, 
    409, 2049, 2051, 1374, 2050, 3699, 3700, 3701, 3702, 
    410, 1328, 1329, 1778, 1331, 3270, 3703, 3704, 3705, 
    411, 2013, 2014, 2088, 1778, 3706, 3707, 3708, 3709, 
    412, 1727, 1721, 1782, 1726, 3223, 3710, 3711, 3712, 
    413, 1360, 1847, 1848, 1938, 3713, 3714, 3715, 3436, 
    414, 2103, 2105, 2106, 2104, 3716, 3717, 3718, 3719, 
    415, 2107, 2108, 2112, 2111, 3720, 3721, 3722, 3723, 
    416, 1994, 2007, 1631, 1646, 3724, 3725, 3726, 3529, 
    417, 470, 469, 2034, 2058, 501, 3605, 3727, 3728, 
    418, 480, 1321, 1320, 1711, 3729, 3730, 3467, 3696, 
    419, 1645, 1646, 1631, 1600, 3188, 3726, 3172, 3731, 
    420, 1617, 1619, 1872, 1618, 3732, 3733, 3734, 3567, 
    421, 1665, 1664, 1856, 1666, 3735, 3736, 3737, 3738, 
    422, 2073, 1870, 1868, 2033, 3739, 3351, 3740, 3741, 
    423, 2058, 2034, 2033, 1868, 3727, 3742, 3740, 3650, 
    424, 1760, 1762, 1767, 1768, 3250, 3743, 3259, 3744, 
    425, 2128, 2130, 2120, 2129, 3745, 3746, 3747, 3748, 
    426, 1767, 1762, 2131, 1837, 3743, 3749, 3750, 3315, 
    427, 1327, 1255, 1635, 1632, 3135, 3385, 3175, 3751, 
    428, 2125, 2124, 1745, 2123, 3752, 3753, 3754, 3755, 
    429, 2132, 2134, 2135, 2133, 3756, 3757, 3758, 3759, 
    430, 1544, 1283, 2137, 1545, 3369, 3760, 3761, 3762, 
    431, 1283, 1285, 2141, 2137, 2982, 3763, 3764, 3760, 
    432, 2148, 2147, 1519, 2146, 3765, 3766, 3767, 3768, 
    433, 1397, 1505, 1663, 1396, 3769, 3770, 3771, 3038, 
    434, 1911, 1912, 482, 1712, 3772, 3773, 3774, 3775, 
    435, 1714, 1712, 482, 481, 3212, 3774, 513, 3776, 
    436, 1329, 1779, 1810, 1777, 3269, 3292, 3777, 3778, 
    437, 1302, 1732, 1733, 1304, 3779, 3361, 3780, 3781, 
    438, 1290, 1568, 2150, 1567, 3782, 3783, 3784, 3575, 
    439, 1440, 1441, 1667, 1442, 3785, 3786, 3787, 3788, 
    440, 2121, 2122, 1946, 1947, 3789, 3790, 3791, 3792, 
    441, 1440, 1249, 1252, 1441, 3677, 2966, 3793, 3785, 
    442, 2030, 2154, 477, 476, 3794, 3795, 508, 3796, 
    443, 1364, 1365, 1607, 1898, 3797, 3798, 3799, 3800, 
    444, 2158, 2133, 2160, 2159, 3801, 3802, 3803, 3804, 
    445, 665, 2161, 1272, 1270, 3805, 3806, 3807, 3808, 
    446, 2082, 1662, 2170, 1468, 3683, 3809, 3810, 3811, 
    447, 2174, 1673, 1675, 1917, 3812, 3813, 3814, 3815, 
    448, 2167, 2169, 1917, 1675, 3816, 3817, 3814, 3818, 
    449, 1326, 668, 39, 2176, 3653, 671, 3819, 3820, 
    450, 1262, 1263, 1968, 1590, 3518, 3632, 3821, 3822, 
    451, 2181, 2119, 1946, 2027, 3823, 3824, 3825, 3826, 
    452, 2181, 1500, 1759, 1760, 3827, 3828, 3251, 3829, 
    453, 1432, 1434, 2182, 1433, 3081, 3830, 3831, 3832, 
    454, 1835, 1633, 2008, 1836, 3312, 3833, 3625, 3834, 
    455, 1866, 1253, 1513, 1715, 3835, 3836, 3220, 3837, 
    456, 1799, 1800, 1813, 1802, 3288, 3294, 3838, 3839, 
    457, 547, 548, 1385, 2189, 587, 3840, 3841, 3842, 
    458, 2184, 2190, 1532, 1577, 3843, 3844, 3845, 3846, 
    459, 2070, 2071, 2198, 1260, 3847, 3848, 3849, 3850, 
    460, 2205, 2204, 1431, 2203, 3851, 3852, 3853, 3854, 
    461, 1342, 1341, 2210, 1748, 3016, 3855, 3856, 3857, 
    462, 1435, 2040, 1761, 1759, 3858, 3859, 3248, 3860, 
    463, 2176, 2200, 2110, 2207, 3861, 3862, 3863, 3864, 
    464, 2200, 2176, 39, 2093, 3861, 3819, 3865, 3866, 
    465, 2017, 2214, 1308, 2213, 3867, 3868, 3869, 3870, 
    466, 1463, 1647, 1969, 1966, 3871, 3872, 3873, 3874, 
    467, 1635, 1640, 1595, 1593, 3875, 3876, 3147, 3176, 
    468, 2034, 1451, 1449, 2033, 3604, 3877, 3878, 3742, 
    469, 1721, 2092, 1781, 1782, 3879, 3880, 3274, 3710, 
    470, 1705, 1455, 1456, 1706, 3881, 3882, 3883, 3207, 
    471, 1847, 1843, 1927, 1848, 3327, 3432, 3884, 3714, 
    472, 1716, 2039, 2047, 2096, 3885, 3886, 3887, 3888, 
    473, 2143, 2145, 2236, 2142, 3889, 3890, 3891, 3892, 
    474, 2235, 2234, 2237, 2233, 3893, 3894, 3895, 3896, 
    475, 2240, 1903, 2244, 2161, 3897, 3898, 3899, 3900, 
    476, 1442, 1598, 1292, 1440, 3901, 3902, 3577, 3788, 
    477, 1947, 2136, 1899, 2121, 3903, 3904, 3905, 3792, 
    478, 1320, 1855, 1485, 1507, 3906, 3907, 3908, 3468, 
    479, 1900, 1899, 2251, 1901, 3909, 3910, 3911, 3912, 
    480, 2252, 2253, 2254, 1524, 3913, 3914, 3915, 3916, 
    481, 1432, 1433, 1851, 1435, 3832, 3917, 3918, 3919, 
    482, 2105, 2103, 43, 2265, 3716, 3920, 3921, 3922, 
    483, 2266, 1928, 1923, 2267, 3923, 3924, 3925, 3926, 
    484, 1443, 1530, 1978, 1445, 3112, 3927, 3928, 3073, 
    485, 2095, 2047, 1445, 1978, 3929, 3930, 3928, 3931, 
    486, 2272, 2271, 2274, 2273, 3932, 3933, 3934, 3935, 
    487, 2061, 2276, 2192, 2060, 3936, 3937, 3938, 3657, 
    488, 2230, 2141, 1803, 1775, 3939, 3940, 3407, 3941, 
    489, 2147, 1545, 2137, 2151, 3942, 3761, 3943, 3944, 
    490, 1692, 1769, 1607, 1608, 3945, 3946, 3165, 3947, 
    491, 1968, 1969, 1647, 1590, 3477, 3872, 3178, 3821, 
    492, 1612, 1613, 2281, 2279, 3948, 3949, 3950, 3951, 
    493, 2285, 2286, 2287, 2227, 3952, 3953, 3954, 3955, 
    494, 2229, 2228, 2285, 2227, 3956, 3957, 3955, 3958, 
    495, 2282, 2284, 2288, 2283, 3959, 3960, 3961, 3962, 
    496, 1942, 1879, 1790, 1788, 3963, 3366, 3964, 3965, 
    497, 1703, 2293, 1502, 1511, 3966, 3967, 3152, 3968, 
    498, 1299, 1980, 1601, 1599, 3969, 3970, 3971, 3191, 
    499, 1574, 2301, 2302, 2300, 3972, 3973, 3974, 3975, 
    500, 538, 539, 2310, 1992, 578, 3976, 3977, 3522, 
    501, 2298, 2299, 2313, 1482, 3978, 3979, 3980, 3981, 
    502, 1684, 1685, 2316, 1683, 3982, 3983, 3984, 3985, 
    503, 2314, 2315, 2318, 2317, 3986, 3987, 3988, 3989, 
    504, 1738, 1746, 2321, 1737, 3990, 3991, 3992, 3993, 
    505, 1491, 2303, 1904, 1776, 3994, 3995, 3996, 3997, 
    506, 2323, 2218, 2219, 2322, 3998, 3999, 4000, 4001, 
    507, 1728, 630, 37, 1805, 3227, 631, 3404, 4002, 
    508, 1944, 2326, 1393, 2327, 4003, 4004, 4005, 4006, 
    509, 1943, 1708, 2326, 1944, 4007, 4008, 4003, 4009, 
    510, 1698, 1699, 2332, 2331, 3206, 4010, 4011, 4012, 
    511, 1322, 2157, 417, 418, 4013, 4014, 447, 4015, 
    512, 1272, 1273, 1416, 1271, 4016, 4017, 3139, 4018, 
    513, 1778, 2088, 1894, 1331, 3708, 4019, 4020, 3704, 
    514, 2343, 2344, 2345, 2283, 4021, 4022, 4023, 4024, 
    515, 2351, 2350, 2234, 2235, 4025, 4026, 3893, 4027, 
    516, 2354, 2353, 2355, 2352, 4028, 4029, 4030, 4031, 
    517, 2358, 2357, 2359, 2356, 4032, 4033, 4034, 4035, 
    518, 1403, 1486, 1827, 1828, 4036, 4037, 3415, 4038, 
    519, 2360, 2364, 2365, 2158, 4039, 4040, 4041, 4042, 
    520, 1323, 1325, 2295, 1324, 3023, 4043, 4044, 3231, 
    521, 1580, 1771, 1772, 1939, 4045, 3266, 4046, 4047, 
    522, 2377, 2379, 2380, 2378, 4048, 4049, 4050, 4051, 
    523, 1671, 1672, 2203, 1431, 4052, 4053, 3853, 4054, 
    524, 2384, 2143, 2175, 2383, 4055, 4056, 4057, 4058, 
    525, 1304, 1733, 2381, 1719, 3780, 4059, 4060, 4061, 
    526, 2186, 1841, 1840, 2388, 4062, 3319, 4063, 4064, 
    527, 1856, 1664, 2388, 1840, 3736, 4065, 4063, 3345, 
    528, 1938, 1848, 463, 462, 3715, 4066, 494, 3437, 
    529, 1927, 2242, 463, 1848, 4067, 4068, 4066, 3884, 
    530, 1594, 669, 1327, 1632, 4069, 3652, 3751, 3174, 
    531, 2268, 2373, 2309, 2270, 4070, 4071, 4072, 4073, 
    532, 1859, 1446, 1447, 2278, 4074, 4075, 4076, 4077, 
    533, 2390, 1995, 1488, 1489, 4078, 4079, 4080, 4081, 
    534, 2396, 1376, 1374, 2051, 4082, 4083, 3700, 4084, 
    535, 2398, 2397, 2400, 2399, 4085, 4086, 4087, 4088, 
    536, 2019, 2018, 2401, 1916, 4089, 4090, 4091, 4092, 
    537, 1734, 1998, 2403, 1999, 4093, 4094, 4095, 4096, 
    538, 1998, 535, 536, 2403, 3628, 575, 4097, 4094, 
    539, 2334, 2409, 2234, 2350, 4098, 4099, 4026, 4100, 
    540, 2405, 2407, 2410, 2406, 4101, 4102, 4103, 4104, 
    541, 2255, 2411, 2412, 2375, 4105, 4106, 4107, 4108, 
    542, 2256, 2257, 2411, 2255, 4109, 4110, 4105, 4111, 
    543, 1280, 2278, 1447, 1279, 4112, 4076, 4113, 2976, 
    544, 1340, 1503, 1510, 1502, 3402, 4114, 3153, 4115, 
    545, 1503, 1509, 1925, 1510, 4116, 4117, 3462, 4114, 
    546, 2191, 2415, 2104, 2106, 4118, 4119, 3718, 4120, 
    547, 1447, 1446, 2417, 1448, 4075, 4121, 4122, 4123, 
    548, 1889, 1887, 1331, 1894, 4124, 4125, 4020, 4126, 
    549, 1887, 2333, 1328, 1331, 4127, 4128, 3705, 4125, 
    550, 1723, 1758, 1755, 1725, 4129, 4130, 4131, 4132, 
    551, 2306, 2305, 2430, 2001, 4133, 4134, 4135, 4136, 
    552, 2070, 2042, 1998, 2072, 4137, 3626, 4138, 4139, 
    553, 1887, 1888, 2239, 1890, 4140, 4141, 4142, 4143, 
    554, 1728, 1804, 1818, 1806, 4144, 4145, 4146, 4147, 
    555, 1783, 1880, 482, 483, 4148, 4149, 514, 3395, 
    556, 1880, 2433, 481, 482, 4150, 4151, 513, 4149, 
    557, 546, 547, 2189, 1578, 586, 3842, 4152, 4153, 
    558, 1894, 1619, 1617, 1889, 4154, 3732, 4155, 4126, 
    559, 2079, 2080, 2435, 2434, 3679, 4156, 4157, 4158, 
    560, 2188, 473, 472, 2438, 4159, 504, 4160, 4161, 
    561, 1802, 2438, 1792, 2074, 4162, 4163, 3675, 4164, 
    562, 475, 474, 1812, 1808, 506, 4165, 4166, 4167, 
    563, 1679, 1753, 1326, 2176, 4168, 4169, 3820, 4170, 
    564, 2087, 2085, 2445, 2116, 4171, 4172, 4173, 4174, 
    565, 1289, 1713, 1714, 1739, 4175, 3213, 4176, 3235, 
    566, 1598, 1713, 1289, 1292, 3214, 4175, 2986, 3902, 
    567, 2241, 464, 463, 2242, 4177, 495, 4068, 4178, 
    568, 1343, 1356, 2059, 1948, 4179, 4180, 4181, 4182, 
    569, 2293, 1703, 1990, 2294, 3966, 4183, 4184, 4185, 
    570, 2231, 2232, 1881, 2127, 4186, 4187, 4188, 4189, 
    571, 2232, 2433, 1880, 1881, 4190, 4150, 4191, 4187, 
    572, 1728, 1805, 1913, 1804, 4002, 3403, 4192, 4144, 
    573, 2296, 1448, 2417, 2446, 4193, 4122, 4194, 4195, 
    574, 525, 526, 1852, 1838, 565, 4196, 3343, 3435, 
    575, 2437, 1852, 526, 527, 4197, 4196, 566, 4198, 
    576, 1591, 623, 1262, 1590, 4199, 3499, 3822, 3177, 
    577, 1847, 1360, 1518, 1842, 3713, 3095, 4200, 3328, 
    578, 2001, 2430, 2451, 2003, 4135, 4201, 4202, 3557, 
    579, 2449, 2450, 2452, 2448, 4203, 4204, 4205, 4206, 
    580, 1286, 1287, 472, 473, 3466, 4207, 504, 4208, 
    581, 1422, 1424, 1951, 1423, 4209, 3447, 4210, 4211, 
    582, 1451, 1450, 2453, 1449, 4212, 4213, 4214, 3877, 
    583, 2092, 2084, 2081, 1781, 4215, 3694, 4216, 3880, 
    584, 2070, 533, 534, 2042, 4217, 573, 3627, 4137, 
    585, 1614, 1616, 2454, 1615, 4218, 4219, 4220, 4221, 
    586, 1356, 1297, 462, 463, 4222, 3027, 494, 4223, 
    587, 1614, 1615, 655, 40, 4221, 4224, 657, 4225, 
    588, 1397, 1506, 1680, 1505, 4226, 3668, 4227, 3769, 
    589, 1663, 1505, 1680, 1662, 3770, 4227, 4228, 3682, 
    590, 1353, 1964, 2014, 1965, 3457, 4229, 4230, 4231, 
    591, 1984, 1993, 2041, 1991, 3526, 4232, 3623, 3551, 
    592, 1729, 2201, 1391, 1389, 4233, 4234, 3561, 3453, 
    593, 1570, 1569, 2456, 1571, 4235, 4236, 4237, 4238, 
    594, 1899, 2136, 2059, 2251, 3904, 4239, 4240, 3910, 
    595, 1948, 2059, 2136, 1947, 4181, 4239, 3903, 4241, 
    596, 2031, 1837, 2131, 2319, 4242, 3750, 4243, 4244, 
    597, 1417, 1418, 645, 646, 4245, 4246, 653, 4247, 
    598, 2319, 2131, 2009, 2003, 4243, 4248, 3558, 4249, 
    599, 1570, 1571, 2461, 2458, 4238, 4250, 4251, 4252, 
    600, 1761, 2009, 2131, 1762, 4253, 4248, 3749, 3249, 
    601, 1260, 1258, 533, 2070, 2969, 4254, 4217, 3850, 
    602, 559, 1425, 2025, 558, 3540, 3591, 4255, 598, 
    603, 1475, 1941, 2075, 1763, 4256, 4257, 4258, 3255, 
    604, 2465, 2177, 1303, 1720, 4259, 4260, 4261, 4262, 
    605, 1719, 1720, 1303, 1304, 3225, 4261, 4263, 4061, 
    606, 1513, 1316, 1314, 1514, 4264, 2996, 3580, 3221, 
    607, 403, 404, 1807, 1993, 433, 3290, 4265, 3525, 
    608, 1535, 1391, 2202, 2468, 3562, 4266, 4267, 4268, 
    609, 473, 2188, 1813, 1811, 4159, 4269, 3297, 4270, 
    610, 1467, 1469, 2082, 1468, 4271, 4272, 3811, 4273, 
    611, 2081, 2082, 1469, 2126, 3693, 4272, 4274, 4275, 
    612, 1663, 2149, 1873, 1396, 4276, 4277, 4278, 3771, 
    613, 1733, 1873, 2149, 2381, 3360, 4277, 4279, 4059, 
    614, 1499, 1724, 1722, 1581, 3381, 4280, 4281, 4282, 
    615, 2084, 2092, 2381, 2149, 4215, 4283, 4279, 4284, 
    616, 2058, 1791, 471, 470, 3649, 3663, 502, 3728, 
    617, 1924, 1926, 1302, 1333, 3421, 4285, 4286, 4287, 
    618, 1329, 1777, 2013, 1778, 3778, 4288, 3709, 3703, 
    619, 1565, 537, 538, 1564, 4289, 577, 3521, 3349, 
    620, 2093, 1615, 2454, 2200, 4290, 4220, 4291, 3866, 
    621, 2310, 1454, 1452, 1992, 4292, 3066, 3524, 3977, 
    622, 1931, 544, 545, 1498, 3569, 584, 4293, 3608, 
    623, 2470, 2469, 2472, 2416, 4294, 4295, 4296, 4297, 
    624, 1788, 1790, 2013, 1789, 3964, 4298, 4299, 4300, 
    625, 2177, 1974, 2473, 1303, 4301, 4302, 4303, 4260, 
    626, 487, 488, 1974, 2177, 519, 4304, 4301, 4305, 
    627, 1808, 1812, 1779, 1330, 4166, 3298, 3268, 4306, 
    628, 488, 489, 1973, 1974, 520, 4307, 4308, 4304, 
    629, 2406, 2410, 2466, 2474, 4103, 4309, 4310, 4311, 
    630, 1499, 1581, 1771, 1580, 4282, 3260, 4045, 3670, 
    631, 1318, 1319, 2231, 1429, 4312, 4313, 4314, 3050, 
    632, 2441, 2442, 2481, 2443, 4315, 4316, 4317, 4318, 
    633, 2459, 2462, 2364, 2360, 4319, 4320, 4039, 4321, 
    634, 1348, 1396, 1873, 1349, 3035, 4278, 3363, 3009, 
    635, 1765, 1763, 2075, 1869, 3354, 4258, 3676, 3353, 
    636, 1720, 1727, 486, 2465, 3224, 4322, 4323, 4262, 
    637, 2177, 2465, 486, 487, 4259, 4323, 518, 4305, 
    638, 1852, 2437, 1666, 1856, 4197, 4324, 3737, 3344, 
    639, 2155, 2333, 1887, 1890, 4325, 4127, 4143, 4326, 
    640, 1905, 1772, 1776, 1904, 4327, 3265, 3996, 4328, 
    641, 1404, 2166, 2483, 2165, 4329, 4330, 4331, 4332, 
    642, 1810, 1789, 2013, 1777, 4333, 4299, 4288, 3777, 
    643, 1304, 1303, 2473, 1302, 4263, 4303, 4334, 3781, 
    644, 2487, 2486, 2488, 2485, 4335, 4336, 4337, 4338, 
    645, 669, 1594, 1597, 670, 4069, 3149, 4339, 673, 
    646, 2029, 1809, 1808, 1330, 4340, 4341, 4306, 4342, 
    647, 2443, 2481, 2489, 2484, 4317, 4343, 4344, 4345, 
    648, 2185, 2186, 1832, 2187, 4346, 4347, 4348, 4349, 
    649, 605, 1718, 1924, 604, 4350, 3422, 4351, 614, 
    650, 1254, 2436, 1317, 1316, 4352, 4353, 2997, 4354, 
    651, 1272, 1271, 2490, 1270, 4018, 4355, 4356, 3807, 
    652, 2059, 1356, 463, 464, 4180, 4223, 495, 4357, 
    653, 2434, 2491, 1386, 2079, 4358, 4359, 3680, 4158, 
    654, 2232, 2463, 481, 2433, 4360, 4361, 4151, 4190, 
    655, 2127, 2492, 1429, 2231, 4362, 4363, 4314, 4189, 
    656, 1431, 1429, 2492, 1671, 3051, 4363, 4364, 4054, 
    657, 1826, 2431, 2239, 1740, 4365, 4366, 4367, 3310, 
    658, 2155, 2030, 2029, 2333, 4368, 4369, 4370, 4325, 
    659, 1330, 1328, 2333, 2029, 3267, 4128, 4370, 4342, 
    660, 1825, 2498, 552, 2497, 4371, 4372, 4373, 4374, 
    661, 1880, 1783, 1780, 1881, 4148, 3272, 4375, 4191, 
    662, 2127, 1881, 1780, 2126, 4188, 4375, 4376, 4377, 
    663, 2186, 2185, 1430, 1841, 4346, 4378, 3588, 4062, 
    664, 2187, 1518, 1430, 2185, 4379, 3098, 4378, 4349, 
    665, 2496, 2495, 1937, 2494, 4380, 4381, 4382, 4383, 
    666, 2502, 2501, 2503, 2500, 4384, 4385, 4386, 4387, 
    667, 665, 1270, 2490, 41, 3808, 4356, 4388, 667, 
    668, 1498, 545, 546, 1562, 4293, 585, 4389, 3129, 
    669, 1723, 1562, 546, 1578, 3629, 4389, 4153, 4390, 
    670, 2482, 2437, 527, 528, 4391, 4198, 567, 4392, 
    671, 1652, 2477, 2507, 2476, 4393, 4394, 4395, 4396, 
    672, 1882, 2277, 1735, 1883, 4397, 4398, 3376, 3378, 
    673, 2012, 1770, 1311, 1309, 3565, 4399, 4400, 4401, 
    674, 1309, 1311, 1871, 1310, 4400, 4402, 4403, 4404, 
    675, 1770, 1618, 1871, 1311, 3564, 4405, 4402, 4399, 
    676, 1546, 1571, 2456, 2504, 4406, 4237, 4407, 4408, 
    677, 2505, 1551, 2511, 2506, 4409, 4410, 4411, 4412, 
    678, 2003, 2451, 1935, 2319, 4202, 4413, 4414, 4249, 
    679, 2508, 2510, 2512, 2509, 4415, 4416, 4417, 4418, 
    680, 1966, 1969, 411, 412, 3873, 3476, 441, 4419, 
    681, 464, 465, 2251, 2059, 496, 4420, 4240, 4357, 
    682, 2505, 2358, 2356, 2515, 4421, 4035, 4422, 4423, 
    683, 2518, 2517, 2519, 2516, 4424, 4425, 4426, 4427, 
    684, 556, 2451, 2430, 555, 4428, 4201, 4429, 595, 
    685, 1973, 601, 602, 1332, 4430, 611, 3024, 4431, 
    686, 2513, 2514, 2522, 2323, 4432, 4433, 4434, 4435, 
    687, 2087, 2116, 2526, 2525, 4174, 4436, 4437, 4438, 
    688, 1520, 1487, 2527, 2523, 3102, 4439, 4440, 4441, 
    689, 2067, 1533, 2316, 2528, 4442, 4443, 4444, 4445, 
    690, 2533, 2409, 2535, 2534, 4446, 4447, 4448, 4449, 
    691, 2539, 2206, 2537, 2538, 4450, 4451, 4452, 4453, 
    692, 1356, 1343, 1344, 1297, 4179, 3007, 3028, 4222, 
    693, 2218, 2221, 2852, 2220, 4454, 4455, 4456, 4457, 
    694, 1296, 1344, 1346, 1377, 3029, 3006, 3146, 3491, 
    695, 2549, 1912, 1911, 2550, 4458, 3772, 4459, 4460, 
    696, 482, 1912, 2549, 483, 3773, 4458, 4461, 514, 
    697, 1836, 1696, 1694, 1835, 4462, 3200, 4463, 3834, 
    698, 1435, 1759, 1500, 1432, 3860, 3828, 3078, 3919, 
    699, 1774, 1773, 2554, 1775, 4464, 4465, 4466, 3410, 
    700, 1773, 2555, 2193, 2554, 4467, 4468, 4469, 4465, 
    701, 1310, 1871, 1354, 2329, 4403, 3455, 4470, 4471, 
    702, 2329, 1354, 1352, 2556, 4470, 4472, 4473, 4474, 
    703, 1888, 1669, 1291, 1742, 4475, 3181, 3357, 4476, 
    704, 1618, 1872, 1964, 1871, 3734, 4477, 3456, 4405, 
    705, 557, 1935, 2451, 556, 4478, 4413, 4428, 596, 
    706, 2030, 476, 1809, 2029, 3796, 4479, 4340, 4369, 
    707, 2239, 2431, 2155, 1890, 4366, 4480, 4326, 4142, 
    708, 1833, 1640, 1963, 1981, 4481, 4482, 3485, 3578, 
    709, 2030, 2155, 2431, 2154, 4368, 4480, 4483, 3794, 
    710, 1635, 1474, 1963, 1640, 3384, 3539, 4482, 3875, 
    711, 537, 1565, 2403, 536, 4289, 4484, 4097, 576, 
    712, 1999, 2403, 1565, 1864, 4095, 4484, 3348, 4485, 
    713, 1354, 1353, 1949, 1352, 3454, 4486, 4487, 4472, 
    714, 1731, 1764, 2570, 2502, 3254, 4488, 4489, 4490, 
    715, 2172, 2173, 2379, 2171, 4491, 4492, 4493, 4494, 
    716, 2530, 2532, 2571, 2531, 4495, 4496, 4497, 4498, 
    717, 1973, 1332, 2473, 1974, 4431, 4499, 4302, 4308, 
    718, 2574, 2575, 2415, 2556, 4500, 4501, 4502, 4503, 
    719, 486, 1727, 1726, 485, 4322, 3712, 4504, 517, 
    720, 2577, 2576, 2572, 2162, 4505, 4506, 4507, 4508, 
    721, 2094, 2560, 2579, 2578, 4509, 4510, 4511, 4512, 
    722, 2581, 2572, 2576, 2580, 4513, 4506, 4514, 4515, 
    723, 2482, 528, 529, 2229, 4392, 568, 4516, 4517, 
    724, 2590, 2592, 2593, 2591, 4518, 4519, 4520, 4521, 
    725, 2550, 1667, 2587, 2589, 4522, 4523, 4524, 4525, 
    726, 1287, 1860, 1446, 1859, 3465, 4526, 4074, 4527, 
    727, 1287, 1859, 471, 472, 4527, 4528, 503, 4207, 
    728, 1302, 2473, 1332, 1333, 4334, 4499, 3026, 4286, 
    729, 2507, 2477, 1484, 1481, 4394, 4529, 3075, 4530, 
    730, 1836, 2041, 2011, 1696, 3624, 3621, 4531, 4462, 
    731, 558, 2025, 1935, 557, 4255, 4532, 4478, 597, 
    732, 2119, 1768, 1346, 1345, 4533, 3258, 3005, 4534, 
    733, 2602, 2604, 2225, 2603, 4535, 4536, 4537, 4538, 
    734, 1786, 1756, 1757, 1298, 4539, 3244, 4540, 3277, 
    735, 1815, 1795, 1793, 1797, 4541, 3278, 3284, 4542, 
    736, 2319, 1935, 2025, 2031, 4414, 4532, 3590, 4244, 
    737, 1815, 1797, 1549, 1814, 4542, 3283, 4543, 4544, 
    738, 2585, 2601, 1897, 1624, 4545, 4546, 4547, 4548, 
    739, 2514, 1307, 1308, 2214, 4549, 4550, 3868, 4551, 
    740, 1299, 1626, 1746, 1301, 3190, 4552, 4553, 2992, 
    741, 1286, 2470, 2416, 1288, 4554, 4297, 4555, 3463, 
    742, 2617, 2616, 2618, 2615, 4556, 4557, 4558, 4559, 
    743, 481, 2463, 1321, 480, 4361, 4560, 3729, 512, 
    744, 412, 413, 2619, 1966, 442, 4561, 4562, 4419, 
    745, 1511, 607, 608, 1703, 3502, 617, 4563, 3968, 
    746, 1326, 1753, 2471, 1256, 4169, 4564, 4565, 3137, 
    747, 2620, 2622, 2623, 2621, 4566, 4567, 4568, 4569, 
    748, 1679, 1677, 2471, 1753, 4570, 4571, 4564, 4168, 
    749, 2620, 2625, 2626, 2624, 4572, 4573, 4574, 4575, 
    750, 1585, 1586, 1256, 2471, 3372, 3299, 4565, 4576, 
    751, 1648, 2552, 1943, 1639, 4577, 4578, 4579, 3186, 
    752, 1703, 608, 1958, 1990, 4563, 3634, 3602, 4183, 
    753, 2628, 2627, 2596, 2563, 4580, 4581, 4582, 4583, 
    754, 2244, 2303, 1493, 1273, 4584, 4585, 4586, 4587, 
    755, 2629, 2203, 2382, 2630, 4588, 4589, 4590, 4591, 
    756, 1508, 1732, 1925, 1509, 3358, 4592, 4117, 3364, 
    757, 2545, 2546, 2540, 2542, 4593, 4594, 4595, 4596, 
    758, 2228, 530, 531, 2429, 4597, 570, 4598, 4599, 
    759, 2632, 1612, 2279, 2633, 4600, 3951, 4601, 4602, 
    760, 1894, 2088, 1872, 1619, 4019, 4603, 3733, 4154, 
    761, 2634, 2625, 2635, 2610, 4604, 4605, 4606, 4607, 
    762, 2126, 1469, 2492, 2127, 4274, 4608, 4362, 4377, 
    763, 1671, 2492, 1469, 1467, 4364, 4608, 4271, 4609, 
    764, 1964, 1872, 2088, 2014, 4477, 4603, 3707, 4229, 
    765, 1364, 1366, 2010, 1363, 4610, 4611, 4612, 4613, 
    766, 1681, 1709, 2391, 2076, 3616, 4614, 4615, 3666, 
    767, 2556, 2415, 2191, 2329, 4502, 4118, 4616, 4474, 
    768, 2289, 2640, 2642, 2367, 4617, 4618, 4619, 4620, 
    769, 1682, 1683, 2243, 2493, 4621, 4622, 4623, 4624, 
    770, 601, 1973, 489, 32, 4430, 4307, 521, 610, 
    771, 1314, 1315, 2646, 1878, 2999, 4625, 4626, 3581, 
    772, 2233, 2476, 2507, 2591, 4627, 4395, 4628, 4629, 
    773, 1716, 1620, 1621, 2039, 3215, 3587, 4630, 3885, 
    774, 2233, 2591, 2593, 2235, 4629, 4520, 4631, 3896, 
    775, 1317, 1949, 2646, 1315, 4632, 4633, 4625, 2998, 
    776, 2565, 2596, 2647, 2594, 4634, 4635, 4636, 4637, 
    777, 1353, 1965, 2646, 1949, 4231, 4638, 4633, 4486, 
    778, 1493, 1492, 2648, 2559, 4639, 4640, 4641, 4642, 
    779, 1642, 2651, 2582, 2650, 4643, 4644, 4645, 4646, 
    780, 2654, 2592, 2655, 2564, 4647, 4648, 4649, 4650, 
    781, 1879, 2045, 1621, 1877, 4651, 4652, 3586, 3367, 
    782, 2113, 2636, 1979, 2038, 4653, 4654, 4655, 4656, 
    783, 1417, 646, 38, 1573, 4247, 654, 4657, 4658, 
    784, 2606, 2607, 2665, 2608, 4659, 4660, 4661, 4662, 
    785, 2260, 2261, 2664, 2111, 4663, 4664, 4665, 4666, 
    786, 2667, 2670, 2626, 2669, 4667, 4668, 4669, 4670, 
    787, 2111, 2664, 2671, 2107, 4665, 4671, 4672, 3723, 
    788, 1584, 1583, 1820, 1582, 4673, 3392, 3303, 4674, 
    789, 1322, 418, 419, 1312, 4015, 448, 4675, 3002, 
    790, 2190, 2674, 633, 2673, 4676, 4677, 4678, 4679, 
    791, 1983, 2008, 1633, 1967, 3553, 3833, 4680, 3519, 
    792, 2542, 2548, 2675, 2545, 4681, 4682, 4683, 4596, 
    793, 1634, 641, 1967, 1633, 4684, 3474, 4680, 3311, 
    794, 2678, 2677, 2679, 2676, 4685, 4686, 4687, 4688, 
    795, 2586, 1624, 1622, 2173, 4689, 4690, 4691, 4692, 
    796, 1896, 1906, 1908, 1940, 3399, 4693, 4694, 4695, 
    797, 1887, 1889, 1669, 1888, 4124, 4696, 4475, 4140, 
    798, 1889, 1617, 1670, 1669, 4155, 3692, 3182, 4696, 
    799, 2672, 2577, 1909, 1907, 4697, 4698, 4699, 4700, 
    800, 2504, 2680, 1528, 1546, 4701, 4702, 3122, 4408, 
    801, 1896, 2682, 1828, 1610, 4703, 4704, 3418, 4705, 
    802, 1668, 2684, 2380, 2683, 4706, 4707, 4708, 4709, 
    803, 2431, 478, 477, 2154, 4710, 509, 3795, 4483, 
    804, 2490, 2687, 658, 41, 4711, 4712, 661, 4388, 
    805, 2406, 2408, 2690, 2405, 4713, 4714, 4715, 4104, 
    806, 1917, 1689, 1687, 2174, 3413, 3193, 4716, 3815, 
    807, 1710, 1543, 1418, 1417, 4717, 4718, 4245, 4719, 
    808, 2695, 2698, 2699, 2697, 4720, 4721, 4722, 4723, 
    809, 2528, 2700, 2701, 2529, 4724, 4725, 4726, 4727, 
    810, 2449, 2448, 2702, 2447, 4206, 4728, 4729, 4730, 
    811, 1843, 1849, 1412, 1537, 4731, 4732, 4733, 3429, 
    812, 1411, 1413, 1537, 1412, 4734, 4735, 4733, 4736, 
    813, 1411, 1412, 1849, 1414, 4736, 4732, 4737, 4738, 
    814, 2702, 2270, 2391, 2447, 4739, 4740, 4741, 4729, 
    815, 1273, 1272, 2161, 2244, 4016, 3806, 3899, 4587, 
    816, 2379, 2173, 1622, 2380, 4492, 4691, 4742, 4049, 
    817, 1623, 1769, 2692, 1622, 4743, 4744, 4745, 4746, 
    818, 2291, 2290, 2703, 2289, 4747, 4748, 4749, 4750, 
    819, 2704, 2378, 2708, 2707, 4751, 4752, 4753, 4754, 
    820, 2236, 2710, 2711, 2709, 4755, 4756, 4757, 4758, 
    821, 1687, 1688, 1690, 2691, 3192, 3198, 4759, 4760, 
    822, 1648, 2551, 2685, 2552, 4761, 4762, 4763, 4577, 
    823, 1834, 640, 641, 1634, 4764, 648, 4684, 3314, 
    824, 2142, 2144, 2175, 2143, 4765, 4766, 4056, 3892, 
    825, 1723, 1578, 2189, 1758, 4390, 4152, 4767, 4129, 
    826, 1339, 1340, 1502, 2293, 3012, 4115, 3967, 4768, 
    827, 1385, 2427, 1758, 2189, 4769, 4770, 4767, 3841, 
    828, 489, 1853, 428, 32, 4771, 3338, 458, 521, 
    829, 2415, 2575, 683, 2104, 4501, 4772, 4773, 4119, 
    830, 2704, 2705, 2377, 2378, 4774, 4775, 4051, 4751, 
    831, 1718, 605, 606, 1512, 4350, 615, 3501, 3461, 
    832, 1462, 1560, 1766, 1426, 3144, 3317, 4776, 3496, 
    833, 1837, 2031, 1426, 1766, 4242, 3589, 4776, 3316, 
    834, 2712, 2714, 2359, 2357, 4777, 4778, 4033, 4779, 
    835, 1774, 1916, 2401, 1915, 3409, 4091, 4780, 4781, 
    836, 1667, 1668, 2683, 2587, 4782, 4709, 4783, 4523, 
    837, 2019, 1916, 1803, 2020, 4092, 3408, 4784, 4785, 
    838, 2594, 2647, 2612, 2652, 4636, 4786, 4787, 4788, 
    839, 1861, 1862, 1422, 1423, 4789, 4790, 4211, 4791, 
    840, 2346, 2347, 2178, 2349, 4792, 4793, 4794, 4795, 
    841, 1787, 1629, 2217, 1858, 4796, 4797, 4798, 4799, 
    842, 2207, 2110, 2109, 1678, 3863, 4800, 4801, 4802, 
    843, 2108, 2107, 1588, 2109, 3720, 4803, 4804, 4805, 
    844, 2221, 2218, 2323, 2522, 4454, 3998, 4434, 4806, 
    845, 2577, 2162, 2163, 1909, 4508, 4807, 4808, 4698, 
    846, 2705, 2704, 2582, 2706, 4774, 4809, 4810, 4811, 
    847, 2281, 1613, 1381, 1476, 3949, 4812, 3090, 4813, 
    848, 2041, 1993, 1807, 1534, 4232, 4265, 4814, 3622, 
    849, 1264, 1536, 1534, 1807, 2975, 3108, 4814, 3289, 
    850, 1915, 2401, 2720, 1918, 4780, 4815, 4816, 3411, 
    851, 1863, 1865, 2493, 1862, 4817, 4818, 4819, 4820, 
    852, 1863, 1867, 2723, 1865, 4821, 4822, 4823, 4817, 
    853, 2259, 2258, 2100, 2099, 4824, 4825, 4826, 4827, 
    854, 2514, 2214, 2221, 2522, 4551, 4828, 4806, 4433, 
    855, 1712, 1598, 1442, 1911, 3211, 3901, 4829, 3775, 
    856, 2550, 1911, 1442, 1667, 4459, 4829, 3787, 4522, 
    857, 1465, 1637, 2432, 1636, 4830, 4831, 4832, 4833, 
    858, 2330, 1636, 2432, 2731, 4834, 4832, 4835, 4836, 
    859, 2126, 1780, 1781, 2081, 4376, 3271, 4216, 4275, 
    860, 2733, 2732, 2446, 2417, 4837, 4838, 4194, 4839, 
    861, 2536, 2583, 2588, 2584, 4840, 4841, 4842, 4843, 
    862, 2158, 2159, 2460, 2360, 3804, 4844, 4845, 4042, 
    863, 2488, 2737, 2279, 2281, 4846, 4847, 3950, 4848, 
    864, 2619, 413, 414, 2441, 4561, 443, 4849, 4850, 
    865, 1450, 1451, 468, 467, 4212, 3606, 499, 4851, 
    866, 1336, 1301, 1746, 1738, 4852, 4553, 3990, 4853, 
    867, 2157, 1322, 1313, 2156, 4013, 3001, 4854, 4855, 
    868, 2745, 2195, 2555, 2744, 4856, 4857, 4858, 4859, 
    869, 1670, 2083, 1568, 1606, 3691, 4860, 4861, 3183, 
    870, 2297, 2083, 2012, 2063, 4862, 3690, 4863, 4864, 
    871, 2740, 2156, 1313, 2681, 4865, 4854, 4866, 4867, 
    872, 2747, 2741, 2749, 2395, 4868, 4869, 4870, 4871, 
    873, 1376, 2396, 2747, 2395, 4082, 4872, 4871, 4873, 
    874, 2320, 2407, 2364, 2462, 4874, 4875, 4320, 4876, 
    875, 2504, 2751, 2739, 2680, 4877, 4878, 4879, 4701, 
    876, 2339, 1737, 2321, 2338, 4880, 3992, 4881, 4882, 
    877, 548, 549, 1387, 1385, 588, 4883, 3034, 3840, 
    878, 2338, 2321, 2753, 2752, 4881, 4884, 4885, 4886, 
    879, 1291, 1606, 1568, 1290, 3184, 4861, 3782, 2984, 
    880, 2756, 2758, 2254, 2757, 4887, 4888, 4889, 4890, 
    881, 2393, 2054, 2052, 2209, 4891, 3645, 4892, 4893, 
    882, 2756, 2757, 2759, 2755, 4890, 4894, 4895, 4896, 
    883, 2730, 2263, 2261, 2729, 4897, 4898, 4899, 4900, 
    884, 1486, 1312, 419, 420, 4901, 4675, 449, 4902, 
    885, 1308, 1307, 1566, 1306, 4550, 3133, 4903, 4904, 
    886, 2156, 2740, 2680, 2739, 4865, 4905, 4879, 4906, 
    887, 1555, 1554, 1630, 1628, 4907, 4908, 3167, 4909, 
    888, 2574, 682, 683, 2575, 4910, 692, 4772, 4500, 
    889, 539, 540, 2761, 2310, 579, 4911, 4912, 3976, 
    890, 2762, 1392, 1698, 2331, 4913, 4914, 4012, 4915, 
    891, 2762, 2763, 1394, 1392, 4916, 4917, 3046, 4913, 
    892, 2171, 2672, 1907, 1910, 4918, 4700, 4919, 4920, 
    893, 2765, 2312, 2764, 2170, 4921, 4922, 4923, 4924, 
    894, 2122, 2121, 2499, 2315, 3789, 4925, 4926, 4927, 
    895, 1676, 1395, 1403, 1559, 4928, 4929, 4930, 4931, 
    896, 1615, 2093, 39, 655, 4290, 3865, 656, 4224, 
    897, 1692, 2767, 2692, 1769, 4932, 4933, 4744, 3945, 
    898, 1823, 1822, 2138, 1821, 3333, 4934, 4935, 4936, 
    899, 2360, 2460, 2022, 2459, 4845, 4937, 4938, 4321, 
    900, 1824, 1821, 2138, 1825, 4939, 4935, 4940, 4941, 
    901, 1821, 1824, 2306, 1823, 4939, 4942, 4943, 4936, 
    902, 417, 2802, 2481, 416, 4944, 4945, 4946, 446, 
    903, 416, 2481, 2442, 415, 4946, 4316, 4947, 445, 
    904, 2211, 1300, 1305, 1342, 4948, 2994, 3017, 4949, 
    905, 1888, 1742, 1740, 2239, 4476, 3356, 4367, 4141, 
    906, 2488, 2281, 1476, 2485, 4848, 4813, 4950, 4337, 
    907, 2775, 2544, 2776, 2423, 4951, 4952, 4953, 4954, 
    908, 2138, 2139, 2498, 1825, 4955, 4956, 4371, 4940, 
    909, 1477, 1478, 2485, 1476, 4957, 4958, 4950, 3092, 
    910, 2062, 2713, 2297, 2063, 4959, 4960, 4864, 3655, 
    911, 2083, 2297, 2150, 1568, 4862, 4961, 3783, 4860, 
    912, 2197, 2780, 1572, 2779, 4962, 4963, 4964, 4965, 
    913, 2144, 2142, 1985, 1846, 4765, 4966, 3508, 4967, 
    914, 2466, 2410, 2339, 2467, 4309, 4968, 4969, 4970, 
    915, 1460, 2443, 2484, 1459, 4971, 4345, 4972, 3061, 
    916, 2536, 2752, 2753, 2530, 4973, 4885, 4974, 4975, 
    917, 658, 2687, 1421, 2781, 4712, 4976, 4977, 4978, 
    918, 2490, 2686, 2327, 2687, 4979, 4980, 4981, 4711, 
    919, 1885, 2787, 1701, 2786, 4982, 4983, 4984, 4985, 
    920, 2265, 43, 675, 2250, 3921, 684, 4986, 4987, 
    921, 2788, 2494, 1937, 2633, 4988, 4382, 4989, 4990, 
    922, 1371, 1370, 2789, 1372, 4991, 4992, 4993, 4994, 
    923, 2789, 2790, 2791, 2597, 4995, 4996, 4997, 4998, 
    924, 1366, 2601, 2794, 2102, 4999, 5000, 5001, 5002, 
    925, 2070, 2072, 2199, 2071, 4139, 5003, 5004, 3847, 
    926, 1899, 2795, 2499, 2121, 5005, 5006, 4925, 3905, 
    927, 1603, 1605, 1920, 2296, 3157, 5007, 5008, 5009, 
    928, 1920, 1605, 2799, 1919, 5007, 5010, 5011, 5012, 
    929, 1397, 1398, 1542, 1506, 3037, 3117, 3618, 4226, 
    930, 1471, 2102, 1358, 1359, 5013, 5014, 3159, 3487, 
    931, 1380, 2064, 2718, 2798, 3660, 5015, 5016, 5017, 
    932, 1259, 532, 533, 1258, 5018, 572, 4254, 2968, 
    933, 2197, 2779, 640, 1834, 4965, 5019, 4764, 5020, 
    934, 1605, 1604, 2413, 2799, 3156, 5021, 5022, 5010, 
    935, 1739, 480, 479, 1741, 5023, 511, 3308, 3236, 
    936, 1604, 2414, 2804, 2413, 5024, 5025, 5026, 5021, 
    937, 1694, 1695, 2090, 2553, 3199, 5027, 5028, 5029, 
    938, 2014, 2013, 2646, 1965, 3706, 5030, 4638, 4230, 
    939, 1388, 1386, 2491, 1294, 3032, 4359, 5031, 5032, 
    940, 1683, 1682, 2801, 1684, 4621, 5033, 5034, 3985, 
    941, 2106, 2192, 2276, 2191, 5035, 3937, 5036, 4120, 
    942, 2581, 2809, 2044, 2016, 5037, 5038, 3638, 5039, 
    943, 1575, 2811, 2661, 2810, 5040, 5041, 5042, 5043, 
    944, 1581, 1722, 1367, 1419, 4281, 5044, 3688, 3261, 
    945, 1575, 2813, 2766, 2812, 5045, 5046, 5047, 5048, 
    946, 1575, 2810, 1411, 2813, 5043, 5049, 5050, 5045, 
    947, 1445, 2047, 2039, 2046, 3930, 3886, 5051, 5052, 
    948, 2045, 2046, 2039, 1621, 5053, 5051, 4630, 4652, 
    949, 2065, 2815, 2816, 2814, 5054, 5055, 5056, 5057, 
    950, 2374, 2412, 2641, 2703, 5058, 5059, 5060, 5061, 
    951, 2640, 2289, 2703, 2641, 4617, 4749, 5060, 5062, 
    952, 2024, 2818, 2819, 2023, 5063, 5064, 5065, 3594, 
    953, 420, 421, 1827, 1486, 450, 5066, 4037, 4902, 
    954, 2069, 2068, 1577, 2067, 5067, 5068, 5069, 5070, 
    955, 2075, 1799, 1802, 2074, 5071, 3839, 4164, 3674, 
    956, 2114, 2113, 2038, 2036, 5072, 4656, 3610, 5073, 
    957, 2114, 2036, 2037, 2115, 5073, 3609, 5074, 5075, 
    958, 2292, 2197, 2196, 2820, 5076, 5077, 5078, 5079, 
    959, 604, 1924, 1333, 603, 4351, 4287, 3025, 613, 
    960, 2478, 2021, 2748, 2479, 5080, 5081, 5082, 5083, 
    961, 1602, 2819, 2818, 2817, 5084, 5064, 5085, 5086, 
    962, 2404, 2589, 2587, 2767, 5087, 4524, 5088, 5089, 
    963, 2389, 2800, 2005, 1997, 5090, 5091, 5092, 5093, 
    964, 1784, 1609, 1607, 1365, 5094, 3162, 3798, 3337, 
    965, 1482, 2313, 2823, 1483, 3980, 5095, 5096, 3671, 
    966, 2214, 2017, 2015, 2221, 3867, 5097, 5098, 4828, 
    967, 2128, 2824, 2742, 1651, 5099, 5100, 5101, 5102, 
    968, 1489, 2035, 2825, 2390, 5103, 5104, 5105, 4081, 
    969, 1667, 1441, 2684, 1668, 3786, 5106, 4706, 4782, 
    970, 1441, 1252, 2708, 2684, 3793, 5107, 5108, 5106, 
    971, 1806, 2201, 1729, 1728, 5109, 4233, 3228, 4147, 
    972, 1806, 2202, 1391, 2201, 5110, 4266, 4234, 5109, 
    973, 1482, 1408, 1507, 1485, 3673, 3088, 3908, 5111, 
    974, 2111, 2112, 1814, 2260, 3722, 5112, 5113, 4666, 
    975, 1734, 1999, 1864, 1735, 4096, 4485, 3377, 5114, 
    976, 2004, 2005, 2800, 2723, 3549, 5091, 5115, 5116, 
    977, 1559, 1403, 1828, 2682, 4930, 4038, 4704, 5117, 
    978, 2361, 2362, 2828, 2287, 5118, 5119, 5120, 5121, 
    979, 2098, 2829, 2474, 2466, 5122, 5123, 4310, 5124, 
    980, 1907, 1909, 2599, 1908, 4699, 5125, 5126, 5127, 
    981, 1870, 2073, 2115, 2037, 3739, 5128, 5074, 3662, 
    982, 1940, 1908, 2599, 1561, 4694, 5126, 5129, 5130, 
    983, 2793, 2792, 1378, 2004, 5131, 5132, 3546, 5133, 
    984, 2830, 2831, 1317, 2436, 5134, 5135, 4353, 5136, 
    985, 2558, 2557, 2454, 1616, 5137, 5138, 4219, 5139, 
    986, 2176, 2207, 1678, 1679, 3864, 4802, 5140, 4170, 
    987, 2200, 2454, 2557, 2110, 4291, 5138, 5141, 3862, 
    988, 1491, 1776, 1420, 2304, 3997, 3264, 5142, 5143, 
    989, 1419, 1368, 2304, 1420, 3687, 5144, 5142, 3262, 
    990, 1858, 1369, 1786, 1787, 5145, 5146, 3276, 4799, 
    991, 1339, 2293, 2294, 1418, 4768, 4185, 5147, 5148, 
    992, 2662, 1457, 2833, 2663, 5149, 5150, 5151, 5152, 
    993, 1858, 1857, 1368, 1369, 5153, 5154, 3686, 5145, 
    994, 1574, 2760, 2636, 1576, 5155, 5156, 5157, 5158, 
    995, 2709, 2835, 2225, 2223, 5159, 5160, 5161, 5162, 
    996, 1431, 2204, 1854, 1428, 3852, 5163, 3340, 3052, 
    997, 1990, 645, 1418, 2294, 3601, 4246, 5147, 4184, 
    998, 2712, 2357, 2506, 2598, 4779, 5164, 5165, 5166, 
    999, 2812, 2839, 2841, 2301, 5167, 5168, 5169, 5170, 
    1000, 2845, 2844, 2730, 2843, 5171, 5172, 5173, 5174, 
    1001, 2092, 1721, 1719, 2381, 3879, 3222, 4060, 4283, 
    1002, 1716, 2096, 2422, 1717, 3888, 5175, 5176, 3216, 
    1003, 2703, 2290, 2820, 2089, 4748, 5177, 5178, 5179, 
    1004, 1466, 2089, 2820, 2090, 5180, 5178, 5181, 5182, 
    1005, 2506, 2357, 2358, 2505, 5164, 4032, 4421, 4412, 
    1006, 2784, 1439, 2551, 2834, 5183, 5184, 5185, 5186, 
    1007, 1702, 2784, 2797, 2849, 5187, 5188, 5189, 5190, 
    1008, 2085, 2087, 2272, 2086, 4171, 5191, 5192, 5193, 
    1009, 1387, 549, 550, 2080, 4883, 589, 5194, 3681, 
    1010, 2004, 2723, 1867, 2793, 5116, 4822, 5195, 5133, 
    1011, 2141, 1285, 2020, 1803, 3763, 5196, 4784, 3940, 
    1012, 1641, 1642, 2650, 1644, 5197, 4646, 5198, 5199, 
    1013, 2569, 2568, 2487, 2567, 5200, 5201, 5202, 5203, 
    1014, 1413, 2066, 2660, 1539, 5204, 5205, 5206, 5207, 
    1015, 2250, 675, 2858, 2249, 4986, 5208, 5209, 5210, 
    1016, 1404, 1405, 1547, 1407, 5211, 3127, 5212, 5213, 
    1017, 1401, 2247, 2249, 2248, 5214, 5215, 5216, 5217, 
    1018, 2487, 2485, 1478, 2567, 4338, 4958, 5218, 5202, 
    1019, 541, 1962, 2761, 540, 3595, 5219, 4911, 580, 
    1020, 2310, 2761, 1473, 1454, 4912, 5220, 3067, 4292, 
    1021, 1961, 1473, 2761, 1962, 3483, 5220, 5219, 3574, 
    1022, 1659, 1658, 1745, 1657, 5221, 3388, 5222, 5223, 
    1023, 2530, 2753, 1626, 1625, 4974, 5224, 3189, 5225, 
    1024, 1816, 1818, 1637, 1817, 5226, 5227, 5228, 5229, 
    1025, 2152, 2153, 1601, 1980, 5230, 5231, 3970, 5232, 
    1026, 1804, 2432, 1637, 1818, 5233, 4831, 5227, 4145, 
    1027, 2806, 1684, 2801, 2861, 5234, 5034, 5235, 5236, 
    1028, 2305, 554, 555, 2430, 5237, 594, 4429, 4134, 
    1029, 1950, 2859, 2769, 1951, 5238, 5239, 5240, 3450, 
    1030, 1583, 1588, 1892, 1891, 5241, 5242, 3386, 3393, 
    1031, 1538, 1537, 1413, 1539, 3430, 4735, 5207, 5243, 
    1032, 1783, 1902, 1726, 1782, 3394, 5244, 3711, 3273, 
    1033, 1726, 1902, 484, 485, 5244, 3396, 516, 4504, 
    1034, 2746, 2501, 2502, 2570, 5245, 4384, 4489, 5246, 
    1035, 1813, 2188, 2438, 1802, 4269, 4161, 4162, 3838, 
    1036, 2460, 2024, 1504, 2022, 5247, 3593, 3583, 4937, 
    1037, 1280, 1278, 468, 469, 2979, 5248, 500, 5249, 
    1038, 471, 1792, 2438, 472, 3665, 4163, 4160, 503, 
    1039, 1673, 1674, 2168, 1675, 5250, 5251, 5252, 3813, 
    1040, 2164, 2213, 1308, 1306, 5253, 3869, 4904, 5254, 
    1041, 2456, 1569, 2719, 2457, 4236, 5255, 5256, 5257, 
    1042, 1775, 2554, 1515, 2230, 4466, 5258, 5259, 3941, 
    1043, 2429, 531, 532, 1259, 4598, 571, 5018, 5260, 
    1044, 2429, 1259, 1257, 2428, 5260, 2971, 5261, 5262, 
    1045, 1422, 2243, 2865, 1424, 5263, 5264, 5265, 4209, 
    1046, 2863, 2172, 1906, 1895, 5266, 5267, 3398, 5268, 
    1047, 2192, 2106, 2866, 2212, 5035, 5269, 5270, 5271, 
    1048, 1987, 1988, 1591, 1589, 5272, 5273, 3180, 5274, 
    1049, 2382, 2764, 2312, 2369, 5275, 4922, 5276, 5277, 
    1050, 1461, 1459, 2869, 2868, 3058, 5278, 5279, 5280, 
    1051, 1683, 2316, 2865, 2243, 3984, 5281, 5264, 4622, 
    1052, 1709, 1542, 1543, 1710, 3619, 3116, 4717, 5282, 
    1053, 1460, 1463, 1966, 2619, 3060, 3874, 4562, 5283, 
    1054, 2671, 2123, 1745, 1892, 5284, 3754, 3387, 5285, 
    1055, 1816, 2444, 2468, 2202, 5286, 5287, 4267, 5288, 
    1056, 2444, 2011, 1535, 2468, 5289, 3620, 4268, 5287, 
    1057, 473, 1811, 1812, 474, 4270, 3296, 4165, 505, 
    1058, 1483, 477, 478, 1410, 5290, 509, 3698, 3672, 
    1059, 2056, 2870, 2862, 2052, 5291, 5292, 5293, 3644, 
    1060, 2166, 2057, 2871, 2483, 5294, 5295, 5296, 4330, 
    1061, 1279, 1919, 2799, 1281, 5297, 5011, 5298, 2977, 
    1062, 623, 1591, 1988, 35, 4199, 5273, 5299, 626, 
    1063, 2299, 2298, 2539, 2455, 3978, 5300, 5301, 5302, 
    1064, 2837, 2838, 2499, 2795, 5303, 5304, 5006, 5305, 
    1065, 2499, 2838, 2318, 2315, 5304, 5306, 3987, 4926, 
    1066, 2490, 1271, 1415, 2686, 4355, 3142, 5307, 4979, 
    1067, 2578, 2579, 2561, 2609, 4511, 5308, 5309, 5310, 
    1068, 1528, 2680, 2740, 2681, 4702, 4905, 4867, 5311, 
    1069, 1865, 2723, 2800, 2735, 4823, 5115, 5312, 5313, 
    1070, 1294, 1298, 1757, 1388, 2990, 4540, 5314, 5032, 
    1071, 2394, 1866, 1715, 1717, 5315, 3837, 3217, 5316, 
    1072, 1316, 1513, 1253, 1254, 4264, 3836, 5317, 4354, 
    1073, 1907, 1908, 1906, 1910, 5127, 4693, 5318, 4919, 
    1074, 2171, 1910, 1906, 2172, 4920, 5318, 5267, 4494, 
    1075, 1737, 1337, 1336, 1738, 5319, 5320, 4853, 3993, 
    1076, 1808, 1809, 476, 475, 4341, 4479, 507, 4167, 
    1077, 2066, 2659, 2453, 2660, 5321, 5322, 5323, 5205, 
    1078, 1438, 1436, 2616, 2785, 3054, 5324, 5325, 5326, 
    1079, 1336, 1337, 2464, 1335, 5320, 5327, 5328, 5329, 
    1080, 1571, 1546, 1529, 2461, 4406, 3121, 5330, 4250, 
    1081, 2874, 2873, 2875, 2872, 5331, 5332, 5333, 5334, 
    1082, 1901, 2251, 465, 466, 3911, 4420, 497, 5335, 
    1083, 1761, 2040, 2002, 2009, 3859, 3615, 3559, 4253, 
    1084, 1757, 2427, 1385, 1388, 5336, 4769, 3033, 5314, 
    1085, 2619, 2441, 2443, 1460, 4850, 4318, 4971, 5283, 
    1086, 2462, 2459, 2478, 2464, 4319, 5337, 5338, 5339, 
    1087, 2464, 2478, 2479, 1335, 5338, 5083, 5340, 5328, 
    1088, 2674, 1914, 37, 633, 5341, 3405, 636, 4677, 
    1089, 2461, 2514, 2513, 2458, 5342, 4432, 5343, 4251, 
    1090, 2456, 2457, 2869, 2877, 5257, 5344, 5345, 5346, 
    1091, 1851, 1433, 2100, 2258, 3917, 5347, 4825, 5348, 
    1092, 2431, 1826, 479, 478, 4365, 3309, 510, 4710, 
    1093, 2061, 2063, 2012, 1309, 3656, 4863, 4401, 5349, 
    1094, 2393, 2394, 2878, 2054, 5350, 5351, 5352, 4891, 
    1095, 2053, 2054, 2878, 2055, 3642, 5352, 5353, 5354, 
    1096, 2133, 2158, 2365, 2132, 3801, 4041, 5355, 3759, 
    1097, 2380, 2684, 2708, 2378, 4707, 5108, 4752, 4050, 
    1098, 1348, 1338, 1350, 1398, 3008, 3014, 3118, 3036, 
    1099, 1323, 2859, 34, 1351, 5356, 5357, 5358, 3020, 
    1100, 1647, 1463, 1461, 1589, 3871, 3059, 5359, 3179, 
    1101, 1987, 1325, 1355, 1988, 5360, 3022, 5361, 5272, 
    1102, 2243, 1422, 1862, 2493, 5263, 4790, 4819, 4623, 
    1103, 2071, 2199, 1744, 2198, 5004, 5362, 5363, 3848, 
    1104, 1786, 1369, 1367, 1756, 5146, 3689, 3245, 4539, 
    1105, 2783, 1380, 2798, 2782, 5364, 5017, 5365, 5366, 
    1106, 2782, 2798, 1400, 1402, 5365, 5367, 3041, 5368, 
    1107, 1250, 2707, 2708, 1252, 5369, 4753, 5107, 2965, 
    1108, 1415, 1579, 1638, 1592, 3141, 5370, 5371, 5372, 
    1109, 2027, 2026, 2314, 2028, 5373, 5374, 5375, 3598, 
    1110, 2347, 2879, 2116, 2445, 5376, 5377, 4173, 5378, 
    1111, 1399, 1400, 2798, 2718, 3042, 5367, 5016, 5379, 
    1112, 1405, 1404, 2165, 1406, 5211, 4332, 5380, 5381, 
    1113, 1545, 2147, 2148, 677, 3942, 3765, 5382, 5383, 
    1114, 2706, 2672, 2171, 2705, 5384, 4918, 5385, 4811, 
    1115, 1818, 1816, 2202, 1806, 5226, 5288, 5110, 4146, 
    1116, 2705, 2171, 2379, 2377, 5385, 4493, 4048, 4775, 
    1117, 2040, 1435, 1851, 1850, 3858, 3918, 3331, 3613, 
    1118, 2316, 1685, 2700, 2528, 3983, 5386, 4724, 4444, 
    1119, 2259, 1822, 1851, 2258, 5387, 3332, 5348, 4824, 
    1120, 1642, 1641, 2715, 1643, 5197, 5388, 5389, 5390, 
    1121, 2021, 2478, 2459, 2022, 5080, 5337, 4938, 3582, 
    1122, 2748, 1341, 1334, 2479, 5391, 3019, 5392, 5082, 
    1123, 2537, 2359, 2714, 2538, 5393, 4778, 5394, 4452, 
    1124, 2803, 2802, 417, 2157, 5395, 4944, 4014, 5396, 
    1125, 1352, 1949, 1317, 2831, 4487, 4632, 5135, 5397, 
    1126, 2860, 1905, 2240, 1597, 5398, 5399, 5400, 5401, 
    1127, 1320, 1321, 2463, 1319, 3730, 4560, 5402, 5403, 
    1128, 2232, 2231, 1319, 2463, 4186, 4313, 5402, 4360, 
    1129, 2567, 1478, 1477, 2023, 5218, 4957, 3592, 5404, 
    1130, 2441, 414, 415, 2442, 4849, 444, 4947, 4315, 
    1131, 2123, 2262, 2264, 2125, 5405, 5406, 5407, 3755, 
    1132, 1379, 2880, 2006, 1378, 3658, 5408, 3547, 5409, 
    1133, 1690, 1793, 1794, 2691, 3282, 3281, 5410, 4759, 
    1134, 2758, 1523, 1524, 2254, 5411, 3107, 3915, 4888, 
    1135, 2725, 2032, 2028, 2727, 5412, 3599, 5413, 5414, 
    1136, 2725, 1434, 1501, 2032, 5415, 3080, 3596, 5412, 
    1137, 2828, 2362, 1876, 1875, 5119, 5416, 5417, 5418, 
    1138, 1554, 2101, 1627, 1630, 5419, 5420, 3168, 4908, 
    1139, 2584, 2101, 2097, 2738, 5421, 5422, 5423, 5424, 
    1140, 1772, 1905, 2860, 1939, 4327, 5398, 5425, 4046, 
    1141, 1914, 2674, 2885, 2876, 5341, 5426, 5427, 5428, 
    1142, 2428, 1257, 2886, 2840, 5261, 5429, 5430, 5431, 
    1143, 1260, 2198, 2886, 1257, 3849, 5432, 5429, 2970, 
    1144, 2739, 2803, 2157, 2156, 5433, 5396, 4855, 4906, 
    1145, 2782, 2750, 2887, 2783, 5434, 5435, 5436, 5366, 
    1146, 2417, 1446, 1860, 1986, 4121, 4526, 3515, 5437, 
    1147, 1349, 1509, 1503, 1347, 3362, 4116, 3401, 3010, 
    1148, 2117, 2120, 2887, 2750, 5438, 5439, 5435, 5440, 
    1149, 1843, 1844, 2889, 1849, 3326, 5441, 5442, 4731, 
    1150, 1950, 1959, 634, 635, 3449, 5443, 638, 5444, 
    1151, 1830, 1831, 2889, 1832, 5445, 5446, 5447, 5448, 
    1152, 1358, 2102, 2794, 2600, 5014, 5001, 5449, 5450, 
    1153, 1822, 2259, 2890, 2138, 5387, 5451, 5452, 4934, 
    1154, 1895, 2600, 2585, 2863, 5453, 5454, 5455, 5268, 
    1155, 1744, 2349, 2178, 2376, 5456, 4794, 5457, 5458, 
    1156, 1319, 1318, 1855, 1320, 4312, 3342, 3906, 5403, 
    1157, 1640, 1833, 2891, 1595, 4481, 5459, 5460, 3876, 
    1158, 1596, 1580, 2891, 1833, 3669, 5461, 5459, 3511, 
    1159, 1844, 1842, 1518, 2187, 3329, 4200, 4379, 5462, 
    1160, 2837, 2836, 2799, 2413, 5463, 5464, 5022, 5465, 
    1161, 1364, 1898, 1623, 1897, 3800, 5466, 5467, 5468, 
    1162, 2133, 2135, 2804, 2160, 3758, 5469, 5470, 3802, 
    1163, 2117, 2118, 2129, 2120, 5471, 5472, 3747, 5438, 
    1164, 1558, 1557, 1676, 1559, 5473, 5474, 4931, 5475, 
    1165, 2320, 2462, 2464, 1337, 4876, 5339, 5327, 5476, 
    1166, 1366, 1364, 1897, 2601, 4610, 5468, 4546, 4999, 
    1167, 552, 2498, 2435, 551, 4372, 5477, 5478, 591, 
    1168, 2139, 2434, 2435, 2498, 5479, 4157, 5477, 4956, 
    1169, 2080, 550, 551, 2435, 5194, 590, 5478, 4156, 
    1170, 2329, 2191, 2276, 1310, 4616, 5036, 5480, 4471, 
    1171, 2104, 683, 43, 2103, 4773, 693, 3920, 3719, 
    1172, 2061, 1309, 1310, 2276, 5349, 4404, 5480, 3936, 
    1173, 1622, 1624, 1897, 1623, 4690, 4547, 5467, 4746, 
    1174, 2488, 2486, 2398, 2770, 4336, 5481, 5482, 5483, 
    1175, 1577, 2068, 2512, 2184, 5068, 5484, 5485, 3846, 
    1176, 2437, 2482, 2226, 1666, 4391, 5486, 5487, 4324, 
    1177, 2069, 2094, 2512, 2068, 5488, 5489, 5484, 5067, 
    1178, 2229, 2227, 2226, 2482, 3958, 5490, 5486, 4517, 
    1179, 2632, 1934, 1886, 2892, 5491, 5492, 5493, 5494, 
    1180, 2828, 1665, 1666, 2226, 5495, 3738, 5487, 5496, 
    1181, 1295, 1293, 1555, 1628, 2988, 5497, 4909, 5498, 
    1182, 1892, 1588, 2107, 2671, 5242, 4803, 4672, 5285, 
    1183, 2446, 2569, 1603, 2296, 5499, 5500, 5009, 4195, 
    1184, 2481, 2802, 2751, 2489, 4945, 5501, 5502, 4343, 
    1185, 2484, 2489, 2751, 2877, 4344, 5502, 5503, 5504, 
    1186, 2877, 2751, 2504, 2456, 5503, 4877, 4407, 5346, 
    1187, 1364, 1363, 1785, 1365, 4613, 3570, 3334, 3797, 
    1188, 1415, 1592, 1943, 1944, 5372, 5505, 4009, 5506, 
    1189, 1638, 1639, 1943, 1592, 3527, 4579, 5505, 5371, 
    1190, 1418, 1543, 1350, 1339, 4718, 3119, 3013, 5148, 
    1191, 2588, 2583, 2531, 2311, 4841, 5507, 5508, 5509, 
    1192, 2530, 2531, 2583, 2536, 4498, 5507, 4840, 4975, 
    1193, 1774, 2169, 2167, 1773, 5510, 3816, 5511, 4464, 
    1194, 2696, 2896, 2280, 2895, 5512, 5513, 5514, 5515, 
    1195, 1572, 38, 640, 2779, 5516, 647, 5019, 4964, 
    1196, 2856, 2855, 1654, 2857, 5517, 5518, 5519, 5520, 
    1197, 1655, 1656, 2857, 1654, 5521, 5522, 5519, 5523, 
    1198, 2193, 2194, 2897, 1517, 5524, 5525, 5526, 5527, 
    1199, 2011, 2444, 1693, 1696, 5289, 5528, 3201, 4531, 
    1200, 1816, 1817, 1693, 2444, 5229, 5529, 5528, 5286, 
    1201, 1684, 2806, 2700, 1685, 5234, 5530, 5386, 3982, 
    1202, 2636, 2113, 2811, 1576, 4653, 5531, 5532, 5157, 
    1203, 1574, 1576, 2811, 1575, 5158, 5532, 5040, 5533, 
    1204, 1736, 2457, 2719, 1764, 5534, 5256, 5535, 3253, 
    1205, 2541, 2540, 2288, 2284, 5536, 5537, 3960, 5538, 
    1206, 2894, 2656, 1373, 2893, 5539, 5540, 5541, 5542, 
    1207, 1305, 1301, 1336, 1334, 2993, 4852, 5543, 3018, 
    1208, 2795, 1899, 1900, 2796, 5005, 3909, 5544, 5545, 
    1209, 2744, 2555, 1773, 2167, 4858, 4467, 5511, 5546, 
    1210, 1608, 1691, 2898, 1692, 5547, 5548, 5549, 3947, 
    1211, 2793, 2850, 2219, 2792, 5550, 5551, 5552, 5131, 
    1212, 2847, 2846, 2844, 2845, 5553, 5554, 5171, 5555, 
    1213, 1601, 2440, 1648, 1645, 5556, 5557, 3185, 5558, 
    1214, 680, 681, 2436, 1254, 690, 5559, 4352, 5560, 
    1215, 2804, 2135, 2318, 2838, 5469, 5561, 5306, 5562, 
    1216, 2793, 1867, 2503, 2850, 5195, 5563, 5564, 5550, 
    1217, 1723, 1725, 1722, 1724, 4132, 5565, 4280, 3630, 
    1218, 2174, 2175, 2144, 1673, 5566, 4766, 5567, 3812, 
    1219, 1846, 1674, 1673, 2144, 3324, 5250, 5567, 4967, 
    1220, 2718, 2814, 2816, 2900, 5568, 5056, 5569, 5570, 
    1221, 2064, 2065, 2814, 2718, 5571, 5057, 5568, 5015, 
    1222, 2901, 2880, 1380, 2783, 5572, 3661, 5364, 5573, 
    1223, 2291, 2292, 2820, 2290, 5574, 5079, 5177, 4747, 
    1224, 2247, 1401, 1399, 2716, 5214, 3039, 5575, 5576, 
    1225, 2455, 1928, 2902, 2299, 5577, 5578, 5579, 5302, 
    1226, 1695, 1470, 1466, 2090, 5580, 3063, 5182, 5027, 
    1227, 2143, 2384, 1456, 2145, 4055, 5581, 5582, 3889, 
    1228, 1457, 1458, 2145, 1456, 5583, 5584, 5582, 5585, 
    1229, 2018, 2183, 2720, 2401, 5586, 5587, 4815, 4090, 
    1230, 2023, 2819, 2569, 2567, 5065, 5588, 5203, 5404, 
    1231, 1366, 2102, 1471, 2010, 5002, 5013, 5589, 4611, 
    1232, 2712, 2791, 2517, 2518, 5590, 5591, 4424, 5592, 
    1233, 1657, 1743, 2349, 1744, 5593, 5594, 5456, 5595, 
    1234, 1774, 1915, 1917, 2169, 4781, 3414, 3817, 5510, 
    1235, 2659, 2066, 2810, 2661, 5321, 5596, 5042, 5597, 
    1236, 1413, 1411, 2810, 2066, 4734, 5049, 5596, 5204, 
    1237, 2106, 2105, 2387, 2866, 3717, 5598, 5599, 5269, 
    1238, 2212, 2866, 2387, 2385, 5270, 5599, 5600, 5601, 
    1239, 1794, 1796, 2384, 2383, 3280, 5602, 4058, 5603, 
    1240, 1794, 2383, 2175, 2691, 5603, 4057, 5604, 5410, 
    1241, 2869, 2457, 1736, 2868, 5344, 5534, 5605, 5279, 
    1242, 1324, 2295, 2868, 1736, 4044, 5606, 5605, 3252, 
    1243, 2420, 2904, 2342, 2903, 5607, 5608, 5609, 5610, 
    1244, 2887, 2888, 2901, 2783, 5611, 5612, 5573, 5436, 
    1245, 2661, 2114, 2115, 2659, 5613, 5075, 5614, 5597, 
    1246, 2811, 2113, 2114, 2661, 5531, 5072, 5613, 5041, 
    1247, 1825, 2497, 2905, 1824, 4374, 5615, 5616, 4941, 
    1248, 2887, 2120, 2130, 2888, 5439, 3746, 5617, 5611, 
    1249, 2889, 1831, 1414, 1849, 5446, 5618, 4737, 5442, 
    1250, 552, 553, 2905, 2497, 592, 5619, 5615, 4373, 
    1251, 1830, 1829, 1414, 1831, 5620, 5621, 5618, 5445, 
    1252, 2179, 2180, 2287, 2286, 5622, 5623, 3953, 5624, 
    1253, 2047, 2095, 2907, 2096, 3929, 5625, 5626, 3887, 
    1254, 1295, 1628, 1629, 1787, 5498, 3166, 4796, 3275, 
    1255, 2096, 2907, 2421, 2422, 5626, 5627, 5628, 5175, 
    1256, 2889, 1844, 2187, 1832, 5441, 5462, 4348, 5447, 
    1257, 2795, 2796, 2836, 2837, 5545, 5629, 5463, 5305, 
    1258, 2877, 2869, 1459, 2484, 5345, 5278, 4972, 5504, 
    1259, 1294, 2491, 2140, 1293, 5031, 5630, 5631, 2991, 
    1260, 2803, 2739, 2751, 2802, 5433, 4878, 5501, 5395, 
    1261, 1657, 1745, 2124, 1743, 5222, 3753, 5632, 5593, 
    1262, 2139, 2140, 2491, 2434, 5633, 5630, 4358, 5479, 
    1263, 1492, 1491, 2304, 1490, 5634, 5143, 5635, 5636, 
    1264, 1492, 1493, 2303, 1491, 4639, 4585, 3994, 5634, 
    1265, 2342, 2341, 2848, 2340, 5637, 5638, 5639, 5640, 
    1266, 2349, 1743, 2124, 2346, 5594, 5632, 5641, 4795, 
    1267, 1357, 1827, 421, 422, 3416, 5066, 451, 3044, 
    1268, 1558, 1527, 1528, 1557, 5642, 3123, 5643, 5473, 
    1269, 1730, 1731, 2502, 2908, 3229, 4490, 5644, 5645, 
    1270, 1622, 2692, 2683, 2380, 4745, 5646, 4708, 4742, 
    1271, 1624, 2586, 2863, 2585, 4689, 5647, 5455, 4548, 
    1272, 1853, 489, 488, 1784, 4771, 520, 5648, 3336, 
    1273, 1623, 1898, 1607, 1769, 5466, 3799, 3946, 4743, 
    1274, 1925, 1732, 1302, 1926, 4592, 3779, 4285, 3420, 
    1275, 1823, 2306, 2001, 2002, 4943, 4136, 3560, 3614, 
    1276, 2197, 1834, 1835, 2196, 5020, 3313, 5649, 5077, 
    1277, 1693, 1817, 1470, 1695, 5529, 5650, 5580, 3202, 
    1278, 2261, 2260, 1548, 2729, 4663, 5651, 5652, 4899, 
    1279, 2416, 2472, 2902, 2475, 4296, 5653, 5654, 5655, 
    1280, 1928, 2266, 2475, 2902, 3923, 5656, 5654, 5578, 
    1281, 2327, 2686, 1415, 1944, 4980, 5307, 5506, 4006, 
    1282, 1814, 1549, 1548, 2260, 4543, 3125, 5651, 5113, 
    1283, 1569, 2570, 1764, 2719, 5657, 4488, 5535, 5255, 
    1284, 1676, 2681, 1313, 1395, 5658, 4866, 3000, 4928, 
    1285, 1658, 1659, 2910, 1660, 5221, 5659, 5660, 5661, 
    1286, 481, 480, 1739, 1714, 512, 5023, 4176, 3776, 
    1287, 1336, 1335, 2479, 1334, 5329, 5340, 5392, 5543, 
    1288, 1819, 1820, 1893, 2277, 3304, 3391, 5662, 5663, 
    1289, 1658, 1660, 1893, 1891, 5661, 5664, 3390, 3389, 
    1290, 2172, 2863, 2586, 2173, 5266, 5647, 4692, 4491, 
    1291, 424, 425, 2010, 1471, 454, 5665, 5589, 3488, 
    1292, 1363, 2010, 425, 426, 4612, 5665, 455, 3571, 
    1293, 2513, 2325, 2501, 2746, 5666, 5667, 5245, 5668, 
    1294, 2062, 2715, 1641, 2713, 5669, 5388, 5670, 4959, 
    1295, 2800, 2389, 2861, 2801, 5090, 5671, 5235, 5672, 
    1296, 1995, 2390, 2861, 2389, 4078, 5673, 5671, 5674, 
    1297, 1399, 2718, 2900, 2717, 5379, 5570, 5675, 5676, 
    1298, 1325, 1987, 2868, 2295, 5360, 5677, 5606, 4043, 
    1299, 1399, 2717, 2386, 2716, 5676, 5678, 5679, 5575, 
    1300, 2840, 2286, 2285, 2428, 5680, 3952, 5681, 5431, 
    1301, 1788, 1801, 1941, 1942, 5682, 5683, 5684, 3965, 
    1302, 2075, 1941, 1801, 1799, 4257, 5683, 3285, 5071, 
    1303, 2574, 2556, 1352, 2831, 4503, 4473, 5397, 5685, 
    1304, 2514, 2461, 1529, 1307, 5342, 5330, 3134, 4549, 
    1305, 2142, 2236, 2709, 1985, 3891, 4758, 5686, 4966, 
    1306, 1758, 2427, 1757, 1755, 4770, 5336, 3247, 4130, 
    1307, 1722, 1725, 1755, 1367, 5565, 4131, 3246, 5044, 
    1308, 1516, 1519, 2230, 1515, 5687, 5688, 5259, 5689, 
    1309, 2558, 2112, 2108, 2557, 5690, 3721, 5691, 5137, 
    1310, 2109, 2110, 2557, 2108, 4800, 5141, 5691, 4805, 
    1311, 1461, 2868, 1987, 1589, 5280, 5677, 5274, 5359, 
    1312, 1558, 1559, 2682, 1561, 5475, 5117, 5692, 5693, 
    1313, 2287, 2180, 2912, 2361, 5623, 5694, 5695, 5121, 
    1314, 2013, 1790, 1878, 2646, 4298, 3365, 4626, 5030, 
    1315, 2314, 2026, 2122, 2315, 5374, 5696, 4927, 3986, 
    1316, 2179, 2178, 2912, 2180, 5697, 5698, 5694, 5622, 
    1317, 2817, 2414, 1604, 1602, 5699, 5024, 3155, 5086, 
    1318, 2296, 1920, 1447, 1448, 5008, 5700, 4123, 4193, 
    1319, 2085, 2361, 2912, 2445, 5701, 5695, 5702, 4172, 
    1320, 1649, 1650, 2913, 1652, 5703, 5704, 5705, 5706, 
    1321, 1649, 1651, 2742, 1650, 5707, 5101, 5708, 5703, 
    1322, 2404, 2549, 2550, 2589, 5709, 4460, 4525, 5087, 
    1323, 2914, 2302, 2301, 2841, 5710, 3973, 5169, 5711, 
    1324, 2404, 484, 483, 2549, 5712, 515, 4461, 5709, 
    1325, 2090, 2820, 2196, 2553, 5181, 5078, 5713, 5028, 
    1326, 1694, 2553, 2196, 1835, 5029, 5713, 5649, 4463, 
    1327, 2268, 2270, 2702, 2269, 4073, 4739, 5714, 5715, 
    1328, 1858, 2217, 2216, 1857, 4798, 5716, 5717, 5153, 
    1329, 2215, 1490, 2304, 2216, 5718, 5635, 5719, 5720, 
    1330, 1368, 1857, 2216, 2304, 5154, 5717, 5719, 5144, 
    1331, 1698, 1392, 1393, 2326, 4914, 3049, 4004, 5721, 
    1332, 2470, 1286, 473, 474, 4554, 4208, 505, 5722, 
    1333, 2859, 1950, 635, 34, 5238, 5444, 639, 5357, 
    1334, 1996, 1997, 2005, 2006, 5723, 5092, 3548, 5724, 
    1335, 1697, 1698, 2326, 1708, 3203, 5721, 4008, 5725, 
    1336, 1865, 2735, 1682, 2493, 5313, 5726, 4624, 4818, 
    1337, 2160, 2817, 2818, 2159, 5727, 5085, 5728, 3803, 
    1338, 2800, 2801, 1682, 2735, 5672, 5033, 5726, 5312, 
    1339, 1922, 1921, 2524, 1923, 5729, 5730, 5731, 5732, 
    1340, 1904, 2303, 2244, 1903, 3995, 4584, 3898, 5733, 
    1341, 1456, 2384, 1796, 1706, 5581, 5602, 5734, 3883, 
    1342, 1795, 1707, 1706, 1796, 5735, 3208, 5734, 3279, 
    1343, 1800, 1798, 1789, 1810, 3287, 5736, 4333, 3295, 
    1344, 2417, 1986, 2402, 2733, 5437, 5737, 5738, 4839, 
    1345, 1648, 2440, 2834, 2551, 5557, 5739, 5185, 4761, 
    1346, 2109, 1584, 1582, 1678, 5740, 4674, 5741, 4801, 
    1347, 1583, 1584, 2109, 1588, 4673, 5740, 4804, 5241, 
    1348, 2861, 2390, 2825, 2806, 5673, 5105, 5742, 5236, 
    1349, 1545, 677, 678, 1544, 5383, 687, 3370, 3762, 
    1350, 1749, 1884, 2916, 1885, 5743, 5744, 5745, 5746, 
    1351, 2241, 2242, 1927, 1538, 4178, 4067, 3431, 5747, 
    1352, 1417, 2449, 2447, 1710, 5748, 4730, 5749, 4719, 
    1353, 1710, 2447, 2391, 1709, 5749, 4741, 4614, 5282, 
    1354, 1601, 2153, 2834, 2440, 5231, 5750, 5739, 5556, 
    1355, 1548, 1405, 1406, 2729, 3124, 5381, 5751, 5652, 
    1356, 1804, 1913, 2731, 2432, 4192, 5752, 4835, 5233, 
    1357, 1914, 2876, 2731, 1913, 5428, 5753, 5752, 3406, 
    1358, 2823, 476, 477, 1483, 5754, 508, 5290, 5096, 
    1359, 1814, 2112, 2558, 1815, 5112, 5690, 5755, 4544, 
    1360, 2799, 2836, 2906, 1281, 5464, 5756, 5757, 5298, 
    1361, 1768, 2119, 2181, 1760, 4533, 3823, 3829, 3744, 
    1362, 2460, 2159, 2818, 2024, 4844, 5728, 5063, 5247, 
    1363, 1547, 1688, 1686, 1407, 3196, 3195, 5758, 5212, 
    1364, 1918, 2720, 1686, 1689, 4816, 5759, 3194, 3412, 
    1365, 2122, 2026, 2027, 1946, 5696, 5373, 3825, 3790, 
    1366, 2183, 1407, 1686, 2720, 5760, 5758, 5759, 5587, 
    1367, 1500, 2181, 2027, 1501, 3827, 3826, 3597, 3079, 
    1368, 1789, 1798, 1801, 1788, 5736, 3286, 5682, 4300, 
    1369, 2429, 2428, 2285, 2228, 5262, 5681, 3957, 4599, 
    1370, 2229, 529, 530, 2228, 4516, 569, 4597, 3956, 
    1371, 660, 1705, 1614, 40, 5761, 3210, 4225, 664, 
    1372, 1580, 1939, 2860, 2891, 4047, 5425, 5762, 5461, 
    1373, 1337, 1737, 2339, 2320, 5319, 4880, 5763, 5476, 
    1374, 2147, 2151, 2230, 1519, 3944, 5764, 5688, 3766, 
    1375, 2141, 2230, 2151, 2137, 3939, 5764, 3943, 3764, 
    1376, 1358, 2600, 1895, 1611, 5450, 5453, 3397, 3160, 
    1377, 2569, 2819, 1602, 1603, 5588, 5084, 3158, 5500, 
    1378, 2687, 2327, 1393, 1421, 4981, 4005, 3048, 4976, 
    1379, 2836, 2796, 1900, 2906, 5629, 5544, 5765, 5756, 
    1380, 2659, 2115, 1449, 2453, 5614, 5766, 4214, 5322, 
    1381, 467, 468, 2906, 1900, 499, 5767, 5765, 5768, 
    1382, 2033, 1449, 2115, 2073, 3878, 5766, 5128, 3741, 
    1383, 1875, 1830, 1832, 1874, 5769, 5448, 5770, 5771, 
    1384, 2263, 2262, 2664, 2261, 5772, 5773, 4664, 4898, 
    1385, 1875, 1876, 1829, 1830, 5417, 5774, 5620, 5769, 
    1386, 2123, 2671, 2664, 2262, 5284, 4671, 5773, 5405, 
    1387, 1976, 1977, 2038, 1979, 5775, 5776, 4655, 5777, 
    1388, 1976, 1978, 1530, 1977, 5778, 3927, 5779, 5775, 
    1389, 2599, 1909, 2163, 2614, 5125, 4808, 5780, 5781, 
    1390, 1306, 1566, 2614, 2163, 4903, 5782, 5780, 5783, 
    1391, 1540, 2038, 1977, 1530, 3611, 5776, 5779, 3115, 
    1392, 1638, 1579, 2648, 1994, 5370, 5784, 5785, 3528, 
    1393, 470, 471, 1859, 2278, 502, 4528, 4077, 5786, 
    1394, 1815, 2558, 1707, 1795, 5755, 5787, 5735, 4541, 
    1395, 1614, 1707, 2558, 1616, 3209, 5787, 5139, 4218, 
    1396, 1663, 1661, 2084, 2149, 3685, 3695, 4284, 4276, 
    1397, 2602, 2734, 2864, 2693, 5788, 5789, 5790, 5791, 
    1398, 2600, 2794, 2601, 2585, 5449, 5000, 4545, 5454, 
    1399, 2688, 2778, 2918, 2777, 5792, 5793, 5794, 5795, 
    1400, 1523, 2758, 2918, 2778, 5411, 5796, 5793, 5797, 
    1401, 484, 2404, 2898, 485, 5712, 5798, 5799, 516, 
    1402, 2282, 2308, 2309, 2373, 5800, 5801, 4071, 5802, 
    1403, 1679, 1678, 1582, 1677, 5140, 5741, 3302, 4570, 
    1404, 2282, 2369, 2312, 2308, 5803, 5276, 5804, 5800, 
    1405, 1692, 2898, 2404, 2767, 5549, 5798, 5089, 4932, 
    1406, 2831, 2830, 682, 2574, 5134, 5805, 4910, 5685, 
    1407, 2436, 681, 682, 2830, 5559, 691, 5805, 5136, 
    1408, 1403, 1395, 1312, 1486, 4929, 3003, 4901, 4036, 
    1409, 487, 1609, 1784, 488, 3163, 5094, 5648, 519, 
    1410, 2274, 2275, 1656, 2273, 5806, 5807, 5808, 3934, 
    1411, 2220, 2852, 2815, 2853, 4456, 5809, 5810, 5811, 
    1412, 2817, 2160, 2804, 2414, 5727, 5470, 5025, 5699, 
    1413, 2471, 1677, 1819, 1585, 4571, 3305, 5812, 4576, 
    1414, 1896, 1940, 1561, 2682, 4695, 5130, 5692, 4703, 
    1415, 2769, 2859, 1323, 1730, 5239, 5356, 3230, 5813, 
    1416, 1659, 1657, 1744, 2199, 5223, 5595, 5362, 5814, 
    1417, 2277, 1882, 1585, 1819, 4397, 3373, 5812, 5663, 
    1418, 1493, 2559, 1416, 1273, 4642, 5815, 4017, 4586, 
    1419, 1643, 2851, 2651, 1642, 5816, 5817, 4643, 5390, 
    1420, 1675, 2168, 2744, 2167, 5252, 5818, 5546, 3818, 
    1421, 2582, 2651, 2851, 2580, 4644, 5817, 5819, 5820, 
    1422, 1375, 1384, 1845, 1374, 5821, 3322, 5822, 5823, 
    1423, 1636, 2328, 1464, 1465, 5824, 5825, 3065, 4833, 
    1424, 1998, 1734, 2910, 2072, 4093, 5826, 5827, 4138, 
    1425, 1659, 2199, 2072, 2910, 5814, 5003, 5827, 5659, 
    1426, 1735, 1660, 2910, 1734, 5828, 5660, 5826, 5114, 
    1427, 2769, 1730, 2908, 1861, 5813, 5645, 5829, 5830, 
    1428, 1665, 1874, 2388, 1664, 5831, 5832, 4065, 3735, 
    1429, 2186, 2388, 1874, 1832, 4064, 5832, 5770, 4347, 
    1430, 1861, 2908, 2502, 2500, 5829, 5644, 4387, 5833, 
    1431, 2362, 2363, 2842, 1876, 5834, 5835, 5836, 5416, 
    1432, 2286, 2840, 2886, 2179, 5680, 5430, 5837, 5624, 
    1433, 2540, 2541, 2548, 2542, 5536, 5838, 4681, 4595, 
    1434, 1687, 2691, 2175, 2174, 4760, 5604, 5566, 4716, 
    1435, 1744, 2376, 2886, 2198, 5458, 5839, 5432, 5363, 
    1436, 2178, 2179, 2886, 2376, 5697, 5837, 5839, 5457, 
    1437, 2880, 2901, 1996, 2006, 5572, 5840, 5724, 5408, 
    1438, 1702, 2849, 2786, 1701, 5190, 5841, 4984, 5842, 
    1439, 2901, 1488, 1995, 1996, 5843, 4079, 5844, 5840, 
    1440, 2017, 2213, 2164, 2728, 3870, 5253, 5845, 5846, 
    1441, 1414, 1829, 2919, 2766, 5621, 5847, 5848, 5849, 
    1442, 1829, 1876, 2842, 2919, 5774, 5836, 5850, 5847, 
    1443, 2530, 1625, 2920, 2532, 5225, 5851, 5852, 4495, 
    1444, 2396, 2051, 2049, 2078, 4084, 3699, 5853, 5854, 
    1445, 1996, 1995, 2389, 1997, 5844, 5674, 5093, 5723, 
    1446, 1671, 1467, 1468, 1672, 4609, 4273, 5855, 4052, 
    1447, 2657, 2656, 2894, 2658, 5856, 5539, 5857, 5858, 
    1448, 2249, 2858, 1970, 2248, 5209, 5859, 5860, 5216, 
    1449, 2062, 2060, 2921, 2715, 3654, 5861, 5862, 5669, 
    1450, 2385, 2915, 2921, 2212, 5863, 5864, 5865, 5601, 
    1451, 2192, 2212, 2921, 2060, 5271, 5865, 5861, 3938, 
    1452, 2768, 2241, 1538, 1539, 5866, 5747, 5243, 5867, 
    1453, 1643, 2715, 2921, 2915, 5389, 5862, 5864, 5868, 
    1454, 2226, 2227, 2287, 2828, 5490, 3954, 5120, 5496, 
    1455, 1874, 1665, 2828, 1875, 5831, 5495, 5418, 5771, 
    1456, 2089, 1466, 2354, 2091, 5180, 5869, 5870, 5871, 
    1457, 2668, 2658, 2894, 2667, 5872, 5857, 5873, 5874, 
    1458, 1465, 1470, 1817, 1637, 3064, 5650, 5228, 4830, 
    1459, 2608, 2665, 2355, 2353, 4661, 5875, 4029, 5876, 
    1460, 1893, 1660, 1735, 2277, 5664, 5828, 4398, 5662, 
    1461, 2523, 1651, 1649, 1520, 5877, 5707, 5878, 4441, 
    1462, 2476, 2480, 1649, 1652, 5879, 5880, 5706, 4396, 
    1463, 464, 2241, 2768, 465, 4177, 5866, 5881, 496, 
    1464, 2907, 2095, 2923, 2421, 5625, 5882, 5883, 5627, 
    1465, 2856, 2421, 2923, 2855, 5884, 5883, 5885, 5517, 
    1466, 2245, 2048, 2044, 2246, 5886, 3639, 5887, 5888, 
    1467, 2322, 2325, 2513, 2323, 5889, 5666, 4435, 4001, 
    1468, 2543, 1525, 2776, 2544, 5890, 5891, 4952, 5892, 
    1469, 1970, 1975, 2922, 2248, 3481, 5893, 5894, 5860, 
    1470, 2153, 2152, 2924, 2797, 5230, 5895, 5896, 5897, 
    1471, 2812, 2766, 2919, 2839, 5047, 5848, 5898, 5167, 
    1472, 2841, 2839, 2919, 2842, 5168, 5898, 5850, 5899, 
    1473, 2701, 2822, 2534, 2535, 5900, 5901, 4448, 5902, 
    1474, 2007, 2920, 1625, 1631, 5903, 5851, 3173, 3725, 
    1475, 2712, 2598, 2597, 2791, 5166, 5904, 4997, 5590, 
    1476, 2407, 2320, 2339, 2410, 4874, 5763, 4968, 4102, 
    1477, 1495, 679, 680, 1494, 5905, 689, 5906, 5907, 
    1478, 1482, 1485, 2925, 2298, 5111, 5908, 5909, 3981, 
    1479, 2774, 1373, 1371, 2676, 5910, 5911, 5912, 5913, 
    1480, 2204, 2206, 2925, 1854, 5914, 5915, 5916, 5163, 
    1481, 1855, 1854, 2925, 1485, 3341, 5916, 5908, 3907, 
    1482, 1372, 2678, 2676, 1371, 5917, 4688, 5912, 4994, 
    1483, 1979, 1653, 2923, 1976, 5918, 5919, 5920, 5777, 
    1484, 1654, 2855, 2923, 1653, 5518, 5885, 5919, 5921, 
    1485, 1253, 1494, 680, 1254, 5922, 5906, 5560, 5317, 
    1486, 2648, 1492, 1490, 2649, 4640, 5636, 5923, 5924, 
    1487, 1676, 1557, 1528, 2681, 5474, 5643, 5311, 5658, 
    1488, 2215, 2573, 2649, 1490, 5925, 5926, 5923, 5718, 
    1489, 2774, 2676, 2679, 2775, 5913, 4687, 5927, 5928, 
    1490, 2409, 2334, 2336, 2535, 4098, 5929, 5930, 4447, 
    1491, 2145, 1458, 2710, 2236, 5584, 5931, 4755, 3890, 
    1492, 2629, 2630, 2515, 2356, 4591, 5932, 4422, 5933, 
    1493, 1279, 1447, 1920, 1919, 4113, 5700, 5012, 5297, 
    1494, 2369, 2345, 2630, 2382, 5934, 5935, 4590, 5277, 
    1495, 1357, 1611, 1896, 1610, 3161, 3400, 4705, 3417, 
    1496, 2308, 2312, 2765, 2307, 5804, 4921, 5936, 5937, 
    1497, 1662, 1680, 2765, 2170, 4228, 5938, 4924, 3809, 
    1498, 2297, 2713, 2929, 2150, 4960, 5939, 5940, 4961, 
    1499, 1479, 2826, 2930, 2827, 5941, 5942, 5943, 5944, 
    1500, 1457, 2662, 2710, 1458, 5149, 5945, 5931, 5583, 
    1501, 1644, 2929, 2713, 1641, 5946, 5939, 5670, 5199, 
    1502, 1479, 2077, 2324, 2826, 5947, 5948, 5949, 5941, 
    1503, 633, 634, 2931, 2673, 637, 5950, 5951, 4678, 
    1504, 2900, 2816, 2048, 2245, 5569, 5952, 5886, 5953, 
    1505, 1550, 1551, 2505, 1553, 5954, 4409, 5955, 5956, 
    1506, 1372, 2511, 1551, 1552, 5957, 4410, 5958, 5959, 
    1507, 2725, 2724, 2408, 2726, 5960, 5961, 5962, 5963, 
    1508, 1941, 1475, 1444, 1942, 4256, 3071, 5964, 5684, 
    1509, 1994, 2648, 2649, 2007, 5785, 5924, 5965, 3724, 
    1510, 2782, 1402, 2922, 2750, 5368, 5966, 5967, 5434, 
    1511, 1975, 2117, 2750, 2922, 5968, 5440, 5967, 5893, 
    1512, 1401, 2248, 2922, 1402, 5217, 5894, 5966, 3040, 
    1513, 2562, 2561, 2579, 2560, 5969, 5308, 4510, 5970, 
    1514, 2562, 2372, 2370, 2561, 5971, 5972, 5973, 5969, 
    1515, 2701, 2700, 2806, 2822, 4725, 5530, 5974, 5900, 
    1516, 2534, 2822, 2806, 2825, 5901, 5974, 5742, 5975, 
    1517, 2056, 2053, 2871, 2057, 3643, 5976, 5295, 5977, 
    1518, 2046, 2045, 1444, 1445, 5053, 5978, 3070, 5052, 
    1519, 2572, 2581, 2016, 2728, 4513, 5039, 5979, 5980, 
    1520, 1612, 1383, 1381, 1613, 5981, 3085, 4812, 3948, 
    1521, 2923, 2095, 1978, 1976, 5882, 3931, 5778, 5920, 
    1522, 2673, 2931, 1532, 2190, 5951, 5982, 3844, 4679, 
    1523, 2521, 2516, 2519, 2520, 5983, 4426, 5984, 5985, 
    1524, 1533, 1532, 2931, 1531, 5986, 5982, 5987, 5988, 
    1525, 2665, 2666, 2392, 2355, 5989, 5990, 5991, 5875, 
    1526, 1626, 2753, 2321, 1746, 5224, 4884, 3991, 4552, 
    1527, 2854, 2667, 2669, 2773, 5992, 4670, 5993, 5994, 
    1528, 2772, 2669, 2626, 2771, 5995, 4669, 5996, 5997, 
    1529, 2362, 2361, 2085, 2363, 5118, 5701, 5998, 5834, 
    1530, 1649, 2480, 1522, 1520, 5880, 5999, 3103, 5878, 
    1531, 2221, 2015, 2048, 2852, 5098, 3640, 6000, 4455, 
    1532, 2584, 2588, 1627, 2101, 4842, 6001, 5420, 5421, 
    1533, 1629, 1627, 2588, 2311, 3169, 6001, 5509, 6002, 
    1534, 2692, 2767, 2587, 2683, 4933, 5088, 4783, 5646, 
    1535, 1597, 2240, 42, 670, 5400, 6003, 674, 4339, 
    1536, 1904, 1903, 2240, 1905, 5733, 3897, 5399, 4328, 
    1537, 1654, 1653, 2760, 1655, 5921, 6004, 6005, 5523, 
    1538, 2273, 1656, 1655, 2300, 5808, 5521, 6006, 6007, 
    1539, 1574, 2300, 1655, 2760, 3975, 6006, 6005, 5155, 
    1540, 2162, 2572, 2728, 2164, 4507, 5980, 5845, 6008, 
    1541, 2412, 2411, 2675, 2641, 4106, 6009, 6010, 5059, 
    1542, 2021, 1382, 2911, 2748, 3584, 6011, 6012, 5081, 
    1543, 2518, 1921, 2714, 2712, 6013, 6014, 4777, 5592, 
    1544, 2785, 2616, 2617, 2332, 5325, 4556, 6015, 6016, 
    1545, 2162, 2164, 1306, 2163, 6008, 5254, 5783, 4807, 
    1546, 2015, 2017, 2728, 2016, 5097, 5846, 5979, 3641, 
    1547, 2625, 2634, 2771, 2626, 4604, 6017, 5996, 4573, 
    1548, 2077, 2280, 2896, 2324, 6018, 5513, 6019, 5948, 
    1549, 2346, 2348, 2879, 2347, 6020, 6021, 5376, 4792, 
    1550, 2911, 1382, 1383, 2892, 6011, 3082, 6022, 6023, 
    1551, 2300, 2302, 2272, 2273, 3974, 6024, 3935, 6007, 
    1552, 2246, 2419, 2936, 2245, 6025, 6026, 6027, 5888, 
    1553, 2693, 2694, 2896, 2696, 6028, 6029, 5512, 6030, 
    1554, 2900, 2245, 2936, 2717, 5953, 6027, 6031, 5675, 
    1555, 2594, 2595, 2566, 2565, 6032, 6033, 6034, 4637, 
    1556, 2732, 2397, 2398, 2486, 6035, 4085, 5481, 6036, 
    1557, 2609, 2605, 2509, 2578, 6037, 6038, 6039, 5310, 
    1558, 2564, 2563, 2596, 2565, 6040, 4582, 4634, 6041, 
    1559, 2561, 2370, 2755, 2609, 5973, 6042, 6043, 5309, 
    1560, 2317, 2727, 2028, 2314, 6044, 5413, 5375, 3989, 
    1561, 467, 466, 2937, 1450, 498, 6045, 6046, 4851, 
    1562, 1539, 2660, 2937, 2768, 5206, 6047, 6048, 5867, 
    1563, 2453, 1450, 2937, 2660, 4213, 6046, 6047, 5323, 
    1564, 465, 2768, 2937, 466, 5881, 6048, 6045, 497, 
    1565, 2580, 2576, 2706, 2582, 4514, 6049, 4810, 5820, 
    1566, 2368, 2367, 2642, 2366, 6050, 4619, 6051, 6052, 
    1567, 2672, 2706, 2576, 2577, 5384, 6049, 4505, 4697, 
    1568, 2710, 2662, 2763, 2711, 5945, 6053, 6054, 4756, 
    1569, 2368, 2291, 2289, 2367, 6055, 4750, 4620, 6050, 
    1570, 2097, 2098, 2466, 2738, 6056, 5124, 6057, 5423, 
    1571, 2873, 2874, 2742, 2824, 5331, 6058, 5100, 6059, 
    1572, 2663, 1394, 2763, 2662, 6060, 4917, 6053, 5152, 
    1573, 2881, 2266, 2267, 2400, 6061, 3926, 6062, 6063, 
    1574, 2622, 2689, 2424, 2425, 6064, 6065, 6066, 6067, 
    1575, 2423, 2424, 2938, 2426, 6068, 6069, 6070, 6071, 
    1576, 2649, 2573, 2920, 2007, 5926, 6072, 5903, 5965, 
    1577, 1407, 2183, 2939, 1404, 5760, 6073, 6074, 5213, 
    1578, 2652, 2653, 2595, 2594, 6075, 6076, 6032, 4788, 
    1579, 2018, 2870, 2939, 2183, 6077, 6078, 6073, 5586, 
    1580, 2571, 2532, 2920, 2573, 4496, 5852, 6072, 6079, 
    1581, 1697, 1708, 1943, 2552, 5725, 4007, 4578, 6080, 
    1582, 2631, 2343, 2283, 2288, 6081, 4024, 3961, 6082, 
    1583, 1934, 1937, 2495, 1933, 6083, 4381, 6084, 6085, 
    1584, 2663, 2833, 660, 659, 5151, 6086, 663, 6087, 
    1585, 1456, 1455, 2833, 1457, 3882, 6088, 5150, 5585, 
    1586, 1705, 660, 2833, 1455, 5761, 6086, 6088, 3881, 
    1587, 2529, 2701, 2535, 2336, 4726, 5902, 5930, 6089, 
    1588, 2505, 2515, 2344, 1553, 4423, 6090, 6091, 5955, 
    1589, 2630, 2345, 2344, 2515, 5935, 4022, 6090, 5932, 
    1590, 2538, 2714, 1921, 1922, 5394, 6014, 5729, 6092, 
    1591, 1383, 1612, 2632, 2892, 5981, 4600, 5494, 6022, 
    1592, 1550, 1553, 2344, 2343, 5956, 6091, 4021, 6093, 
    1593, 2124, 2125, 2941, 2346, 3752, 6094, 6095, 5641, 
    1594, 2808, 2593, 2592, 2654, 6096, 4519, 4647, 6097, 
    1595, 2643, 2644, 2771, 2613, 6098, 6099, 6100, 6101, 
    1596, 2605, 2606, 2508, 2509, 6102, 6103, 4418, 6038, 
    1597, 2516, 2521, 2942, 2524, 5983, 6104, 6105, 6106, 
    1598, 1342, 1748, 1754, 2211, 3857, 3242, 6107, 4949, 
    1599, 2942, 2521, 2520, 2770, 6104, 5985, 6108, 6109, 
    1600, 1599, 1601, 1645, 1600, 3971, 5558, 3731, 3171, 
    1601, 2099, 2100, 2829, 2098, 4826, 6110, 5122, 6111, 
    1602, 2219, 2850, 2503, 2322, 5551, 5564, 6112, 4000, 
    1603, 2513, 2746, 1570, 2458, 5668, 6113, 4252, 5343, 
    1604, 2270, 2309, 2076, 2391, 4072, 6114, 4615, 4740, 
    1605, 2480, 2476, 2233, 2238, 5879, 4627, 6115, 6116, 
    1606, 2679, 2677, 2944, 2547, 4686, 6117, 6118, 6119, 
    1607, 2105, 2265, 2721, 2387, 3922, 6120, 6121, 5598, 
    1608, 2545, 2547, 2944, 2546, 6122, 6118, 6123, 4593, 
    1609, 2678, 2934, 2944, 2677, 6124, 6125, 6117, 4685, 
    1610, 2879, 2348, 2526, 2116, 6021, 6126, 4436, 5377, 
    1611, 1702, 1701, 2643, 1700, 5842, 6127, 6128, 6129, 
    1612, 1374, 2224, 2222, 2050, 6130, 6131, 6132, 3701, 
    1613, 2077, 2049, 2050, 2280, 6133, 3702, 6134, 6018, 
    1614, 2035, 1521, 1522, 2043, 6135, 3100, 6136, 6137, 
    1615, 2035, 1489, 1487, 1521, 5103, 6138, 3101, 6135, 
    1616, 2639, 2940, 2917, 2637, 6139, 6140, 6141, 6142, 
    1617, 2716, 2386, 2387, 2721, 5679, 6143, 6121, 6144, 
    1618, 2322, 2503, 2501, 2325, 6112, 4385, 5667, 5889, 
    1619, 2206, 2539, 2298, 2925, 4450, 5300, 5909, 5915, 
    1620, 2510, 2508, 2330, 2899, 4415, 6145, 6146, 6147, 
    1621, 2510, 2899, 2876, 2885, 6147, 6148, 5427, 6149, 
    1622, 1644, 2650, 2707, 1250, 5198, 6150, 5369, 6151, 
    1623, 2731, 2876, 2899, 2330, 5753, 6148, 6146, 4836, 
    1624, 2351, 2808, 2926, 2335, 6152, 6153, 6154, 6155, 
    1625, 1404, 2939, 2057, 2166, 6074, 6156, 5294, 4329, 
    1626, 2292, 2291, 2368, 2452, 5574, 6055, 6157, 6158, 
    1627, 2366, 2448, 2452, 2368, 6159, 4205, 6157, 6052, 
    1628, 2654, 2807, 2926, 2808, 6160, 6161, 6153, 6097, 
    1629, 1691, 1608, 487, 486, 5547, 3164, 518, 6162, 
    1630, 1281, 2906, 468, 1278, 5757, 5767, 5248, 2978, 
    1631, 2565, 2566, 2654, 2564, 6034, 6163, 4650, 6041, 
    1632, 2808, 2351, 2235, 2593, 6152, 4027, 4631, 6096, 
    1633, 1411, 1414, 2766, 2813, 4738, 5849, 5046, 5050, 
    1634, 1900, 1901, 466, 467, 3912, 5335, 498, 5768, 
    1635, 2536, 2584, 2738, 2945, 4843, 5424, 6164, 6165, 
    1636, 2056, 2057, 2939, 2870, 5977, 6156, 6078, 5291, 
    1637, 2815, 2852, 2048, 2816, 5809, 6000, 5952, 5055, 
    1638, 1567, 2150, 2929, 1251, 3784, 5940, 6166, 3678, 
    1639, 2633, 1937, 1934, 2632, 4989, 6083, 5491, 4602, 
    1640, 1933, 1932, 1886, 1934, 6167, 6168, 5492, 6085, 
    1641, 2334, 2350, 2351, 2335, 4100, 4025, 6155, 6169, 
    1642, 2689, 2624, 2626, 2670, 6170, 4574, 4668, 6171, 
    1643, 2693, 2695, 2928, 2694, 6172, 6173, 6174, 6028, 
    1644, 2262, 2263, 2943, 2264, 5772, 6175, 6176, 5406, 
    1645, 1250, 1251, 2929, 1644, 2964, 6166, 5946, 6151, 
    1646, 2896, 2694, 2928, 2324, 6029, 6174, 6177, 6019, 
    1647, 1479, 2827, 2590, 1481, 5944, 6178, 6179, 3074, 
    1648, 2629, 2356, 2359, 2537, 5933, 4034, 5393, 6180, 
    1649, 2591, 2507, 1481, 2590, 4628, 4530, 6179, 4521, 
    1650, 2871, 2053, 2055, 2932, 5976, 5354, 6181, 6182, 
    1651, 2871, 2932, 2342, 2340, 6182, 6183, 5640, 6184, 
    1652, 2516, 2524, 1921, 2518, 6106, 5730, 6013, 4427, 
    1653, 2849, 2797, 2924, 2786, 5189, 5896, 6185, 5841, 
    1654, 1566, 1527, 1558, 2614, 3132, 5642, 6186, 5782, 
    1655, 2786, 2924, 2211, 1754, 6185, 6187, 6107, 6188, 
    1656, 2278, 1280, 469, 470, 4112, 5249, 501, 5786, 
    1657, 2606, 2805, 2330, 2508, 6189, 6190, 6145, 6103, 
    1658, 2606, 2608, 2328, 2805, 4662, 6191, 6192, 6189, 
    1659, 2693, 2696, 2604, 2602, 6030, 6193, 4535, 5791, 
    1660, 2223, 2225, 2604, 2222, 5161, 4536, 6194, 6195, 
    1661, 2259, 2099, 2949, 1556, 4827, 6196, 6197, 6198, 
    1662, 2101, 1554, 2949, 2097, 5419, 6199, 6200, 5422, 
    1663, 2197, 2292, 2452, 2780, 5076, 6158, 6201, 4962, 
    1664, 2098, 2097, 2949, 2099, 6056, 6200, 6196, 6111, 
    1665, 1555, 1556, 2949, 1554, 6202, 6197, 6199, 4907, 
    1666, 2268, 2284, 2282, 2373, 6203, 3959, 5802, 4070, 
    1667, 1374, 1376, 2745, 1375, 4083, 6204, 6205, 5823, 
    1668, 2194, 2749, 2741, 2897, 6206, 4869, 6207, 5525, 
    1669, 1674, 1384, 1375, 2168, 3323, 5821, 6208, 5251, 
    1670, 2742, 2874, 2897, 2741, 6058, 6209, 6207, 6210, 
    1671, 2580, 2851, 2809, 2581, 5819, 6211, 5037, 4515, 
    1672, 2246, 2044, 2809, 2418, 5887, 5038, 6212, 6213, 
    1673, 1569, 1570, 2746, 2570, 4235, 6113, 5246, 5657, 
    1674, 1643, 2418, 2809, 2851, 6214, 6212, 6211, 5816, 
    1675, 2528, 2529, 2069, 2067, 4727, 6215, 5070, 4445, 
    1676, 1879, 1942, 1444, 2045, 3963, 5964, 5978, 4651, 
    1677, 2744, 2168, 1375, 2745, 5818, 6208, 6205, 4859, 
    1678, 2560, 2094, 2069, 2821, 4509, 5488, 6216, 6217, 
    1679, 2834, 2153, 2797, 2784, 5750, 5897, 5188, 5186, 
    1680, 678, 679, 1495, 1282, 688, 5905, 6218, 3371, 
    1681, 1636, 2330, 2805, 2328, 4834, 6190, 6192, 5824, 
    1682, 2203, 1672, 2764, 2382, 4053, 6219, 5275, 4589, 
    1683, 2170, 2764, 1672, 1468, 4923, 6219, 5855, 3810, 
    1684, 2643, 1701, 2787, 2644, 6127, 4983, 6220, 6098, 
    1685, 1284, 1282, 1495, 2208, 2980, 6218, 6221, 6222, 
    1686, 1373, 2774, 2426, 2893, 5910, 6223, 6224, 5541, 
    1687, 2737, 2520, 2519, 2788, 6225, 5984, 6226, 6227, 
    1688, 2392, 2933, 2255, 2375, 6228, 6229, 4108, 6230, 
    1689, 2256, 2255, 2933, 2252, 4111, 6229, 6231, 6232, 
    1690, 1986, 1945, 2881, 2402, 3514, 6233, 6234, 5737, 
    1691, 2392, 2375, 2352, 2355, 6230, 6235, 4030, 5991, 
    1692, 1288, 2416, 2881, 1945, 4555, 6236, 6233, 3513, 
    1693, 2643, 2645, 2618, 1700, 6237, 6238, 6239, 6128, 
    1694, 2374, 2091, 2354, 2352, 6240, 5870, 4031, 6241, 
    1695, 2616, 1436, 1700, 2618, 5324, 6242, 6239, 4557, 
    1696, 2749, 2745, 1376, 2395, 6243, 6204, 4873, 4870, 
    1697, 2569, 2446, 2732, 2568, 5499, 4838, 6244, 5200, 
    1698, 2266, 2881, 2416, 2475, 6061, 6236, 5655, 5656, 
    1699, 2397, 2402, 2881, 2400, 6245, 6234, 6063, 4086, 
    1700, 2774, 2775, 2423, 2426, 5928, 4954, 6071, 6223, 
    1701, 2263, 2730, 2844, 2943, 4897, 5172, 6246, 6175, 
    1702, 2846, 2882, 2943, 2844, 6247, 6248, 6246, 5554, 
    1703, 1884, 1749, 1747, 1886, 5743, 3240, 6249, 6250, 
    1704, 2786, 1754, 1749, 1885, 6188, 3241, 5746, 4985, 
    1705, 2424, 2423, 2776, 2425, 6068, 4953, 6251, 6066, 
    1706, 2283, 2345, 2369, 2282, 4023, 5934, 5803, 3962, 
    1707, 2366, 2642, 2541, 2269, 6051, 6252, 6253, 6254, 
    1708, 2268, 2269, 2541, 2284, 5715, 6253, 5538, 6203, 
    1709, 2709, 2223, 1982, 1985, 5162, 6255, 3509, 5686, 
    1710, 1374, 1845, 1982, 2224, 5822, 3510, 6256, 6130, 
    1711, 2610, 2612, 2699, 2611, 6257, 6258, 6259, 6260, 
    1712, 2222, 2224, 1982, 2223, 6131, 6256, 6255, 6195, 
    1713, 2916, 1884, 2854, 2773, 5744, 6261, 5994, 6262, 
    1714, 2918, 2917, 2940, 2777, 6263, 6140, 6264, 5794, 
    1715, 2598, 2506, 2511, 2597, 5165, 4411, 6265, 5904, 
    1716, 2603, 2225, 2835, 2948, 4537, 5160, 6266, 6267, 
    1717, 2688, 2777, 2940, 2623, 5795, 6264, 6268, 6269, 
    1718, 2667, 2854, 1932, 2668, 5992, 6270, 6271, 5874, 
    1719, 2398, 2399, 2942, 2770, 4088, 6272, 6109, 5482, 
    1720, 1923, 2524, 2942, 2267, 5731, 6105, 6273, 3925, 
    1721, 2069, 2529, 2336, 2821, 6215, 6089, 6274, 6216, 
    1722, 2334, 2337, 2821, 2336, 6275, 6276, 6274, 5929, 
    1723, 2883, 2882, 2846, 2884, 6277, 6247, 6278, 6279, 
    1724, 2328, 2608, 2353, 1464, 6191, 5876, 6280, 5825, 
    1725, 1466, 1464, 2353, 2354, 3062, 6280, 4028, 5869, 
    1726, 1519, 1516, 2953, 2146, 5687, 6281, 6282, 3767, 
    1727, 2208, 2209, 2955, 1284, 6283, 6284, 6285, 6222, 
    1728, 2348, 2956, 2882, 2883, 6286, 6287, 6277, 6288, 
    1729, 2884, 2526, 2348, 2883, 6289, 6126, 6288, 6279, 
    1730, 2085, 2086, 2914, 2363, 5193, 6290, 6291, 5998, 
    1731, 2841, 2842, 2363, 2914, 5899, 5835, 6291, 5711, 
    1732, 2272, 2302, 2914, 2086, 6024, 5710, 6290, 5192, 
    1733, 1285, 1284, 2955, 2020, 2981, 6285, 6292, 5196, 
    1734, 2052, 2862, 2955, 2209, 5293, 6293, 6284, 4892, 
    1735, 2480, 2238, 2043, 1522, 6116, 6294, 6136, 5999, 
    1736, 2875, 2118, 1971, 2953, 6295, 6296, 6297, 6298, 
    1737, 2249, 2247, 2722, 2250, 5215, 6299, 6300, 5210, 
    1738, 2721, 2265, 2250, 2722, 6120, 4987, 6300, 6301, 
    1739, 2721, 2722, 2247, 2716, 6301, 6299, 5576, 6144, 
    1740, 2117, 1975, 1971, 2118, 5968, 3480, 6296, 5471, 
    1741, 1972, 2146, 2953, 1971, 6302, 6282, 6297, 3479, 
    1742, 2867, 2311, 2531, 2571, 6303, 5508, 4497, 6304, 
    1743, 2911, 2892, 1886, 1747, 6023, 5493, 6249, 6305, 
    1744, 1524, 1526, 2256, 2252, 3106, 6306, 6232, 3916, 
    1745, 1526, 2927, 2257, 2256, 6307, 6308, 4109, 6306, 
    1746, 2946, 2790, 2952, 2496, 6309, 6310, 6311, 6312, 
    1747, 2217, 1629, 2311, 2867, 4797, 6002, 6303, 6313, 
    1748, 2216, 2217, 2867, 2215, 5716, 6313, 6314, 5720, 
    1749, 2867, 2571, 2573, 2215, 6304, 6079, 5925, 6314, 
    1750, 2762, 2331, 2736, 2947, 4915, 6315, 6316, 6317, 
    1751, 2617, 2734, 2947, 2736, 6318, 6319, 6316, 6320, 
    1752, 2617, 2736, 2331, 2332, 6320, 6315, 4011, 6015, 
    1753, 2726, 2182, 1434, 2725, 6321, 3830, 5415, 5963, 
    1754, 2898, 1691, 486, 485, 5548, 6162, 517, 5799, 
    1755, 2912, 2178, 2347, 2445, 5698, 4793, 5378, 5702, 
    1756, 1947, 1946, 2958, 1948, 3791, 6322, 6323, 4241, 
    1757, 634, 1959, 1531, 2931, 5443, 6324, 5987, 5950, 
    1758, 2627, 2628, 2930, 2928, 4580, 6325, 6326, 6327, 
    1759, 2655, 2827, 2930, 2628, 6328, 5943, 6325, 6329, 
    1760, 2537, 2205, 2203, 2629, 6330, 3854, 4588, 6180, 
    1761, 2826, 2324, 2928, 2930, 5949, 6177, 6326, 5942, 
    1762, 2606, 2605, 2759, 2607, 6102, 6331, 6332, 4659, 
    1763, 2665, 2607, 2759, 2666, 4660, 6332, 6333, 5989, 
    1764, 2848, 2341, 2274, 2950, 5638, 6334, 6335, 6336, 
    1765, 1651, 2523, 2130, 2128, 5877, 6337, 3745, 5102, 
    1766, 2316, 1533, 1531, 2865, 4443, 5988, 6338, 5281, 
    1767, 1424, 2865, 1531, 1959, 5265, 6338, 6324, 3448, 
    1768, 2652, 2612, 2610, 2635, 4787, 6257, 4606, 6339, 
    1769, 1343, 1948, 2958, 1345, 4182, 6323, 6340, 3004, 
    1770, 2771, 2634, 2610, 2613, 6017, 4607, 6341, 6100, 
    1771, 2246, 2418, 1643, 2419, 6213, 6214, 6342, 6025, 
    1772, 1345, 2958, 1946, 2119, 6340, 6322, 3824, 4534, 
    1773, 2259, 1556, 1555, 2890, 6198, 6202, 6343, 5451, 
    1774, 2139, 2138, 2890, 2140, 4955, 5452, 6344, 5633, 
    1775, 1293, 2140, 2890, 1555, 5631, 6344, 6343, 5497, 
    1776, 2269, 2702, 2448, 2366, 5714, 4728, 6159, 6254, 
    1777, 1484, 2477, 1652, 2913, 4529, 4393, 5705, 6345, 
    1778, 2669, 2772, 2916, 2773, 5995, 6346, 6262, 5993, 
    1779, 1862, 1861, 2500, 1863, 4789, 5833, 6347, 4820, 
    1780, 1867, 1863, 2500, 2503, 4821, 6347, 4386, 5563, 
    1781, 2771, 2644, 2787, 2772, 6099, 6220, 6348, 5997, 
    1782, 1561, 2599, 2614, 1558, 5129, 5781, 6186, 5693, 
    1783, 2927, 2547, 2545, 2257, 6349, 6122, 6350, 6308, 
    1784, 2411, 2257, 2545, 2675, 4110, 6350, 4683, 6009, 
    1785, 2885, 2184, 2512, 2510, 6351, 5485, 4416, 6149, 
    1786, 1885, 2916, 2772, 2787, 5745, 6346, 6348, 4982, 
    1787, 2732, 2733, 2402, 2397, 4837, 5738, 6245, 6035, 
    1788, 1355, 1351, 34, 620, 3021, 5358, 621, 6352, 
    1789, 2918, 2758, 2756, 2917, 5796, 4887, 6353, 6263, 
    1790, 2862, 2019, 2020, 2955, 6354, 4785, 6292, 6293, 
    1791, 1532, 1533, 2067, 1577, 5986, 4442, 5069, 3845, 
    1792, 2194, 2195, 2745, 2749, 6355, 4856, 6243, 6206, 
    1793, 2837, 2413, 2804, 2838, 5465, 5026, 5562, 5303, 
    1794, 1525, 1523, 2778, 2776, 3104, 5797, 6356, 5891, 
    1795, 677, 2148, 2959, 676, 5382, 6357, 6358, 686, 
    1796, 2272, 2087, 2525, 2271, 5191, 4438, 6359, 3932, 
    1797, 2274, 2271, 2525, 2950, 3933, 6359, 6360, 6335, 
    1798, 2707, 2650, 2582, 2704, 6150, 4645, 4809, 4754, 
    1799, 1970, 2858, 2959, 1972, 5859, 6361, 6362, 3482, 
    1800, 2252, 2933, 2960, 2253, 6231, 6363, 6364, 3913, 
    1801, 1988, 1355, 620, 35, 5361, 6352, 622, 5299, 
    1802, 2832, 2439, 2915, 2385, 6365, 6366, 5863, 6367, 
    1803, 1643, 2915, 2439, 2419, 5868, 6366, 6368, 6342, 
    1804, 2732, 2486, 2487, 2568, 6036, 4335, 5201, 6244, 
    1805, 2421, 2420, 2878, 2422, 6369, 6370, 6371, 5628, 
    1806, 2824, 2128, 2129, 2873, 5099, 3748, 6372, 6059, 
    1807, 1717, 2422, 2878, 2394, 5176, 6371, 5351, 5316, 
    1808, 2118, 2875, 2873, 2129, 6295, 5332, 6372, 5472, 
    1809, 2901, 2888, 2527, 1488, 5612, 6373, 6374, 5843, 
    1810, 2564, 2655, 2628, 2563, 4649, 6329, 4583, 6040, 
    1811, 1489, 1488, 2527, 1487, 4080, 6374, 4439, 6138, 
    1812, 2523, 2527, 2888, 2130, 4440, 6373, 5617, 6337, 
    1813, 2134, 2909, 2727, 2317, 6375, 6376, 6044, 6377, 
    1814, 2408, 2724, 2909, 2690, 5961, 6378, 6379, 4714, 
    1815, 2725, 2727, 2909, 2724, 5414, 6376, 6378, 5960, 
    1816, 2049, 1480, 1484, 2078, 6380, 3076, 6381, 5853, 
    1817, 2693, 2864, 2698, 2695, 5790, 6382, 4720, 6172, 
    1818, 2305, 2306, 1824, 2905, 4133, 4942, 5616, 6383, 
    1819, 2049, 2077, 1479, 1480, 6133, 5947, 3077, 6380, 
    1820, 2699, 2698, 2864, 2951, 4721, 6382, 6384, 6385, 
    1821, 2755, 2759, 2605, 2609, 4895, 6331, 6037, 6043, 
    1822, 1551, 1550, 2934, 1552, 5954, 6386, 6387, 5958, 
    1823, 2343, 2631, 2934, 1550, 6081, 6388, 6386, 6093, 
    1824, 2944, 2934, 2631, 2546, 6125, 6388, 6389, 6123, 
    1825, 2240, 2161, 665, 42, 3900, 3805, 666, 6003, 
    1826, 2943, 2882, 2956, 2264, 6248, 6287, 6390, 6176, 
    1827, 2346, 2941, 2956, 2348, 6095, 6391, 6286, 6020, 
    1828, 2146, 1972, 2959, 2148, 6302, 6362, 6357, 3768, 
    1829, 2125, 2264, 2956, 2941, 5407, 6390, 6391, 6094, 
    1830, 2612, 2647, 2697, 2699, 4786, 6392, 4722, 6258, 
    1831, 2627, 2697, 2647, 2596, 6393, 6392, 4635, 4581, 
    1832, 2539, 2538, 1922, 2455, 4453, 6092, 6394, 5301, 
    1833, 1923, 1928, 2455, 1922, 3924, 5577, 6394, 5732, 
    1834, 2050, 2222, 2895, 2280, 6132, 6395, 5514, 6134, 
    1835, 2222, 2604, 2696, 2895, 6194, 6193, 5515, 6395, 
    1836, 675, 676, 2959, 2858, 685, 6358, 6361, 5208, 
    1837, 1704, 2785, 2332, 1699, 6396, 6016, 4010, 3205, 
    1838, 2846, 2847, 2340, 2848, 5553, 6397, 5639, 6398, 
    1839, 2165, 2483, 2847, 2845, 4331, 6399, 5555, 6400, 
    1840, 2094, 2578, 2509, 2512, 4512, 6039, 4417, 5489, 
    1841, 2871, 2340, 2847, 2483, 6184, 6397, 6399, 5296, 
    1842, 2821, 2337, 2562, 2560, 6276, 6401, 5970, 6217, 
    1843, 1417, 1573, 2450, 2449, 4658, 6402, 4203, 5748, 
    1844, 2780, 2452, 2450, 1572, 6201, 4204, 6403, 4963, 
    1845, 38, 1572, 2450, 1573, 5516, 6403, 6402, 4657, 
    1846, 2926, 2372, 2562, 2335, 6404, 5971, 6405, 6154, 
    1847, 2547, 2927, 2543, 2679, 6349, 6406, 6407, 6119, 
    1848, 2334, 2335, 2562, 2337, 6169, 6405, 6401, 6275, 
    1849, 1525, 2543, 2927, 1526, 5890, 6406, 6307, 3105, 
    1850, 2775, 2679, 2543, 2544, 5927, 6407, 5892, 4951, 
    1851, 1299, 1300, 2152, 1980, 2995, 6408, 5232, 3969, 
    1852, 1515, 1517, 2872, 1516, 6409, 6410, 6411, 5689, 
    1853, 2610, 2611, 2961, 2613, 6260, 6412, 6413, 6341, 
    1854, 1341, 2748, 2911, 2210, 5391, 6012, 6414, 3855, 
    1855, 1748, 2210, 2911, 1747, 3856, 6414, 6305, 3243, 
    1856, 2425, 2776, 2778, 2688, 6251, 6356, 5792, 6415, 
    1857, 2957, 2645, 2961, 2951, 6416, 6417, 6418, 6419, 
    1858, 2699, 2951, 2961, 2611, 6385, 6418, 6412, 6259, 
    1859, 2643, 2613, 2961, 2645, 6101, 6413, 6417, 6237, 
    1860, 2078, 1484, 2913, 2743, 6381, 6345, 6420, 6421, 
    1861, 1650, 2742, 2743, 2913, 5708, 6422, 6420, 5704, 
    1862, 2496, 2494, 2788, 2519, 4383, 4988, 6226, 6423, 
    1863, 2760, 1653, 1979, 2636, 6004, 5918, 4654, 5156, 
    1864, 2897, 2874, 2872, 1517, 6209, 5334, 6410, 5526, 
    1865, 2953, 1516, 2872, 2875, 6281, 6411, 5333, 6298, 
    1866, 2352, 2375, 2412, 2374, 6235, 4107, 5058, 6241, 
    1867, 2089, 2091, 2374, 2703, 5871, 6240, 5061, 5179, 
    1868, 2763, 2762, 2948, 2711, 4916, 6424, 6425, 6054, 
    1869, 2603, 2948, 2762, 2947, 6267, 6424, 6317, 6426, 
    1870, 2734, 2617, 2615, 2864, 6318, 4559, 6427, 5789, 
    1871, 2742, 2741, 2747, 2743, 6210, 4868, 6428, 6422, 
    1872, 2396, 2078, 2743, 2747, 5854, 6421, 6428, 4872, 
    1873, 2645, 2957, 2615, 2618, 6416, 6429, 4558, 6238, 
    1874, 2019, 2862, 2870, 2018, 6354, 5292, 6077, 4089, 
    1875, 2951, 2864, 2615, 2957, 6384, 6427, 6429, 6419, 
    1876, 554, 2305, 2905, 553, 5237, 6383, 5619, 593, 
    1877, 2709, 2711, 2948, 2835, 4757, 6425, 6266, 5159, 
    1878, 2219, 2853, 2962, 2792, 6430, 6431, 6432, 5552, 
    1879, 2592, 2590, 2827, 2655, 4518, 6178, 6328, 4648, 
    1880, 2184, 2885, 2674, 2190, 6351, 5426, 4676, 3843, 
    1881, 2595, 2653, 2940, 2639, 6076, 6433, 6139, 6434, 
    1882, 2371, 2954, 2639, 2637, 6435, 6436, 6142, 6437, 
    1883, 2370, 2371, 2637, 2638, 6438, 6437, 6439, 6440, 
    1884, 1253, 1866, 2963, 1494, 3835, 6441, 6442, 5922, 
    1885, 2209, 2208, 2963, 2393, 6283, 6443, 6444, 4893, 
    1886, 1495, 1494, 2963, 2208, 5907, 6442, 6443, 6221, 
    1887, 2394, 2393, 2963, 1866, 5350, 6444, 6441, 5315, 
    1888, 2765, 1680, 2076, 2307, 5938, 3667, 6445, 5936, 
    1889, 2308, 2307, 2076, 2309, 5937, 6445, 6114, 5801, 
    1890, 2954, 2566, 2595, 2639, 6446, 6033, 6434, 6436, 
    1891, 2924, 2152, 1300, 2211, 5895, 6408, 4948, 6187, 
    1892, 2233, 2237, 2043, 2238, 3895, 6447, 6294, 6115, 
    1893, 2409, 2533, 2237, 2234, 4446, 6448, 3894, 4099, 
    1894, 1372, 2789, 2597, 2511, 4993, 4998, 6265, 5957, 
    1895, 2846, 2848, 2950, 2884, 6398, 6336, 6449, 6278, 
    1896, 2525, 2526, 2884, 2950, 4437, 6289, 6449, 6360, 
    1897, 2064, 1379, 2962, 2065, 3659, 6450, 6451, 5571, 
    1898, 2854, 1884, 1886, 1932, 6261, 6250, 6168, 6270, 
    1899, 2815, 2065, 2962, 2853, 5054, 6451, 6431, 5810, 
    1900, 2752, 2536, 2945, 2338, 4973, 6165, 6452, 4886, 
    1901, 2466, 2467, 2945, 2738, 4970, 6453, 6164, 6057, 
    1902, 2339, 2338, 2945, 2467, 4882, 6452, 6453, 4969, 
    1903, 1372, 1552, 2934, 2678, 5959, 6387, 6124, 5917, 
    1904, 2301, 1574, 1575, 2812, 3972, 5533, 5048, 5170, 
    1905, 2909, 2134, 2132, 2690, 6375, 3756, 6454, 6379, 
    1906, 1861, 1423, 1951, 2769, 4791, 4210, 5240, 5830, 
    1907, 2135, 2134, 2317, 2318, 3757, 6377, 3988, 5561, 
    1908, 1378, 2792, 2962, 1379, 5132, 6432, 6450, 5409, 
    1909, 2785, 1704, 2685, 1438, 6396, 6455, 6456, 5326, 
    1910, 1436, 1437, 1702, 1700, 3057, 6457, 6129, 6242, 
    1911, 2784, 1702, 1437, 1439, 5187, 6457, 3056, 5183, 
    1912, 2552, 2685, 1704, 1697, 4763, 6455, 3204, 6080, 
    1913, 1439, 1438, 2685, 2551, 3055, 6456, 4762, 5184, 
    1914, 2469, 2823, 2313, 2472, 6458, 5095, 6459, 4295, 
    1915, 2469, 475, 476, 2823, 6460, 507, 5754, 6458, 
    1916, 1597, 1595, 2891, 2860, 3148, 5460, 5762, 5401, 
    1917, 2729, 1406, 2843, 2730, 5751, 6461, 5173, 4900, 
    1918, 1406, 2165, 2845, 2843, 5380, 6400, 5174, 6461, 
    1919, 2204, 2205, 2537, 2206, 3851, 6330, 4451, 5914, 
    1920, 2055, 2903, 2342, 2932, 6462, 5609, 6183, 6181, 
    1921, 2878, 2420, 2903, 2055, 6370, 5610, 6462, 5353, 
    1922, 2520, 2737, 2488, 2770, 6225, 4846, 5483, 6108, 
    1923, 2633, 2279, 2737, 2788, 4601, 4847, 6227, 4990, 
    1924, 2439, 2832, 2936, 2419, 6365, 6463, 6026, 6368, 
    1925, 1656, 2275, 2935, 2857, 5807, 6464, 6465, 5522, 
    1926, 2387, 2386, 2832, 2385, 6143, 6466, 6367, 5600, 
    1927, 2717, 2936, 2832, 2386, 6031, 6463, 6466, 5678, 
    1928, 2627, 2928, 2695, 2697, 6327, 6173, 4723, 6393, 
    1929, 2548, 2640, 2641, 2675, 6467, 5062, 6010, 4682, 
    1930, 2904, 2935, 2341, 2342, 6468, 6469, 5637, 5608, 
    1931, 2274, 2341, 2935, 2275, 6334, 6469, 6464, 5806, 
    1932, 2541, 2642, 2640, 2548, 6252, 4618, 6467, 5838, 
    1933, 2237, 2533, 2035, 2043, 6448, 6470, 6137, 6447, 
    1934, 2663, 2781, 1421, 1394, 6471, 4977, 3047, 6060, 
    1935, 2648, 1579, 1416, 2559, 5784, 3140, 5815, 4641, 
    1936, 2663, 659, 658, 2781, 6087, 662, 4978, 6471, 
    1937, 2364, 2407, 2405, 2365, 4875, 4101, 6472, 4040, 
    1938, 2425, 2688, 2623, 2622, 6415, 6269, 4567, 6067, 
    1939, 2667, 2894, 2938, 2670, 5873, 6473, 6474, 4667, 
    1940, 2902, 2472, 2313, 2299, 5653, 6459, 3979, 5579, 
    1941, 2624, 2689, 2622, 2620, 6170, 6064, 4566, 4575, 
    1942, 2424, 2689, 2670, 2938, 6065, 6171, 6474, 6069, 
    1943, 2893, 2426, 2938, 2894, 6224, 6070, 6473, 5542, 
    1944, 2534, 2825, 2035, 2533, 5975, 5104, 6470, 4449, 
    1945, 2132, 2365, 2405, 2690, 5355, 6472, 4715, 6454, 
    1946, 2942, 2399, 2400, 2267, 6272, 4087, 6062, 6273, 
    1947, 1933, 2495, 2657, 2658, 6084, 6475, 5858, 6476, 
    1948, 2469, 2470, 474, 475, 4294, 5722, 506, 6460, 
    1949, 1371, 1373, 2656, 1370, 5911, 5540, 6477, 4991, 
    1950, 2790, 2789, 1370, 2952, 4995, 4992, 6478, 6310, 
    1951, 2657, 2952, 1370, 2656, 6479, 6478, 6477, 5856, 
    1952, 2496, 2952, 2657, 2495, 6311, 6479, 6475, 4380, 
    1953, 2652, 2635, 2621, 2653, 6339, 6480, 6481, 6075, 
    1954, 2625, 2620, 2621, 2635, 4572, 4569, 6480, 4605, 
    1955, 2603, 2947, 2734, 2602, 6426, 6319, 5788, 4538, 
    1956, 2954, 2807, 2654, 2566, 6482, 6160, 6163, 6446, 
    1957, 2940, 2653, 2621, 2623, 6433, 6481, 4568, 6268, 
    1958, 1933, 2658, 2668, 1932, 6476, 5872, 6271, 6167, 
    1959, 2546, 2631, 2288, 2540, 6389, 6082, 5537, 4594, 
    1960, 2935, 2904, 2856, 2857, 6468, 6483, 5520, 6465, 
    1961, 2421, 2856, 2904, 2420, 5884, 6483, 5607, 6369, 
    1962, 2726, 2408, 2406, 2474, 5962, 4713, 4311, 6484, 
    1963, 2554, 2193, 1517, 1515, 4469, 5527, 6409, 5258, 
    1964, 2392, 2666, 2960, 2933, 5990, 6485, 6363, 6228, 
    1965, 2194, 2193, 2555, 2195, 5524, 4468, 4857, 6355, 
    1966, 2637, 2917, 2754, 2638, 6141, 6486, 6487, 6439, 
    1967, 2755, 2370, 2638, 2754, 6042, 6440, 6487, 6488, 
    1968, 2218, 2220, 2853, 2219, 4457, 5811, 6430, 3999, 
    1969, 2755, 2754, 2917, 2756, 6488, 6486, 6353, 4896, 
    1970, 2370, 2372, 2926, 2371, 5972, 6404, 6489, 6438, 
    1971, 2474, 2829, 2182, 2726, 5123, 6490, 6321, 6484, 
    1972, 1433, 2182, 2829, 2100, 3831, 6490, 6110, 5347, 
    1973, 2954, 2371, 2926, 2807, 6435, 6489, 6161, 6482, 
    1974, 2790, 2946, 2517, 2791, 6309, 6491, 5591, 4996, 
    1975, 2253, 2960, 2757, 2254, 6364, 6492, 4889, 3914, 
    1976, 2496, 2519, 2517, 2946, 6423, 4425, 6491, 6312, 
    1977, 2666, 2759, 2757, 2960, 6333, 4894, 6492, 6485, 
    1978, 6576, 6574, 734, 733, 6821, 6822, 741, 6823, 
    1979, 6577, 6578, 738, 739, 6824, 6825, 746, 6826, 
    1980, 6516, 6517, 6514, 6518, 6827, 6828, 6829, 6830, 
    1981, 6585, 6586, 6608, 6584, 6831, 6832, 6833, 6834, 
    1982, 6608, 6614, 6615, 6584, 6835, 6836, 6837, 6833, 
    1983, 6660, 6661, 6510, 6611, 6838, 6839, 6840, 6841, 
    1984, 6580, 6581, 6664, 6579, 6842, 6843, 6844, 6845, 
    1985, 6611, 6520, 6666, 6634, 6846, 6847, 6848, 6849, 
    1986, 6663, 6599, 6594, 6662, 6850, 6851, 6852, 6853, 
    1987, 6599, 6600, 6676, 6594, 6854, 6855, 6856, 6851, 
    1988, 6517, 6594, 6676, 6514, 6857, 6856, 6858, 6828, 
    1989, 6569, 6562, 6561, 6568, 6859, 6860, 6861, 6862, 
    1990, 6551, 6556, 6561, 6562, 6863, 6864, 6860, 6865, 
    1991, 6535, 6533, 6540, 6534, 6866, 6867, 6868, 6869, 
    1992, 6494, 6497, 6679, 6498, 6870, 6871, 6872, 6873, 
    1993, 6495, 6493, 6497, 6494, 6874, 6875, 6870, 6876, 
    1994, 6502, 6500, 6683, 6501, 6877, 6878, 6879, 6880, 
    1995, 6655, 6684, 840, 841, 6881, 6882, 860, 6883, 
    1996, 6502, 6505, 6507, 6504, 6884, 6885, 6886, 6887, 
    1997, 6505, 6508, 6530, 6507, 6888, 6889, 6890, 6885, 
    1998, 6508, 6531, 6537, 6530, 6891, 6892, 6893, 6889, 
    1999, 6531, 6538, 6543, 6537, 6894, 6895, 6896, 6892, 
    2000, 6538, 6544, 6546, 6543, 6897, 6898, 6899, 6895, 
    2001, 6544, 6547, 6549, 6546, 6900, 6901, 6902, 6898, 
    2002, 6554, 6553, 6549, 6547, 6903, 6904, 6901, 6905, 
    2003, 6559, 6558, 6553, 6554, 6906, 6907, 6903, 6908, 
    2004, 6566, 6564, 6687, 6565, 6909, 6910, 6911, 6912, 
    2005, 6572, 6571, 6564, 6566, 6913, 6914, 6909, 6915, 
    2006, 6572, 6692, 6529, 6571, 6916, 6917, 6918, 6913, 
    2007, 6610, 6579, 6664, 6609, 6919, 6844, 6920, 6921, 
    2008, 6602, 6603, 6698, 6527, 6922, 6923, 6924, 6925, 
    2009, 6796, 6699, 6702, 6689, 6926, 6927, 6928, 6929, 
    2010, 6709, 6707, 699, 700, 6930, 6931, 719, 6932, 
    2011, 6700, 6698, 6603, 6701, 6933, 6923, 6934, 6935, 
    2012, 6573, 6724, 781, 782, 6936, 6937, 821, 6938, 
    2013, 6703, 6700, 6701, 6704, 6939, 6935, 6940, 6941, 
    2014, 6668, 6703, 6704, 6706, 6942, 6941, 6943, 6944, 
    2015, 6571, 6529, 6726, 6725, 6918, 6945, 6946, 6947, 
    2016, 6635, 6668, 6706, 6708, 6948, 6944, 6949, 6950, 
    2017, 6671, 6660, 6669, 6672, 6951, 6952, 6953, 6954, 
    2018, 6598, 6635, 6708, 6710, 6955, 6950, 6956, 6957, 
    2019, 6622, 6598, 6710, 6714, 6958, 6957, 6959, 6960, 
    2020, 6649, 6622, 6714, 6715, 6961, 6960, 6962, 6963, 
    2021, 6657, 6649, 6715, 6716, 6964, 6963, 6965, 6966, 
    2022, 6674, 6657, 6716, 6717, 6967, 6966, 6968, 6969, 
    2023, 6680, 6674, 6717, 6718, 6970, 6969, 6971, 6972, 
    2024, 6561, 6678, 6740, 6568, 6973, 6974, 6975, 6861, 
    2025, 6686, 6680, 6718, 6722, 6976, 6972, 6977, 6978, 
    2026, 6690, 6686, 6722, 6723, 6979, 6978, 6980, 6981, 
    2027, 6653, 6650, 6651, 6654, 6982, 6983, 6984, 6985, 
    2028, 6620, 6744, 6694, 6616, 6986, 6987, 6988, 6989, 
    2029, 6650, 6646, 6647, 6651, 6990, 6991, 6992, 6983, 
    2030, 6516, 6641, 6644, 6640, 6993, 6994, 6995, 6996, 
    2031, 6644, 6713, 6647, 6643, 6997, 6998, 6999, 7000, 
    2032, 6551, 6562, 6563, 6557, 6865, 7001, 7002, 7003, 
    2033, 6756, 6757, 6758, 6755, 7004, 7005, 7006, 7007, 
    2034, 6624, 6627, 6524, 6629, 7008, 7009, 7010, 7011, 
    2035, 6630, 6627, 6628, 6631, 7012, 7013, 7014, 7015, 
    2036, 6723, 6743, 6765, 6690, 7016, 7017, 7018, 6981, 
    2037, 6627, 6624, 6625, 6628, 7008, 7019, 7020, 7013, 
    2038, 6620, 6616, 6618, 6621, 6989, 7021, 7022, 7023, 
    2039, 6540, 6629, 6524, 6523, 7024, 7010, 7025, 7026, 
    2040, 6723, 6722, 6741, 6742, 6980, 7027, 7028, 7029, 
    2041, 6722, 6718, 6738, 6741, 6977, 7030, 7031, 7027, 
    2042, 6718, 6717, 6736, 6738, 6971, 7032, 7033, 7030, 
    2043, 6717, 6716, 6735, 6736, 6968, 7034, 7035, 7032, 
    2044, 6716, 6715, 6734, 6735, 6965, 7036, 7037, 7034, 
    2045, 6715, 6714, 6733, 6734, 6962, 7038, 7039, 7036, 
    2046, 6714, 6710, 6732, 6733, 6959, 7040, 7041, 7038, 
    2047, 6710, 6708, 6728, 6732, 6956, 7042, 7043, 7040, 
    2048, 6708, 6706, 6727, 6728, 6949, 7044, 7045, 7042, 
    2049, 6706, 6704, 6709, 6727, 6943, 7046, 7047, 7044, 
    2050, 6704, 6701, 6707, 6709, 6940, 7048, 6930, 7046, 
    2051, 6701, 6603, 6604, 6707, 6934, 7049, 7050, 7048, 
    2052, 6603, 6602, 6697, 6604, 6922, 7051, 7052, 7049, 
    2053, 6495, 6683, 6774, 6493, 7053, 7054, 7055, 6874, 
    2054, 6730, 6731, 6559, 6560, 7056, 7057, 7058, 7059, 
    2055, 6762, 6759, 6776, 6761, 7060, 7061, 7062, 7063, 
    2056, 6559, 6554, 6555, 6560, 6908, 7064, 7065, 7058, 
    2057, 6554, 6547, 6550, 6555, 6905, 7066, 7067, 7064, 
    2058, 6544, 6548, 6550, 6547, 7068, 7069, 7066, 6900, 
    2059, 6538, 6545, 6548, 6544, 7070, 7071, 7068, 6897, 
    2060, 6531, 6539, 6545, 6538, 7072, 7073, 7070, 6894, 
    2061, 6495, 6772, 6501, 6683, 7074, 7075, 6879, 7053, 
    2062, 6508, 6532, 6539, 6531, 7076, 7077, 7072, 6891, 
    2063, 6505, 6509, 6532, 6508, 7078, 7079, 7076, 6888, 
    2064, 6502, 6506, 6509, 6505, 7080, 7081, 7078, 6884, 
    2065, 6501, 6503, 6506, 6502, 7082, 7083, 7080, 6880, 
    2066, 6771, 6772, 6495, 6496, 7084, 7074, 7085, 7086, 
    2067, 6495, 6494, 6499, 6496, 6876, 7087, 7088, 7085, 
    2068, 6494, 6498, 6777, 6499, 6873, 7089, 7090, 7087, 
    2069, 6535, 6534, 6542, 6536, 6869, 7091, 7092, 7093, 
    2070, 6534, 6541, 6552, 6542, 7094, 7095, 7096, 7091, 
    2071, 6541, 6551, 6557, 6552, 7097, 7003, 7098, 7095, 
    2072, 6569, 6570, 6563, 6562, 7099, 7100, 7001, 6859, 
    2073, 6599, 6601, 6778, 6600, 7101, 7102, 7103, 6854, 
    2074, 6663, 6696, 6601, 6599, 7104, 7105, 7101, 6850, 
    2075, 6669, 6729, 6780, 6672, 7106, 7107, 7108, 6953, 
    2076, 6756, 6615, 6614, 6757, 7109, 6836, 7110, 7004, 
    2077, 6633, 6634, 6666, 6632, 7111, 6848, 7112, 7113, 
    2078, 6559, 6731, 6565, 6687, 7057, 7114, 6911, 7115, 
    2079, 6712, 6713, 6644, 6711, 7116, 6997, 7117, 7118, 
    2080, 6782, 6783, 6609, 6519, 7119, 7120, 7121, 7122, 
    2081, 6644, 6641, 6749, 6711, 6994, 7123, 7124, 7117, 
    2082, 6641, 6748, 6751, 6749, 7125, 7126, 7127, 7123, 
    2083, 6784, 6587, 6588, 6607, 7128, 7129, 7130, 7131, 
    2084, 6748, 6750, 6753, 6751, 7132, 7133, 7134, 7126, 
    2085, 6752, 6759, 6763, 6760, 7135, 7136, 7137, 7138, 
    2086, 6759, 6762, 6764, 6763, 7060, 7139, 7140, 7136, 
    2087, 6762, 6631, 6766, 6764, 7141, 7142, 7143, 7139, 
    2088, 6631, 6628, 6767, 6766, 7014, 7144, 7145, 7142, 
    2089, 6628, 6625, 6788, 6767, 7020, 7146, 7147, 7144, 
    2090, 6618, 6768, 6788, 6621, 7148, 7149, 7150, 7022, 
    2091, 6534, 6540, 6523, 6541, 6868, 7026, 7151, 7094, 
    2092, 6770, 6606, 6588, 6769, 7152, 7153, 7154, 7155, 
    2093, 6541, 6523, 6556, 6551, 7151, 7156, 6863, 7097, 
    2094, 6524, 6525, 6556, 6523, 7157, 7158, 7156, 7025, 
    2095, 6752, 6750, 6513, 6637, 7159, 7160, 7161, 7162, 
    2096, 6631, 6762, 6761, 6630, 7141, 7063, 7163, 7015, 
    2097, 6750, 6748, 6518, 6513, 7132, 7164, 7165, 7160, 
    2098, 6641, 6516, 6518, 6748, 6993, 6830, 7164, 7125, 
    2099, 6794, 6795, 6606, 6770, 7166, 7167, 7152, 7168, 
    2100, 738, 6578, 6799, 6595, 6825, 7169, 7170, 7171, 
    2101, 6789, 6612, 6592, 6800, 7172, 7173, 7174, 7175, 
    2102, 6790, 6791, 6612, 6789, 7176, 7177, 7172, 7178, 
    2103, 6617, 6745, 6699, 6796, 7179, 7180, 6926, 7181, 
    2104, 6553, 6558, 6804, 6670, 6907, 7182, 7183, 7184, 
    2105, 6521, 6520, 6619, 6522, 7185, 7186, 7187, 7188, 
    2106, 842, 843, 6587, 6784, 862, 7189, 7128, 7190, 
    2107, 6594, 6517, 6642, 6662, 6857, 7191, 7192, 6852, 
    2108, 6640, 6642, 6517, 6516, 7193, 7191, 6827, 6996, 
    2109, 6637, 6638, 6740, 6639, 7194, 7195, 7196, 7197, 
    2110, 6805, 6806, 6606, 6795, 7198, 7199, 7167, 7200, 
    2111, 6761, 6639, 6525, 6630, 7201, 7202, 7203, 7163, 
    2112, 6807, 6808, 6612, 6791, 7204, 7205, 7177, 7206, 
    2113, 6637, 6776, 6759, 6752, 7207, 7061, 7135, 7162, 
    2114, 6676, 6568, 6740, 6638, 7208, 6975, 7195, 7209, 
    2115, 6761, 6776, 6637, 6639, 7062, 7207, 7197, 7201, 
    2116, 6533, 6583, 6629, 6540, 7210, 7211, 7024, 6867, 
    2117, 6620, 6621, 6788, 6625, 7023, 7150, 7146, 7212, 
    2118, 6568, 6676, 6600, 6569, 7208, 6855, 7213, 6862, 
    2119, 6570, 6569, 6600, 6778, 7099, 7213, 7103, 7214, 
    2120, 6533, 6535, 6498, 6679, 6866, 7215, 6872, 7216, 
    2121, 6528, 6527, 6726, 6529, 7217, 7218, 6945, 7219, 
    2122, 6536, 6777, 6498, 6535, 7220, 7089, 7215, 7093, 
    2123, 6750, 6752, 6760, 6753, 7159, 7138, 7221, 7133, 
    2124, 6644, 6643, 6511, 6640, 7000, 7222, 7223, 6995, 
    2125, 6549, 6553, 6670, 6645, 6904, 7184, 7224, 7225, 
    2126, 6510, 6511, 6643, 6512, 7226, 7222, 7227, 7228, 
    2127, 6546, 6549, 6645, 6605, 6902, 7225, 7229, 7230, 
    2128, 6642, 6640, 6511, 6677, 7193, 7223, 7231, 7232, 
    2129, 6543, 6546, 6605, 6626, 6899, 7230, 7233, 7234, 
    2130, 6530, 6537, 6652, 6659, 6893, 7235, 7236, 7237, 
    2131, 6559, 6687, 6804, 6558, 7115, 7238, 7182, 6906, 
    2132, 6537, 6543, 6626, 6652, 6896, 7234, 7239, 7235, 
    2133, 6507, 6530, 6659, 6675, 6890, 7237, 7240, 7241, 
    2134, 6504, 6507, 6675, 6682, 6886, 7241, 7242, 7243, 
    2135, 6493, 6702, 6699, 6775, 7244, 6927, 7245, 7246, 
    2136, 6527, 6698, 6739, 6726, 6924, 7247, 7248, 7218, 
    2137, 6705, 6739, 6698, 6700, 7249, 7247, 6933, 7250, 
    2138, 6805, 6810, 6754, 6806, 7251, 7252, 7253, 7198, 
    2139, 6804, 6705, 6667, 6670, 7254, 7255, 7256, 7183, 
    2140, 6742, 6695, 6743, 6723, 7257, 7258, 7016, 7029, 
    2141, 6793, 6595, 6799, 6792, 7259, 7170, 7260, 7261, 
    2142, 6662, 6671, 6672, 6663, 7262, 6954, 7263, 6853, 
    2143, 6787, 6575, 6803, 6786, 7264, 7265, 7266, 7267, 
    2144, 6797, 6811, 6770, 6769, 7268, 7269, 7155, 7270, 
    2145, 733, 734, 6770, 6811, 741, 7271, 7269, 7272, 
    2146, 6801, 6812, 6789, 6800, 7273, 7274, 7175, 7275, 
    2147, 739, 738, 6789, 6812, 746, 7276, 7274, 7277, 
    2148, 6794, 6770, 734, 735, 7168, 7271, 742, 7278, 
    2149, 6779, 6591, 6590, 6781, 7279, 7280, 7281, 7282, 
    2150, 6793, 737, 738, 6595, 7283, 745, 7171, 7259, 
    2151, 6696, 6663, 6672, 6780, 7104, 7263, 7108, 7284, 
    2152, 6790, 6789, 738, 737, 7178, 7276, 745, 7285, 
    2153, 783, 784, 6591, 6779, 823, 7286, 7279, 7287, 
    2154, 6574, 6575, 735, 734, 7288, 7289, 742, 6822, 
    2155, 6616, 6617, 6721, 6618, 7290, 7291, 7292, 7021, 
    2156, 6578, 6577, 748, 6798, 6824, 7293, 7294, 7295, 
    2157, 6769, 6588, 6587, 6797, 7154, 7129, 7296, 7270, 
    2158, 6579, 6589, 6798, 6580, 7297, 7298, 7299, 6845, 
    2159, 6797, 6587, 843, 844, 7296, 7189, 863, 7300, 
    2160, 6581, 6580, 749, 750, 6842, 7301, 789, 7302, 
    2161, 6800, 6592, 6591, 6801, 7174, 7303, 7304, 7275, 
    2162, 784, 785, 6801, 6591, 824, 7305, 7304, 7286, 
    2163, 6584, 6593, 6802, 6585, 7306, 7307, 7308, 6834, 
    2164, 6576, 6802, 6593, 6574, 7309, 7307, 7310, 6821, 
    2165, 696, 6585, 6802, 695, 7311, 7308, 7312, 715, 
    2166, 6591, 6592, 6612, 6590, 7303, 7173, 7313, 7280, 
    2167, 6768, 6618, 6721, 6720, 7148, 7292, 7314, 7315, 
    2168, 845, 45, 733, 6811, 865, 740, 7272, 7316, 
    2169, 6579, 6610, 6799, 6589, 6919, 7317, 7318, 7297, 
    2170, 6798, 6589, 6799, 6578, 7298, 7318, 7169, 7295, 
    2171, 6584, 6615, 6803, 6593, 6837, 7319, 7320, 7306, 
    2172, 6575, 6574, 6593, 6803, 7288, 7310, 7320, 7265, 
    2173, 739, 46, 748, 6577, 747, 787, 7293, 6826, 
    2174, 786, 46, 739, 6812, 826, 747, 7277, 7321, 
    2175, 733, 45, 694, 6576, 740, 713, 7322, 6823, 
    2176, 6811, 6797, 844, 845, 7268, 7300, 864, 7316, 
    2177, 6580, 6798, 748, 749, 7299, 7294, 788, 7301, 
    2178, 6812, 6801, 785, 786, 7273, 7305, 825, 7321, 
    2179, 6588, 6606, 6806, 6607, 7153, 7199, 7323, 7130, 
    2180, 6636, 6667, 6703, 6668, 7324, 7325, 6942, 7326, 
    2181, 6700, 6703, 6667, 6705, 6939, 7325, 7255, 7250, 
    2182, 6755, 6785, 6613, 6808, 7327, 7328, 7329, 7330, 
    2183, 6590, 6612, 6808, 6613, 7313, 7205, 7329, 7331, 
    2184, 6636, 6597, 6605, 6645, 7332, 7333, 7229, 7334, 
    2185, 6596, 6597, 6635, 6598, 7335, 7336, 6955, 7337, 
    2186, 6596, 6623, 6652, 6626, 7338, 7339, 7239, 7340, 
    2187, 6665, 6581, 750, 751, 7341, 7302, 790, 7342, 
    2188, 6648, 6623, 6622, 6649, 7343, 7344, 6961, 7345, 
    2189, 6585, 696, 697, 6586, 7311, 716, 7346, 6831, 
    2190, 6648, 6658, 6675, 6659, 7347, 7348, 7240, 7349, 
    2191, 6673, 6658, 6657, 6674, 7350, 7351, 6967, 7352, 
    2192, 6673, 6681, 6688, 6682, 7353, 7354, 7355, 7356, 
    2193, 6570, 6778, 758, 759, 7214, 7357, 798, 7358, 
    2194, 6685, 6681, 6680, 6686, 7359, 7360, 6976, 7361, 
    2195, 6576, 694, 695, 6802, 7322, 714, 7312, 7309, 
    2196, 6720, 6719, 712, 44, 7362, 7363, 732, 7364, 
    2197, 6768, 6720, 44, 827, 7315, 7364, 846, 7365, 
    2198, 6681, 6685, 6691, 6688, 7359, 7366, 7367, 7354, 
    2199, 6695, 6742, 710, 711, 7257, 7368, 730, 7369, 
    2200, 6742, 6741, 709, 710, 7028, 7370, 729, 7368, 
    2201, 6689, 6685, 6686, 6690, 7371, 7361, 6979, 7372, 
    2202, 6741, 6738, 708, 709, 7031, 7373, 728, 7370, 
    2203, 6738, 6736, 707, 708, 7033, 7374, 727, 7373, 
    2204, 6736, 6735, 706, 707, 7035, 7375, 726, 7374, 
    2205, 6735, 6734, 705, 706, 7037, 7376, 725, 7375, 
    2206, 6734, 6733, 704, 705, 7039, 7377, 724, 7376, 
    2207, 6511, 6510, 6661, 6677, 7226, 6839, 7378, 7231, 
    2208, 6733, 6732, 703, 704, 7041, 7379, 723, 7377, 
    2209, 6732, 6728, 702, 703, 7043, 7380, 722, 7379, 
    2210, 6728, 6727, 701, 702, 7045, 7381, 721, 7380, 
    2211, 6727, 6709, 700, 701, 7047, 6932, 720, 7381, 
    2212, 6677, 6661, 6660, 6671, 7378, 6838, 6951, 7382, 
    2213, 6707, 6604, 698, 699, 7050, 7383, 718, 6931, 
    2214, 6604, 6697, 697, 698, 7052, 7384, 717, 7383, 
    2215, 6667, 6636, 6645, 6670, 7324, 7334, 7224, 7256, 
    2216, 6597, 6636, 6668, 6635, 7332, 7326, 6948, 7336, 
    2217, 6785, 6528, 6529, 6692, 7385, 7219, 6917, 7386, 
    2218, 6597, 6596, 6626, 6605, 7335, 7340, 7233, 7333, 
    2219, 6623, 6596, 6598, 6622, 7338, 7337, 6958, 7344, 
    2220, 6730, 6560, 778, 779, 7059, 7387, 818, 7388, 
    2221, 6560, 6555, 777, 778, 7065, 7389, 817, 7387, 
    2222, 6555, 6550, 776, 777, 7067, 7390, 816, 7389, 
    2223, 6550, 6548, 775, 776, 7069, 7391, 815, 7390, 
    2224, 6548, 6545, 774, 775, 7071, 7392, 814, 7391, 
    2225, 6545, 6539, 773, 774, 7073, 7393, 813, 7392, 
    2226, 6539, 6532, 772, 773, 7077, 7394, 812, 7393, 
    2227, 6532, 6509, 771, 772, 7079, 7395, 811, 7394, 
    2228, 6509, 6506, 770, 771, 7081, 7396, 810, 7395, 
    2229, 6506, 6503, 769, 770, 7083, 7397, 809, 7396, 
    2230, 6623, 6648, 6659, 6652, 7343, 7349, 7236, 7339, 
    2231, 6771, 6496, 767, 768, 7086, 7398, 807, 7399, 
    2232, 6496, 6499, 766, 767, 7088, 7400, 806, 7398, 
    2233, 6499, 6777, 765, 766, 7090, 7401, 805, 7400, 
    2234, 6777, 6536, 764, 765, 7220, 7402, 804, 7401, 
    2235, 6536, 6542, 763, 764, 7092, 7403, 803, 7402, 
    2236, 6542, 6552, 762, 763, 7096, 7404, 802, 7403, 
    2237, 6658, 6648, 6649, 6657, 7347, 7345, 6964, 7351, 
    2238, 6552, 6557, 761, 762, 7098, 7405, 801, 7404, 
    2239, 6808, 6807, 6756, 6755, 7204, 7406, 7007, 7330, 
    2240, 6561, 6556, 6525, 6678, 6864, 7158, 7407, 6973, 
    2241, 6557, 6563, 760, 761, 7002, 7408, 800, 7405, 
    2242, 6563, 6570, 759, 760, 7100, 7358, 799, 7408, 
    2243, 6658, 6673, 6682, 6675, 7350, 7356, 7242, 7348, 
    2244, 6638, 6515, 6514, 6676, 7409, 7410, 6858, 7209, 
    2245, 6778, 6601, 757, 758, 7102, 7411, 797, 7357, 
    2246, 6601, 6696, 756, 757, 7105, 7412, 796, 7411, 
    2247, 6696, 6780, 755, 756, 7284, 7413, 795, 7412, 
    2248, 6780, 6729, 754, 755, 7107, 7414, 794, 7413, 
    2249, 6681, 6673, 6674, 6680, 7353, 7352, 6970, 7360, 
    2250, 6633, 6632, 752, 753, 7113, 7415, 792, 7416, 
    2251, 6632, 6665, 751, 752, 7417, 7342, 791, 7415, 
    2252, 6774, 6773, 6688, 6691, 7418, 7419, 7367, 7420, 
    2253, 6502, 6504, 6773, 6500, 6887, 7421, 7422, 6877, 
    2254, 6682, 6688, 6773, 6504, 7355, 7419, 7421, 7243, 
    2255, 6650, 6653, 6521, 6522, 6982, 7423, 7188, 7424, 
    2256, 6647, 6713, 6712, 6747, 6998, 7116, 7425, 7426, 
    2257, 6747, 6712, 838, 839, 7425, 7427, 858, 7428, 
    2258, 6712, 6711, 837, 838, 7118, 7429, 857, 7427, 
    2259, 6788, 6768, 827, 828, 7149, 7365, 847, 7430, 
    2260, 6711, 6749, 836, 837, 7124, 7431, 856, 7429, 
    2261, 6767, 6788, 828, 829, 7147, 7430, 848, 7432, 
    2262, 6749, 6751, 835, 836, 7127, 7433, 855, 7431, 
    2263, 6766, 6767, 829, 830, 7145, 7432, 849, 7434, 
    2264, 6764, 6766, 830, 831, 7143, 7434, 850, 7435, 
    2265, 6627, 6630, 6525, 6524, 7012, 7203, 7157, 7009, 
    2266, 6751, 6753, 834, 835, 7134, 7436, 854, 7433, 
    2267, 6763, 6764, 831, 832, 7140, 7435, 851, 7437, 
    2268, 6515, 6513, 6518, 6514, 7438, 7165, 6829, 7410, 
    2269, 6760, 6763, 832, 833, 7137, 7437, 852, 7439, 
    2270, 6513, 6515, 6638, 6637, 7438, 7409, 7194, 7161, 
    2271, 6753, 6760, 833, 834, 7221, 7439, 853, 7436, 
    2272, 6497, 6746, 6582, 6679, 7440, 7441, 7442, 6871, 
    2273, 6765, 6721, 6617, 6796, 7443, 7291, 7181, 7444, 
    2274, 6565, 6731, 6730, 6567, 7114, 7056, 7445, 7446, 
    2275, 6567, 6730, 779, 780, 7445, 7388, 819, 7447, 
    2276, 6501, 6772, 6771, 6503, 7075, 7084, 7448, 7082, 
    2277, 6512, 6522, 6619, 6510, 7449, 7187, 7450, 7228, 
    2278, 6503, 6771, 768, 769, 7448, 7399, 808, 7397, 
    2279, 6512, 6646, 6650, 6522, 7451, 6990, 7424, 7449, 
    2280, 6685, 6689, 6702, 6691, 7371, 6928, 7452, 7366, 
    2281, 6692, 6814, 6613, 6785, 7453, 7454, 7328, 7386, 
    2282, 6765, 6796, 6689, 6690, 7444, 6929, 7372, 7018, 
    2283, 6694, 6745, 6617, 6616, 7455, 7179, 7290, 6988, 
    2284, 6575, 6787, 736, 735, 7264, 7456, 743, 7289, 
    2285, 6669, 6634, 6633, 6729, 7457, 7111, 7458, 7106, 
    2286, 6786, 6815, 736, 6787, 7459, 7460, 7456, 7267, 
    2287, 6805, 6816, 6793, 6792, 7461, 7462, 7261, 7463, 
    2288, 6729, 6633, 753, 754, 7458, 7416, 793, 7414, 
    2289, 737, 6793, 6816, 736, 7283, 7462, 7464, 744, 
    2290, 6807, 6791, 6790, 6815, 7206, 7176, 7465, 7466, 
    2291, 6572, 6693, 6814, 6692, 7467, 7468, 7453, 6916, 
    2292, 737, 736, 6815, 6790, 744, 7460, 7465, 7285, 
    2293, 6805, 6795, 6794, 6816, 7200, 7166, 7469, 7461, 
    2294, 6737, 6725, 6726, 6739, 7470, 6946, 7248, 7471, 
    2295, 735, 736, 6816, 6794, 743, 7464, 7469, 7278, 
    2296, 6737, 6564, 6571, 6725, 7472, 6914, 6947, 7470, 
    2297, 6521, 6653, 6817, 6754, 7423, 7473, 7474, 7475, 
    2298, 6527, 6528, 6758, 6526, 7217, 7476, 7477, 7478, 
    2299, 6806, 6754, 6817, 6607, 7253, 7474, 7479, 7323, 
    2300, 6582, 6694, 6744, 6583, 7480, 6987, 7481, 7482, 
    2301, 6520, 6521, 6782, 6519, 7185, 7483, 7122, 7484, 
    2302, 6625, 6624, 6744, 6620, 7019, 7485, 6986, 7212, 
    2303, 6654, 6656, 6817, 6653, 7486, 7487, 7473, 6985, 
    2304, 711, 712, 6719, 6695, 731, 7363, 7488, 7369, 
    2305, 6629, 6583, 6744, 6624, 7211, 7481, 7485, 7011, 
    2306, 6642, 6677, 6671, 6662, 7232, 7382, 7262, 7192, 
    2307, 6695, 6719, 6765, 6743, 7488, 7489, 7017, 7258, 
    2308, 6784, 6607, 6817, 6656, 7131, 7479, 7487, 7490, 
    2309, 6720, 6721, 6765, 6719, 7314, 7443, 7489, 7362, 
    2310, 6740, 6678, 6525, 6639, 6974, 7407, 7202, 7196, 
    2311, 6779, 6781, 6814, 6693, 7282, 7491, 7468, 7492, 
    2312, 6528, 6785, 6755, 6758, 7385, 7327, 7006, 7476, 
    2313, 6745, 6694, 6582, 6746, 7455, 7480, 7441, 7493, 
    2314, 6813, 6783, 6782, 6810, 7494, 7119, 7495, 7496, 
    2315, 6590, 6613, 6814, 6781, 7331, 7454, 7491, 7281, 
    2316, 6521, 6754, 6810, 6782, 7475, 7252, 7495, 7483, 
    2317, 6520, 6611, 6510, 6619, 6846, 6840, 7450, 7186, 
    2318, 6669, 6660, 6611, 6634, 6952, 6841, 6849, 7457, 
    2319, 6746, 6497, 6493, 6775, 7440, 6875, 7246, 7497, 
    2320, 6745, 6746, 6775, 6699, 7493, 7497, 7245, 7180, 
    2321, 6583, 6533, 6679, 6582, 7210, 7216, 7442, 7482, 
    2322, 6810, 6805, 6792, 6813, 7251, 7463, 7498, 7496, 
    2323, 6572, 6573, 6819, 6693, 7499, 7500, 7501, 7467, 
    2324, 6493, 6774, 6691, 6702, 7055, 7420, 7452, 7244, 
    2325, 783, 6819, 6573, 782, 7502, 7500, 6938, 822, 
    2326, 6654, 6655, 6820, 6656, 7503, 7504, 7505, 7486, 
    2327, 6773, 6774, 6683, 6500, 7418, 7054, 6878, 7422, 
    2328, 842, 6820, 6655, 841, 7506, 7504, 6883, 861, 
    2329, 697, 6697, 6608, 6586, 7384, 7507, 6832, 7346, 
    2330, 6614, 6526, 6758, 6757, 7508, 7477, 7005, 7110, 
    2331, 6527, 6526, 6818, 6602, 7478, 7509, 7510, 6925, 
    2332, 6608, 6818, 6526, 6614, 7511, 7509, 7508, 6835, 
    2333, 6608, 6697, 6602, 6818, 7507, 7051, 7510, 7511, 
    2334, 6809, 6664, 6581, 6665, 7512, 6843, 7341, 7513, 
    2335, 780, 781, 6724, 6567, 820, 6937, 7514, 7447, 
    2336, 6572, 6566, 6724, 6573, 6915, 7515, 6936, 7499, 
    2337, 6565, 6567, 6724, 6566, 7446, 7514, 7515, 6912, 
    2338, 6520, 6519, 6809, 6666, 7484, 7516, 7517, 6847, 
    2339, 839, 840, 6684, 6747, 859, 6882, 7518, 7428, 
    2340, 6654, 6651, 6684, 6655, 6984, 7519, 6881, 7503, 
    2341, 6647, 6747, 6684, 6651, 7426, 7518, 7519, 6992, 
    2342, 6664, 6809, 6519, 6609, 7512, 7516, 7121, 6920, 
    2343, 6632, 6666, 6809, 6665, 7112, 7517, 7513, 7417, 
    2344, 6804, 6737, 6739, 6705, 7520, 7471, 7249, 7254, 
    2345, 6693, 6819, 783, 6779, 7501, 7502, 7287, 7492, 
    2346, 6609, 6783, 6813, 6610, 7120, 7494, 7521, 6921, 
    2347, 6647, 6646, 6512, 6643, 6991, 7451, 7227, 6999, 
    2348, 6656, 6820, 842, 6784, 7505, 7506, 7190, 7490, 
    2349, 6804, 6687, 6564, 6737, 7238, 6910, 7472, 7520, 
    2350, 6799, 6610, 6813, 6792, 7317, 7521, 7498, 7260, 
    2351, 6815, 6786, 6756, 6807, 7459, 7522, 7406, 7466, 
    2352, 6803, 6615, 6756, 6786, 7319, 7109, 7522, 7266, 
    2367, 895, 48, 873, 7523, 900, 875, 7540, 7541, 
    2368, 873, 49, 876, 7523, 874, 885, 7542, 7540, 
    2369, 873, 48, 868, 7524, 875, 872, 7543, 7544, 
    2370, 884, 49, 873, 7524, 894, 874, 7544, 7545, 
    2371, 7523, 876, 877, 895, 7542, 886, 7530, 7541, 
    2372, 7524, 868, 883, 884, 7543, 7533, 893, 7545, 
    2389, 911, 50, 906, 7546, 915, 907, 7566, 7567, 
    2390, 906, 49, 884, 7546, 908, 894, 7568, 7566, 
    2391, 906, 50, 916, 7547, 907, 921, 7552, 7569, 
    2392, 7546, 884, 910, 911, 7568, 7548, 914, 7567, 
    2393, 906, 7547, 876, 49, 7569, 7551, 885, 908, 
    2398, 966, 965, 203, 204, 1009, 7582, 243, 7583, 
    2399, 944, 943, 223, 224, 987, 7584, 263, 7585, 
    2400, 930, 212, 213, 931, 7586, 252, 7587, 974, 
    2401, 952, 192, 193, 953, 7588, 232, 7589, 996, 
    2402, 202, 203, 965, 964, 242, 7582, 1008, 7590, 
    2403, 194, 954, 953, 193, 7591, 997, 7589, 233, 
    2404, 222, 223, 943, 942, 262, 7584, 986, 7592, 
    2405, 214, 932, 931, 213, 7593, 975, 7587, 253, 
    2406, 959, 7570, 197, 198, 7579, 7594, 237, 7595, 
    2407, 959, 198, 199, 7573, 7595, 238, 7596, 7580, 
    2408, 937, 7571, 217, 218, 7575, 7597, 257, 7598, 
    2409, 937, 218, 219, 7572, 7598, 258, 7599, 7576, 
    2410, 190, 950, 949, 189, 7600, 993, 7601, 229, 
    2411, 191, 951, 950, 190, 7602, 994, 7600, 230, 
    2412, 192, 952, 951, 191, 7588, 995, 7602, 231, 
    2413, 954, 194, 195, 955, 7591, 234, 7603, 998, 
    2414, 196, 956, 955, 195, 7604, 999, 7603, 235, 
    2415, 197, 957, 956, 196, 7605, 1000, 7604, 236, 
    2416, 7570, 958, 957, 197, 7578, 1001, 7605, 7594, 
    2417, 7573, 199, 961, 960, 7596, 7606, 1004, 7581, 
    2418, 199, 200, 962, 961, 239, 7607, 1005, 7606, 
    2419, 964, 963, 201, 202, 1007, 7608, 241, 7590, 
    2420, 200, 201, 963, 962, 240, 7608, 1006, 7607, 
    2421, 204, 205, 967, 966, 244, 7609, 1010, 7583, 
    2422, 205, 206, 968, 967, 245, 7610, 1011, 7609, 
    2423, 206, 207, 969, 968, 246, 7611, 1012, 7610, 
    2424, 210, 928, 927, 209, 7612, 971, 7613, 249, 
    2425, 211, 929, 928, 210, 7614, 972, 7612, 250, 
    2426, 212, 930, 929, 211, 7586, 973, 7614, 251, 
    2427, 932, 214, 215, 933, 7593, 254, 7615, 976, 
    2428, 216, 934, 933, 215, 7616, 977, 7615, 255, 
    2429, 217, 935, 934, 216, 7617, 978, 7616, 256, 
    2430, 7571, 936, 935, 217, 7574, 979, 7617, 7597, 
    2431, 7572, 219, 939, 938, 7599, 7618, 982, 7577, 
    2432, 219, 220, 940, 939, 259, 7619, 983, 7618, 
    2433, 942, 941, 221, 222, 985, 7620, 261, 7592, 
    2434, 220, 221, 941, 940, 260, 7620, 984, 7619, 
    2435, 224, 225, 945, 944, 264, 7621, 988, 7585, 
    2436, 225, 226, 946, 945, 265, 7622, 989, 7621, 
    2437, 226, 227, 947, 946, 266, 7623, 990, 7622, 
    2438, 969, 207, 208, 52, 7611, 247, 7624, 1013, 
    2439, 25, 948, 947, 227, 7625, 991, 7623, 267, 
    2440, 52, 208, 209, 927, 7624, 248, 7613, 970, 
    2441, 189, 949, 948, 25, 7601, 992, 7625, 228, 
*ELEMENT, TYPE=S6, ELSET=S6
    130, 370, 353, 354, 1208, 361, 1209, 
    131, 354, 369, 370, 1210, 377, 1209, 
    132, 352, 353, 372, 360, 1211, 1212, 
    133, 372, 373, 352, 380, 1213, 1212, 
    134, 371, 372, 353, 379, 1211, 1214, 
    135, 353, 370, 371, 1208, 378, 1214, 
    136, 373, 350, 351, 1215, 358, 1216, 
    137, 351, 352, 373, 359, 1213, 1216, 
    138, 350, 373, 374, 1215, 381, 1217, 
    139, 374, 1207, 350, 1218, 1219, 1217, 
    140, 355, 356, 369, 363, 1220, 1221, 
    141, 369, 354, 355, 1210, 362, 1221, 
    142, 368, 369, 356, 376, 1220, 1222, 
    143, 356, 1206, 368, 1223, 1224, 1222, 
    148, 371, 391, 392, 1229, 397, 1230, 
    149, 392, 372, 371, 1231, 379, 1230, 
    150, 29, 389, 1227, 394, 1232, 1233, 
    151, 1227, 383, 29, 1234, 384, 1233, 
    152, 30, 374, 373, 1235, 381, 1236, 
    153, 373, 393, 30, 1237, 399, 1236, 
    154, 369, 389, 390, 1238, 395, 1239, 
    155, 390, 370, 369, 1240, 377, 1239, 
    156, 389, 369, 368, 1238, 376, 1241, 
    157, 368, 1227, 389, 1242, 1232, 1241, 
    158, 374, 30, 386, 1235, 387, 1243, 
    159, 386, 1228, 374, 1244, 1245, 1243, 
    160, 391, 371, 370, 1229, 378, 1246, 
    161, 370, 390, 391, 1240, 396, 1246, 
    162, 372, 392, 393, 1231, 398, 1247, 
    163, 393, 373, 372, 1237, 380, 1247, 
    2353, 47, 899, 881, 905, 7525, 7526, 
    2354, 881, 882, 47, 891, 7527, 7526, 
    2355, 877, 878, 896, 887, 7528, 7529, 
    2356, 896, 895, 877, 901, 7530, 7529, 
    2357, 867, 866, 883, 870, 7531, 7532, 
    2358, 883, 868, 867, 7533, 871, 7532, 
    2359, 878, 898, 897, 7534, 903, 7535, 
    2360, 897, 896, 878, 902, 7528, 7535, 
    2361, 866, 47, 882, 869, 7527, 7536, 
    2362, 882, 883, 866, 892, 7531, 7536, 
    2363, 899, 898, 880, 904, 7537, 7538, 
    2364, 880, 881, 899, 890, 7525, 7538, 
    2365, 879, 880, 898, 889, 7537, 7539, 
    2366, 898, 878, 879, 7534, 888, 7539, 
    2373, 910, 884, 883, 7548, 893, 7549, 
    2374, 883, 909, 910, 7550, 913, 7549, 
    2375, 876, 7547, 916, 7551, 7552, 7553, 
    2376, 916, 917, 876, 922, 7554, 7553, 
    2377, 882, 881, 909, 891, 7555, 7556, 
    2378, 909, 883, 882, 7550, 892, 7556, 
    2379, 918, 879, 878, 7557, 888, 7558, 
    2380, 878, 917, 918, 7559, 923, 7558, 
    2381, 877, 876, 917, 886, 7554, 7560, 
    2382, 917, 878, 877, 7559, 887, 7560, 
    2383, 919, 880, 879, 7561, 889, 7562, 
    2384, 879, 918, 919, 7557, 924, 7562, 
    2385, 51, 909, 881, 912, 7555, 7563, 
    2386, 881, 920, 51, 7564, 926, 7563, 
    2387, 880, 919, 920, 7561, 925, 7565, 
    2388, 920, 881, 880, 7564, 890, 7565, 
    2394, 936, 7571, 937, 7574, 7575, 980, 
    2395, 937, 7572, 938, 7576, 7577, 981, 
    2396, 958, 7570, 959, 7578, 7579, 1002, 
    2397, 959, 7573, 960, 7580, 7581, 1003, 
*NSET, NSET=ovalop1_surf____________________________________________________________________
    1, 2, 3, 4, 5, 6, 7, 8, 
    9, 10, 11, 12, 53, 54, 55, 56, 
    57, 58, 59, 60, 61, 62, 63, 64, 
    65, 66, 67, 68, 69, 70, 71, 72, 
    73, 74, 75, 76, 77, 78, 79, 80, 
    81, 82, 83, 84, 85, 86, 87, 88, 
    89, 90, 91, 92, 93, 94, 95, 96, 
    97, 98, 99, 100, 101, 102, 103, 104, 
    105, 106, 107, 108, 109, 110, 111, 112, 
    113, 114, 115, 116, 117, 118, 119, 120, 
    1014, 1015, 1016, 1017, 1018, 1019, 1020, 1021, 
    1022, 1023, 1024, 1025, 1026, 1027, 1028, 1029, 
*NSET, NSET=ovalop2_surf____________________________________________________________________
    13, 14, 15, 16, 17, 18, 19, 20, 
    21, 22, 23, 24, 121, 122, 123, 124, 
    125, 126, 127, 128, 129, 130, 131, 132, 
    133, 134, 135, 136, 137, 138, 139, 140, 
    141, 142, 143, 144, 145, 146, 147, 148, 
    149, 150, 151, 152, 153, 154, 155, 156, 
    157, 158, 159, 160, 161, 162, 163, 164, 
    165, 166, 167, 168, 169, 170, 171, 172, 
    173, 174, 175, 176, 177, 178, 179, 180, 
    181, 182, 183, 184, 185, 186, 187, 188, 
    1030, 1031, 1032, 1033, 1034, 1035, 1036, 1037, 
    1038, 1039, 1040, 1041, 1042, 1043, 1044, 1045, 
*NSET, NSET=skir_carbo_und__________________________________________________________________
    25, 26, 189, 190, 191, 192, 193, 194, 
    195, 196, 197, 198, 199, 200, 201, 202, 
    203, 204, 205, 206, 207, 208, 209, 210, 
    211, 212, 213, 214, 215, 216, 217, 218, 
    219, 220, 221, 222, 223, 224, 225, 226, 
    227, 228, 229, 230, 231, 232, 233, 234, 
    235, 236, 237, 238, 239, 240, 241, 242, 
    243, 244, 245, 246, 247, 248, 249, 250, 
    251, 252, 253, 254, 255, 256, 257, 258, 
    259, 260, 261, 262, 263, 264, 265, 266, 
    267, 268, 269, 270, 271, 272, 273, 274, 
    275, 276, 277, 278, 279, 280, 281, 282, 
    283, 284, 285, 286, 287, 288, 289, 290, 
    291, 292, 293, 294, 295, 296, 297, 298, 
    299, 300, 301, 302, 303, 304, 305, 306, 
    307, 308, 309, 310, 311, 312, 313, 314, 
    315, 316, 317, 318, 319, 320, 321, 322, 
    323, 324, 325, 326, 327, 328, 329, 330, 
    331, 332, 333, 334, 335, 336, 337, 338, 
    339, 340, 341, 342, 343, 344, 345, 346, 
    347, 348, 349, 1046, 1047, 1048, 1049, 1050, 
    1051, 1052, 1053, 1054, 1055, 1056, 1057, 1058, 
    1059, 1060, 1061, 1062, 1063, 1064, 1065, 1066, 
    1067, 1068, 1069, 1070, 1071, 1072, 1073, 1074, 
    1075, 1076, 1077, 1078, 1079, 1080, 1081, 1082, 
    1083, 1084, 1085, 1086, 1087, 1088, 1089, 1090, 
    1091, 1092, 1093, 1094, 1095, 1096, 1097, 1098, 
    1099, 1100, 1101, 1102, 1103, 1104, 1105, 1106, 
    1107, 1108, 1109, 1110, 1111, 1112, 1113, 1114, 
    1115, 1116, 1117, 1118, 1119, 1120, 1121, 1122, 
    1123, 1124, 1125, 1126, 1127, 1128, 1129, 1130, 
    1131, 1132, 1133, 1134, 1135, 1136, 1137, 1138, 
    1139, 1140, 1141, 1142, 1143, 1144, 1145, 1146, 
    1147, 1148, 1149, 1150, 1151, 1152, 1153, 1154, 
    1155, 1156, 1157, 1158, 1159, 1160, 1161, 1162, 
    1163, 1164, 1165, 1166, 1167, 1168, 1169, 1170, 
    1171, 1172, 1173, 1174, 1175, 1176, 1177, 1178, 
    1179, 1180, 1181, 1182, 1183, 1184, 1185, 1186, 
    1187, 1188, 1189, 1190, 1191, 1192, 1193, 1194, 
    1195, 1196, 1197, 1198, 1199, 1200, 1201, 1202, 
    1203, 1204, 1205, 
*NSET, NSET=manhole_surf____________________________________________________________________
    27, 28, 29, 30, 350, 351, 352, 353, 
    354, 355, 356, 357, 358, 359, 360, 361, 
    362, 363, 364, 365, 366, 367, 368, 369, 
    370, 371, 372, 373, 374, 375, 376, 377, 
    378, 379, 380, 381, 382, 383, 384, 385, 
    386, 387, 388, 389, 390, 391, 392, 393, 
    394, 395, 396, 397, 398, 399, 1206, 1207, 
    1208, 1209, 1210, 1211, 1212, 1213, 1214, 1215, 
    1216, 1217, 1218, 1219, 1220, 1221, 1222, 1223, 
    1224, 1225, 1226, 1227, 1228, 1229, 1230, 1231, 
    1232, 1233, 1234, 1235, 1236, 1237, 1238, 1239, 
    1240, 1241, 1242, 1243, 1244, 1245, 1246, 1247, 
    1248, 
*NSET, NSET=skir_carbo_mid__________________________________________________________________
    31, 32, 33, 34, 35, 36, 37, 38, 
    39, 40, 41, 42, 43, 400, 401, 402, 
    403, 404, 405, 406, 407, 408, 409, 410, 
    411, 412, 413, 414, 415, 416, 417, 418, 
    419, 420, 421, 422, 423, 424, 425, 426, 
    427, 428, 429, 430, 431, 432, 433, 434, 
    435, 436, 437, 438, 439, 440, 441, 442, 
    443, 444, 445, 446, 447, 448, 449, 450, 
    451, 452, 453, 454, 455, 456, 457, 458, 
    459, 460, 461, 462, 463, 464, 465, 466, 
    467, 468, 469, 470, 471, 472, 473, 474, 
    475, 476, 477, 478, 479, 480, 481, 482, 
    483, 484, 485, 486, 487, 488, 489, 490, 
    491, 492, 493, 494, 495, 496, 497, 498, 
    499, 500, 501, 502, 503, 504, 505, 506, 
    507, 508, 509, 510, 511, 512, 513, 514, 
    515, 516, 517, 518, 519, 520, 521, 522, 
    523, 524, 525, 526, 527, 528, 529, 530, 
    531, 532, 533, 534, 535, 536, 537, 538, 
    539, 540, 541, 542, 543, 544, 545, 546, 
    547, 548, 549, 550, 551, 552, 553, 554, 
    555, 556, 557, 558, 559, 560, 561, 562, 
    563, 564, 565, 566, 567, 568, 569, 570, 
    571, 572, 573, 574, 575, 576, 577, 578, 
    579, 580, 581, 582, 583, 584, 585, 586, 
    587, 588, 589, 590, 591, 592, 593, 594, 
    595, 596, 597, 598, 599, 600, 601, 602, 
    603, 604, 605, 606, 607, 608, 609, 610, 
    611, 612, 613, 614, 615, 616, 617, 618, 
    619, 620, 621, 622, 623, 624, 625, 626, 
    627, 628, 629, 630, 631, 632, 633, 634, 
    635, 636, 637, 638, 639, 640, 641, 642, 
    643, 644, 645, 646, 647, 648, 649, 650, 
    651, 652, 653, 654, 655, 656, 657, 658, 
    659, 660, 661, 662, 663, 664, 665, 666, 
    667, 668, 669, 670, 671, 672, 673, 674, 
    675, 676, 677, 678, 679, 680, 681, 682, 
    683, 684, 685, 686, 687, 688, 689, 690, 
    691, 692, 693, 1249, 1250, 1251, 1252, 1253, 
    1254, 1255, 1256, 1257, 1258, 1259, 1260, 1261, 
    1262, 1263, 1264, 1265, 1266, 1267, 1268, 1269, 
    1270, 1271, 1272, 1273, 1274, 1275, 1276, 1277, 
    1278, 1279, 1280, 1281, 1282, 1283, 1284, 1285, 
    1286, 1287, 1288, 1289, 1290, 1291, 1292, 1293, 
    1294, 1295, 1296, 1297, 1298, 1299, 1300, 1301, 
    1302, 1303, 1304, 1305, 1306, 1307, 1308, 1309, 
    1310, 1311, 1312, 1313, 1314, 1315, 1316, 1317, 
    1318, 1319, 1320, 1321, 1322, 1323, 1324, 1325, 
    1326, 1327, 1328, 1329, 1330, 1331, 1332, 1333, 
    1334, 1335, 1336, 1337, 1338, 1339, 1340, 1341, 
    1342, 1343, 1344, 1345, 1346, 1347, 1348, 1349, 
    1350, 1351, 1352, 1353, 1354, 1355, 1356, 1357, 
    1358, 1359, 1360, 1361, 1362, 1363, 1364, 1365, 
    1366, 1367, 1368, 1369, 1370, 1371, 1372, 1373, 
    1374, 1375, 1376, 1377, 1378, 1379, 1380, 1381, 
    1382, 1383, 1384, 1385, 1386, 1387, 1388, 1389, 
    1390, 1391, 1392, 1393, 1394, 1395, 1396, 1397, 
    1398, 1399, 1400, 1401, 1402, 1403, 1404, 1405, 
    1406, 1407, 1408, 1409, 1410, 1411, 1412, 1413, 
    1414, 1415, 1416, 1417, 1418, 1419, 1420, 1421, 
    1422, 1423, 1424, 1425, 1426, 1427, 1428, 1429, 
    1430, 1431, 1432, 1433, 1434, 1435, 1436, 1437, 
    1438, 1439, 1440, 1441, 1442, 1443, 1444, 1445, 
    1446, 1447, 1448, 1449, 1450, 1451, 1452, 1453, 
    1454, 1455, 1456, 1457, 1458, 1459, 1460, 1461, 
    1462, 1463, 1464, 1465, 1466, 1467, 1468, 1469, 
    1470, 1471, 1472, 1473, 1474, 1475, 1476, 1477, 
    1478, 1479, 1480, 1481, 1482, 1483, 1484, 1485, 
    1486, 1487, 1488, 1489, 1490, 1491, 1492, 1493, 
    1494, 1495, 1496, 1497, 1498, 1499, 1500, 1501, 
    1502, 1503, 1504, 1505, 1506, 1507, 1508, 1509, 
    1510, 1511, 1512, 1513, 1514, 1515, 1516, 1517, 
    1518, 1519, 1520, 1521, 1522, 1523, 1524, 1525, 
    1526, 1527, 1528, 1529, 1530, 1531, 1532, 1533, 
    1534, 1535, 1536, 1537, 1538, 1539, 1540, 1541, 
    1542, 1543, 1544, 1545, 1546, 1547, 1548, 1549, 
    1550, 1551, 1552, 1553, 1554, 1555, 1556, 1557, 
    1558, 1559, 1560, 1561, 1562, 1563, 1564, 1565, 
    1566, 1567, 1568, 1569, 1570, 1571, 1572, 1573, 
    1574, 1575, 1576, 1577, 1578, 1579, 1580, 1581, 
    1582, 1583, 1584, 1585, 1586, 1587, 1588, 1589, 
    1590, 1591, 1592, 1593, 1594, 1595, 1596, 1597, 
    1598, 1599, 1600, 1601, 1602, 1603, 1604, 1605, 
    1606, 1607, 1608, 1609, 1610, 1611, 1612, 1613, 
    1614, 1615, 1616, 1617, 1618, 1619, 1620, 1621, 
    1622, 1623, 1624, 1625, 1626, 1627, 1628, 1629, 
    1630, 1631, 1632, 1633, 1634, 1635, 1636, 1637, 
    1638, 1639, 1640, 1641, 1642, 1643, 1644, 1645, 
    1646, 1647, 1648, 1649, 1650, 1651, 1652, 1653, 
    1654, 1655, 1656, 1657, 1658, 1659, 1660, 1661, 
    1662, 1663, 1664, 1665, 1666, 1667, 1668, 1669, 
    1670, 1671, 1672, 1673, 1674, 1675, 1676, 1677, 
    1678, 1679, 1680, 1681, 1682, 1683, 1684, 1685, 
    1686, 1687, 1688, 1689, 1690, 1691, 1692, 1693, 
    1694, 1695, 1696, 1697, 1698, 1699, 1700, 1701, 
    1702, 1703, 1704, 1705, 1706, 1707, 1708, 1709, 
    1710, 1711, 1712, 1713, 1714, 1715, 1716, 1717, 
    1718, 1719, 1720, 1721, 1722, 1723, 1724, 1725, 
    1726, 1727, 1728, 1729, 1730, 1731, 1732, 1733, 
    1734, 1735, 1736, 1737, 1738, 1739, 1740, 1741, 
    1742, 1743, 1744, 1745, 1746, 1747, 1748, 1749, 
    1750, 1751, 1752, 1753, 1754, 1755, 1756, 1757, 
    1758, 1759, 1760, 1761, 1762, 1763, 1764, 1765, 
    1766, 1767, 1768, 1769, 1770, 1771, 1772, 1773, 
    1774, 1775, 1776, 1777, 1778, 1779, 1780, 1781, 
    1782, 1783, 1784, 1785, 1786, 1787, 1788, 1789, 
    1790, 1791, 1792, 1793, 1794, 1795, 1796, 1797, 
    1798, 1799, 1800, 1801, 1802, 1803, 1804, 1805, 
    1806, 1807, 1808, 1809, 1810, 1811, 1812, 1813, 
    1814, 1815, 1816, 1817, 1818, 1819, 1820, 1821, 
    1822, 1823, 1824, 1825, 1826, 1827, 1828, 1829, 
    1830, 1831, 1832, 1833, 1834, 1835, 1836, 1837, 
    1838, 1839, 1840, 1841, 1842, 1843, 1844, 1845, 
    1846, 1847, 1848, 1849, 1850, 1851, 1852, 1853, 
    1854, 1855, 1856, 1857, 1858, 1859, 1860, 1861, 
    1862, 1863, 1864, 1865, 1866, 1867, 1868, 1869, 
    1870, 1871, 1872, 1873, 1874, 1875, 1876, 1877, 
    1878, 1879, 1880, 1881, 1882, 1883, 1884, 1885, 
    1886, 1887, 1888, 1889, 1890, 1891, 1892, 1893, 
    1894, 1895, 1896, 1897, 1898, 1899, 1900, 1901, 
    1902, 1903, 1904, 1905, 1906, 1907, 1908, 1909, 
    1910, 1911, 1912, 1913, 1914, 1915, 1916, 1917, 
    1918, 1919, 1920, 1921, 1922, 1923, 1924, 1925, 
    1926, 1927, 1928, 1929, 1930, 1931, 1932, 1933, 
    1934, 1935, 1936, 1937, 1938, 1939, 1940, 1941, 
    1942, 1943, 1944, 1945, 1946, 1947, 1948, 1949, 
    1950, 1951, 1952, 1953, 1954, 1955, 1956, 1957, 
    1958, 1959, 1960, 1961, 1962, 1963, 1964, 1965, 
    1966, 1967, 1968, 1969, 1970, 1971, 1972, 1973, 
    1974, 1975, 1976, 1977, 1978, 1979, 1980, 1981, 
    1982, 1983, 1984, 1985, 1986, 1987, 1988, 1989, 
    1990, 1991, 1992, 1993, 1994, 1995, 1996, 1997, 
    1998, 1999, 2000, 2001, 2002, 2003, 2004, 2005, 
    2006, 2007, 2008, 2009, 2010, 2011, 2012, 2013, 
    2014, 2015, 2016, 2017, 2018, 2019, 2020, 2021, 
    2022, 2023, 2024, 2025, 2026, 2027, 2028, 2029, 
    2030, 2031, 2032, 2033, 2034, 2035, 2036, 2037, 
    2038, 2039, 2040, 2041, 2042, 2043, 2044, 2045, 
    2046, 2047, 2048, 2049, 2050, 2051, 2052, 2053, 
    2054, 2055, 2056, 2057, 2058, 2059, 2060, 2061, 
    2062, 2063, 2064, 2065, 2066, 2067, 2068, 2069, 
    2070, 2071, 2072, 2073, 2074, 2075, 2076, 2077, 
    2078, 2079, 2080, 2081, 2082, 2083, 2084, 2085, 
    2086, 2087, 2088, 2089, 2090, 2091, 2092, 2093, 
    2094, 2095, 2096, 2097, 2098, 2099, 2100, 2101, 
    2102, 2103, 2104, 2105, 2106, 2107, 2108, 2109, 
    2110, 2111, 2112, 2113, 2114, 2115, 2116, 2117, 
    2118, 2119, 2120, 2121, 2122, 2123, 2124, 2125, 
    2126, 2127, 2128, 2129, 2130, 2131, 2132, 2133, 
    2134, 2135, 2136, 2137, 2138, 2139, 2140, 2141, 
    2142, 2143, 2144, 2145, 2146, 2147, 2148, 2149, 
    2150, 2151, 2152, 2153, 2154, 2155, 2156, 2157, 
    2158, 2159, 2160, 2161, 2162, 2163, 2164, 2165, 
    2166, 2167, 2168, 2169, 2170, 2171, 2172, 2173, 
    2174, 2175, 2176, 2177, 2178, 2179, 2180, 2181, 
    2182, 2183, 2184, 2185, 2186, 2187, 2188, 2189, 
    2190, 2191, 2192, 2193, 2194, 2195, 2196, 2197, 
    2198, 2199, 2200, 2201, 2202, 2203, 2204, 2205, 
    2206, 2207, 2208, 2209, 2210, 2211, 2212, 2213, 
    2214, 2215, 2216, 2217, 2218, 2219, 2220, 2221, 
    2222, 2223, 2224, 2225, 2226, 2227, 2228, 2229, 
    2230, 2231, 2232, 2233, 2234, 2235, 2236, 2237, 
    2238, 2239, 2240, 2241, 2242, 2243, 2244, 2245, 
    2246, 2247, 2248, 2249, 2250, 2251, 2252, 2253, 
    2254, 2255, 2256, 2257, 2258, 2259, 2260, 2261, 
    2262, 2263, 2264, 2265, 2266, 2267, 2268, 2269, 
    2270, 2271, 2272, 2273, 2274, 2275, 2276, 2277, 
    2278, 2279, 2280, 2281, 2282, 2283, 2284, 2285, 
    2286, 2287, 2288, 2289, 2290, 2291, 2292, 2293, 
    2294, 2295, 2296, 2297, 2298, 2299, 2300, 2301, 
    2302, 2303, 2304, 2305, 2306, 2307, 2308, 2309, 
    2310, 2311, 2312, 2313, 2314, 2315, 2316, 2317, 
    2318, 2319, 2320, 2321, 2322, 2323, 2324, 2325, 
    2326, 2327, 2328, 2329, 2330, 2331, 2332, 2333, 
    2334, 2335, 2336, 2337, 2338, 2339, 2340, 2341, 
    2342, 2343, 2344, 2345, 2346, 2347, 2348, 2349, 
    2350, 2351, 2352, 2353, 2354, 2355, 2356, 2357, 
    2358, 2359, 2360, 2361, 2362, 2363, 2364, 2365, 
    2366, 2367, 2368, 2369, 2370, 2371, 2372, 2373, 
    2374, 2375, 2376, 2377, 2378, 2379, 2380, 2381, 
    2382, 2383, 2384, 2385, 2386, 2387, 2388, 2389, 
    2390, 2391, 2392, 2393, 2394, 2395, 2396, 2397, 
    2398, 2399, 2400, 2401, 2402, 2403, 2404, 2405, 
    2406, 2407, 2408, 2409, 2410, 2411, 2412, 2413, 
    2414, 2415, 2416, 2417, 2418, 2419, 2420, 2421, 
    2422, 2423, 2424, 2425, 2426, 2427, 2428, 2429, 
    2430, 2431, 2432, 2433, 2434, 2435, 2436, 2437, 
    2438, 2439, 2440, 2441, 2442, 2443, 2444, 2445, 
    2446, 2447, 2448, 2449, 2450, 2451, 2452, 2453, 
    2454, 2455, 2456, 2457, 2458, 2459, 2460, 2461, 
    2462, 2463, 2464, 2465, 2466, 2467, 2468, 2469, 
    2470, 2471, 2472, 2473, 2474, 2475, 2476, 2477, 
    2478, 2479, 2480, 2481, 2482, 2483, 2484, 2485, 
    2486, 2487, 2488, 2489, 2490, 2491, 2492, 2493, 
    2494, 2495, 2496, 2497, 2498, 2499, 2500, 2501, 
    2502, 2503, 2504, 2505, 2506, 2507, 2508, 2509, 
    2510, 2511, 2512, 2513, 2514, 2515, 2516, 2517, 
    2518, 2519, 2520, 2521, 2522, 2523, 2524, 2525, 
    2526, 2527, 2528, 2529, 2530, 2531, 2532, 2533, 
    2534, 2535, 2536, 2537, 2538, 2539, 2540, 2541, 
    2542, 2543, 2544, 2545, 2546, 2547, 2548, 2549, 
    2550, 2551, 2552, 2553, 2554, 2555, 2556, 2557, 
    2558, 2559, 2560, 2561, 2562, 2563, 2564, 2565, 
    2566, 2567, 2568, 2569, 2570, 2571, 2572, 2573, 
    2574, 2575, 2576, 2577, 2578, 2579, 2580, 2581, 
    2582, 2583, 2584, 2585, 2586, 2587, 2588, 2589, 
    2590, 2591, 2592, 2593, 2594, 2595, 2596, 2597, 
    2598, 2599, 2600, 2601, 2602, 2603, 2604, 2605, 
    2606, 2607, 2608, 2609, 2610, 2611, 2612, 2613, 
    2614, 2615, 2616, 2617, 2618, 2619, 2620, 2621, 
    2622, 2623, 2624, 2625, 2626, 2627, 2628, 2629, 
    2630, 2631, 2632, 2633, 2634, 2635, 2636, 2637, 
    2638, 2639, 2640, 2641, 2642, 2643, 2644, 2645, 
    2646, 2647, 2648, 2649, 2650, 2651, 2652, 2653, 
    2654, 2655, 2656, 2657, 2658, 2659, 2660, 2661, 
    2662, 2663, 2664, 2665, 2666, 2667, 2668, 2669, 
    2670, 2671, 2672, 2673, 2674, 2675, 2676, 2677, 
    2678, 2679, 2680, 2681, 2682, 2683, 2684, 2685, 
    2686, 2687, 2688, 2689, 2690, 2691, 2692, 2693, 
    2694, 2695, 2696, 2697, 2698, 2699, 2700, 2701, 
    2702, 2703, 2704, 2705, 2706, 2707, 2708, 2709, 
    2710, 2711, 2712, 2713, 2714, 2715, 2716, 2717, 
    2718, 2719, 2720, 2721, 2722, 2723, 2724, 2725, 
    2726, 2727, 2728, 2729, 2730, 2731, 2732, 2733, 
    2734, 2735, 2736, 2737, 2738, 2739, 2740, 2741, 
    2742, 2743, 2744, 2745, 2746, 2747, 2748, 2749, 
    2750, 2751, 2752, 2753, 2754, 2755, 2756, 2757, 
    2758, 2759, 2760, 2761, 2762, 2763, 2764, 2765, 
    2766, 2767, 2768, 2769, 2770, 2771, 2772, 2773, 
    2774, 2775, 2776, 2777, 2778, 2779, 2780, 2781, 
    2782, 2783, 2784, 2785, 2786, 2787, 2788, 2789, 
    2790, 2791, 2792, 2793, 2794, 2795, 2796, 2797, 
    2798, 2799, 2800, 2801, 2802, 2803, 2804, 2805, 
    2806, 2807, 2808, 2809, 2810, 2811, 2812, 2813, 
    2814, 2815, 2816, 2817, 2818, 2819, 2820, 2821, 
    2822, 2823, 2824, 2825, 2826, 2827, 2828, 2829, 
    2830, 2831, 2832, 2833, 2834, 2835, 2836, 2837, 
    2838, 2839, 2840, 2841, 2842, 2843, 2844, 2845, 
    2846, 2847, 2848, 2849, 2850, 2851, 2852, 2853, 
    2854, 2855, 2856, 2857, 2858, 2859, 2860, 2861, 
    2862, 2863, 2864, 2865, 2866, 2867, 2868, 2869, 
    2870, 2871, 2872, 2873, 2874, 2875, 2876, 2877, 
    2878, 2879, 2880, 2881, 2882, 2883, 2884, 2885, 
    2886, 2887, 2888, 2889, 2890, 2891, 2892, 2893, 
    2894, 2895, 2896, 2897, 2898, 2899, 2900, 2901, 
    2902, 2903, 2904, 2905, 2906, 2907, 2908, 2909, 
    2910, 2911, 2912, 2913, 2914, 2915, 2916, 2917, 
    2918, 2919, 2920, 2921, 2922, 2923, 2924, 2925, 
    2926, 2927, 2928, 2929, 2930, 2931, 2932, 2933, 
    2934, 2935, 2936, 2937, 2938, 2939, 2940, 2941, 
    2942, 2943, 2944, 2945, 2946, 2947, 2948, 2949, 
    2950, 2951, 2952, 2953, 2954, 2955, 2956, 2957, 
    2958, 2959, 2960, 2961, 2962, 2963, 2964, 2965, 
    2966, 2967, 2968, 2969, 2970, 2971, 2972, 2973, 
    2974, 2975, 2976, 2977, 2978, 2979, 2980, 2981, 
    2982, 2983, 2984, 2985, 2986, 2987, 2988, 2989, 
    2990, 2991, 2992, 2993, 2994, 2995, 2996, 2997, 
    2998, 2999, 3000, 3001, 3002, 3003, 3004, 3005, 
    3006, 3007, 3008, 3009, 3010, 3011, 3012, 3013, 
    3014, 3015, 3016, 3017, 3018, 3019, 3020, 3021, 
    3022, 3023, 3024, 3025, 3026, 3027, 3028, 3029, 
    3030, 3031, 3032, 3033, 3034, 3035, 3036, 3037, 
    3038, 3039, 3040, 3041, 3042, 3043, 3044, 3045, 
    3046, 3047, 3048, 3049, 3050, 3051, 3052, 3053, 
    3054, 3055, 3056, 3057, 3058, 3059, 3060, 3061, 
    3062, 3063, 3064, 3065, 3066, 3067, 3068, 3069, 
    3070, 3071, 3072, 3073, 3074, 3075, 3076, 3077, 
    3078, 3079, 3080, 3081, 3082, 3083, 3084, 3085, 
    3086, 3087, 3088, 3089, 3090, 3091, 3092, 3093, 
    3094, 3095, 3096, 3097, 3098, 3099, 3100, 3101, 
    3102, 3103, 3104, 3105, 3106, 3107, 3108, 3109, 
    3110, 3111, 3112, 3113, 3114, 3115, 3116, 3117, 
    3118, 3119, 3120, 3121, 3122, 3123, 3124, 3125, 
    3126, 3127, 3128, 3129, 3130, 3131, 3132, 3133, 
    3134, 3135, 3136, 3137, 3138, 3139, 3140, 3141, 
    3142, 3143, 3144, 3145, 3146, 3147, 3148, 3149, 
    3150, 3151, 3152, 3153, 3154, 3155, 3156, 3157, 
    3158, 3159, 3160, 3161, 3162, 3163, 3164, 3165, 
    3166, 3167, 3168, 3169, 3170, 3171, 3172, 3173, 
    3174, 3175, 3176, 3177, 3178, 3179, 3180, 3181, 
    3182, 3183, 3184, 3185, 3186, 3187, 3188, 3189, 
    3190, 3191, 3192, 3193, 3194, 3195, 3196, 3197, 
    3198, 3199, 3200, 3201, 3202, 3203, 3204, 3205, 
    3206, 3207, 3208, 3209, 3210, 3211, 3212, 3213, 
    3214, 3215, 3216, 3217, 3218, 3219, 3220, 3221, 
    3222, 3223, 3224, 3225, 3226, 3227, 3228, 3229, 
    3230, 3231, 3232, 3233, 3234, 3235, 3236, 3237, 
    3238, 3239, 3240, 3241, 3242, 3243, 3244, 3245, 
    3246, 3247, 3248, 3249, 3250, 3251, 3252, 3253, 
    3254, 3255, 3256, 3257, 3258, 3259, 3260, 3261, 
    3262, 3263, 3264, 3265, 3266, 3267, 3268, 3269, 
    3270, 3271, 3272, 3273, 3274, 3275, 3276, 3277, 
    3278, 3279, 3280, 3281, 3282, 3283, 3284, 3285, 
    3286, 3287, 3288, 3289, 3290, 3291, 3292, 3293, 
    3294, 3295, 3296, 3297, 3298, 3299, 3300, 3301, 
    3302, 3303, 3304, 3305, 3306, 3307, 3308, 3309, 
    3310, 3311, 3312, 3313, 3314, 3315, 3316, 3317, 
    3318, 3319, 3320, 3321, 3322, 3323, 3324, 3325, 
    3326, 3327, 3328, 3329, 3330, 3331, 3332, 3333, 
    3334, 3335, 3336, 3337, 3338, 3339, 3340, 3341, 
    3342, 3343, 3344, 3345, 3346, 3347, 3348, 3349, 
    3350, 3351, 3352, 3353, 3354, 3355, 3356, 3357, 
    3358, 3359, 3360, 3361, 3362, 3363, 3364, 3365, 
    3366, 3367, 3368, 3369, 3370, 3371, 3372, 3373, 
    3374, 3375, 3376, 3377, 3378, 3379, 3380, 3381, 
    3382, 3383, 3384, 3385, 3386, 3387, 3388, 3389, 
    3390, 3391, 3392, 3393, 3394, 3395, 3396, 3397, 
    3398, 3399, 3400, 3401, 3402, 3403, 3404, 3405, 
    3406, 3407, 3408, 3409, 3410, 3411, 3412, 3413, 
    3414, 3415, 3416, 3417, 3418, 3419, 3420, 3421, 
    3422, 3423, 3424, 3425, 3426, 3427, 3428, 3429, 
    3430, 3431, 3432, 3433, 3434, 3435, 3436, 3437, 
    3438, 3439, 3440, 3441, 3442, 3443, 3444, 3445, 
    3446, 3447, 3448, 3449, 3450, 3451, 3452, 3453, 
    3454, 3455, 3456, 3457, 3458, 3459, 3460, 3461, 
    3462, 3463, 3464, 3465, 3466, 3467, 3468, 3469, 
    3470, 3471, 3472, 3473, 3474, 3475, 3476, 3477, 
    3478, 3479, 3480, 3481, 3482, 3483, 3484, 3485, 
    3486, 3487, 3488, 3489, 3490, 3491, 3492, 3493, 
    3494, 3495, 3496, 3497, 3498, 3499, 3500, 3501, 
    3502, 3503, 3504, 3505, 3506, 3507, 3508, 3509, 
    3510, 3511, 3512, 3513, 3514, 3515, 3516, 3517, 
    3518, 3519, 3520, 3521, 3522, 3523, 3524, 3525, 
    3526, 3527, 3528, 3529, 3530, 3531, 3532, 3533, 
    3534, 3535, 3536, 3537, 3538, 3539, 3540, 3541, 
    3542, 3543, 3544, 3545, 3546, 3547, 3548, 3549, 
    3550, 3551, 3552, 3553, 3554, 3555, 3556, 3557, 
    3558, 3559, 3560, 3561, 3562, 3563, 3564, 3565, 
    3566, 3567, 3568, 3569, 3570, 3571, 3572, 3573, 
    3574, 3575, 3576, 3577, 3578, 3579, 3580, 3581, 
    3582, 3583, 3584, 3585, 3586, 3587, 3588, 3589, 
    3590, 3591, 3592, 3593, 3594, 3595, 3596, 3597, 
    3598, 3599, 3600, 3601, 3602, 3603, 3604, 3605, 
    3606, 3607, 3608, 3609, 3610, 3611, 3612, 3613, 
    3614, 3615, 3616, 3617, 3618, 3619, 3620, 3621, 
    3622, 3623, 3624, 3625, 3626, 3627, 3628, 3629, 
    3630, 3631, 3632, 3633, 3634, 3635, 3636, 3637, 
    3638, 3639, 3640, 3641, 3642, 3643, 3644, 3645, 
    3646, 3647, 3648, 3649, 3650, 3651, 3652, 3653, 
    3654, 3655, 3656, 3657, 3658, 3659, 3660, 3661, 
    3662, 3663, 3664, 3665, 3666, 3667, 3668, 3669, 
    3670, 3671, 3672, 3673, 3674, 3675, 3676, 3677, 
    3678, 3679, 3680, 3681, 3682, 3683, 3684, 3685, 
    3686, 3687, 3688, 3689, 3690, 3691, 3692, 3693, 
    3694, 3695, 3696, 3697, 3698, 3699, 3700, 3701, 
    3702, 3703, 3704, 3705, 3706, 3707, 3708, 3709, 
    3710, 3711, 3712, 3713, 3714, 3715, 3716, 3717, 
    3718, 3719, 3720, 3721, 3722, 3723, 3724, 3725, 
    3726, 3727, 3728, 3729, 3730, 3731, 3732, 3733, 
    3734, 3735, 3736, 3737, 3738, 3739, 3740, 3741, 
    3742, 3743, 3744, 3745, 3746, 3747, 3748, 3749, 
    3750, 3751, 3752, 3753, 3754, 3755, 3756, 3757, 
    3758, 3759, 3760, 3761, 3762, 3763, 3764, 3765, 
    3766, 3767, 3768, 3769, 3770, 3771, 3772, 3773, 
    3774, 3775, 3776, 3777, 3778, 3779, 3780, 3781, 
    3782, 3783, 3784, 3785, 3786, 3787, 3788, 3789, 
    3790, 3791, 3792, 3793, 3794, 3795, 3796, 3797, 
    3798, 3799, 3800, 3801, 3802, 3803, 3804, 3805, 
    3806, 3807, 3808, 3809, 3810, 3811, 3812, 3813, 
    3814, 3815, 3816, 3817, 3818, 3819, 3820, 3821, 
    3822, 3823, 3824, 3825, 3826, 3827, 3828, 3829, 
    3830, 3831, 3832, 3833, 3834, 3835, 3836, 3837, 
    3838, 3839, 3840, 3841, 3842, 3843, 3844, 3845, 
    3846, 3847, 3848, 3849, 3850, 3851, 3852, 3853, 
    3854, 3855, 3856, 3857, 3858, 3859, 3860, 3861, 
    3862, 3863, 3864, 3865, 3866, 3867, 3868, 3869, 
    3870, 3871, 3872, 3873, 3874, 3875, 3876, 3877, 
    3878, 3879, 3880, 3881, 3882, 3883, 3884, 3885, 
    3886, 3887, 3888, 3889, 3890, 3891, 3892, 3893, 
    3894, 3895, 3896, 3897, 3898, 3899, 3900, 3901, 
    3902, 3903, 3904, 3905, 3906, 3907, 3908, 3909, 
    3910, 3911, 3912, 3913, 3914, 3915, 3916, 3917, 
    3918, 3919, 3920, 3921, 3922, 3923, 3924, 3925, 
    3926, 3927, 3928, 3929, 3930, 3931, 3932, 3933, 
    3934, 3935, 3936, 3937, 3938, 3939, 3940, 3941, 
    3942, 3943, 3944, 3945, 3946, 3947, 3948, 3949, 
    3950, 3951, 3952, 3953, 3954, 3955, 3956, 3957, 
    3958, 3959, 3960, 3961, 3962, 3963, 3964, 3965, 
    3966, 3967, 3968, 3969, 3970, 3971, 3972, 3973, 
    3974, 3975, 3976, 3977, 3978, 3979, 3980, 3981, 
    3982, 3983, 3984, 3985, 3986, 3987, 3988, 3989, 
    3990, 3991, 3992, 3993, 3994, 3995, 3996, 3997, 
    3998, 3999, 4000, 4001, 4002, 4003, 4004, 4005, 
    4006, 4007, 4008, 4009, 4010, 4011, 4012, 4013, 
    4014, 4015, 4016, 4017, 4018, 4019, 4020, 4021, 
    4022, 4023, 4024, 4025, 4026, 4027, 4028, 4029, 
    4030, 4031, 4032, 4033, 4034, 4035, 4036, 4037, 
    4038, 4039, 4040, 4041, 4042, 4043, 4044, 4045, 
    4046, 4047, 4048, 4049, 4050, 4051, 4052, 4053, 
    4054, 4055, 4056, 4057, 4058, 4059, 4060, 4061, 
    4062, 4063, 4064, 4065, 4066, 4067, 4068, 4069, 
    4070, 4071, 4072, 4073, 4074, 4075, 4076, 4077, 
    4078, 4079, 4080, 4081, 4082, 4083, 4084, 4085, 
    4086, 4087, 4088, 4089, 4090, 4091, 4092, 4093, 
    4094, 4095, 4096, 4097, 4098, 4099, 4100, 4101, 
    4102, 4103, 4104, 4105, 4106, 4107, 4108, 4109, 
    4110, 4111, 4112, 4113, 4114, 4115, 4116, 4117, 
    4118, 4119, 4120, 4121, 4122, 4123, 4124, 4125, 
    4126, 4127, 4128, 4129, 4130, 4131, 4132, 4133, 
    4134, 4135, 4136, 4137, 4138, 4139, 4140, 4141, 
    4142, 4143, 4144, 4145, 4146, 4147, 4148, 4149, 
    4150, 4151, 4152, 4153, 4154, 4155, 4156, 4157, 
    4158, 4159, 4160, 4161, 4162, 4163, 4164, 4165, 
    4166, 4167, 4168, 4169, 4170, 4171, 4172, 4173, 
    4174, 4175, 4176, 4177, 4178, 4179, 4180, 4181, 
    4182, 4183, 4184, 4185, 4186, 4187, 4188, 4189, 
    4190, 4191, 4192, 4193, 4194, 4195, 4196, 4197, 
    4198, 4199, 4200, 4201, 4202, 4203, 4204, 4205, 
    4206, 4207, 4208, 4209, 4210, 4211, 4212, 4213, 
    4214, 4215, 4216, 4217, 4218, 4219, 4220, 4221, 
    4222, 4223, 4224, 4225, 4226, 4227, 4228, 4229, 
    4230, 4231, 4232, 4233, 4234, 4235, 4236, 4237, 
    4238, 4239, 4240, 4241, 4242, 4243, 4244, 4245, 
    4246, 4247, 4248, 4249, 4250, 4251, 4252, 4253, 
    4254, 4255, 4256, 4257, 4258, 4259, 4260, 4261, 
    4262, 4263, 4264, 4265, 4266, 4267, 4268, 4269, 
    4270, 4271, 4272, 4273, 4274, 4275, 4276, 4277, 
    4278, 4279, 4280, 4281, 4282, 4283, 4284, 4285, 
    4286, 4287, 4288, 4289, 4290, 4291, 4292, 4293, 
    4294, 4295, 4296, 4297, 4298, 4299, 4300, 4301, 
    4302, 4303, 4304, 4305, 4306, 4307, 4308, 4309, 
    4310, 4311, 4312, 4313, 4314, 4315, 4316, 4317, 
    4318, 4319, 4320, 4321, 4322, 4323, 4324, 4325, 
    4326, 4327, 4328, 4329, 4330, 4331, 4332, 4333, 
    4334, 4335, 4336, 4337, 4338, 4339, 4340, 4341, 
    4342, 4343, 4344, 4345, 4346, 4347, 4348, 4349, 
    4350, 4351, 4352, 4353, 4354, 4355, 4356, 4357, 
    4358, 4359, 4360, 4361, 4362, 4363, 4364, 4365, 
    4366, 4367, 4368, 4369, 4370, 4371, 4372, 4373, 
    4374, 4375, 4376, 4377, 4378, 4379, 4380, 4381, 
    4382, 4383, 4384, 4385, 4386, 4387, 4388, 4389, 
    4390, 4391, 4392, 4393, 4394, 4395, 4396, 4397, 
    4398, 4399, 4400, 4401, 4402, 4403, 4404, 4405, 
    4406, 4407, 4408, 4409, 4410, 4411, 4412, 4413, 
    4414, 4415, 4416, 4417, 4418, 4419, 4420, 4421, 
    4422, 4423, 4424, 4425, 4426, 4427, 4428, 4429, 
    4430, 4431, 4432, 4433, 4434, 4435, 4436, 4437, 
    4438, 4439, 4440, 4441, 4442, 4443, 4444, 4445, 
    4446, 4447, 4448, 4449, 4450, 4451, 4452, 4453, 
    4454, 4455, 4456, 4457, 4458, 4459, 4460, 4461, 
    4462, 4463, 4464, 4465, 4466, 4467, 4468, 4469, 
    4470, 4471, 4472, 4473, 4474, 4475, 4476, 4477, 
    4478, 4479, 4480, 4481, 4482, 4483, 4484, 4485, 
    4486, 4487, 4488, 4489, 4490, 4491, 4492, 4493, 
    4494, 4495, 4496, 4497, 4498, 4499, 4500, 4501, 
    4502, 4503, 4504, 4505, 4506, 4507, 4508, 4509, 
    4510, 4511, 4512, 4513, 4514, 4515, 4516, 4517, 
    4518, 4519, 4520, 4521, 4522, 4523, 4524, 4525, 
    4526, 4527, 4528, 4529, 4530, 4531, 4532, 4533, 
    4534, 4535, 4536, 4537, 4538, 4539, 4540, 4541, 
    4542, 4543, 4544, 4545, 4546, 4547, 4548, 4549, 
    4550, 4551, 4552, 4553, 4554, 4555, 4556, 4557, 
    4558, 4559, 4560, 4561, 4562, 4563, 4564, 4565, 
    4566, 4567, 4568, 4569, 4570, 4571, 4572, 4573, 
    4574, 4575, 4576, 4577, 4578, 4579, 4580, 4581, 
    4582, 4583, 4584, 4585, 4586, 4587, 4588, 4589, 
    4590, 4591, 4592, 4593, 4594, 4595, 4596, 4597, 
    4598, 4599, 4600, 4601, 4602, 4603, 4604, 4605, 
    4606, 4607, 4608, 4609, 4610, 4611, 4612, 4613, 
    4614, 4615, 4616, 4617, 4618, 4619, 4620, 4621, 
    4622, 4623, 4624, 4625, 4626, 4627, 4628, 4629, 
    4630, 4631, 4632, 4633, 4634, 4635, 4636, 4637, 
    4638, 4639, 4640, 4641, 4642, 4643, 4644, 4645, 
    4646, 4647, 4648, 4649, 4650, 4651, 4652, 4653, 
    4654, 4655, 4656, 4657, 4658, 4659, 4660, 4661, 
    4662, 4663, 4664, 4665, 4666, 4667, 4668, 4669, 
    4670, 4671, 4672, 4673, 4674, 4675, 4676, 4677, 
    4678, 4679, 4680, 4681, 4682, 4683, 4684, 4685, 
    4686, 4687, 4688, 4689, 4690, 4691, 4692, 4693, 
    4694, 4695, 4696, 4697, 4698, 4699, 4700, 4701, 
    4702, 4703, 4704, 4705, 4706, 4707, 4708, 4709, 
    4710, 4711, 4712, 4713, 4714, 4715, 4716, 4717, 
    4718, 4719, 4720, 4721, 4722, 4723, 4724, 4725, 
    4726, 4727, 4728, 4729, 4730, 4731, 4732, 4733, 
    4734, 4735, 4736, 4737, 4738, 4739, 4740, 4741, 
    4742, 4743, 4744, 4745, 4746, 4747, 4748, 4749, 
    4750, 4751, 4752, 4753, 4754, 4755, 4756, 4757, 
    4758, 4759, 4760, 4761, 4762, 4763, 4764, 4765, 
    4766, 4767, 4768, 4769, 4770, 4771, 4772, 4773, 
    4774, 4775, 4776, 4777, 4778, 4779, 4780, 4781, 
    4782, 4783, 4784, 4785, 4786, 4787, 4788, 4789, 
    4790, 4791, 4792, 4793, 4794, 4795, 4796, 4797, 
    4798, 4799, 4800, 4801, 4802, 4803, 4804, 4805, 
    4806, 4807, 4808, 4809, 4810, 4811, 4812, 4813, 
    4814, 4815, 4816, 4817, 4818, 4819, 4820, 4821, 
    4822, 4823, 4824, 4825, 4826, 4827, 4828, 4829, 
    4830, 4831, 4832, 4833, 4834, 4835, 4836, 4837, 
    4838, 4839, 4840, 4841, 4842, 4843, 4844, 4845, 
    4846, 4847, 4848, 4849, 4850, 4851, 4852, 4853, 
    4854, 4855, 4856, 4857, 4858, 4859, 4860, 4861, 
    4862, 4863, 4864, 4865, 4866, 4867, 4868, 4869, 
    4870, 4871, 4872, 4873, 4874, 4875, 4876, 4877, 
    4878, 4879, 4880, 4881, 4882, 4883, 4884, 4885, 
    4886, 4887, 4888, 4889, 4890, 4891, 4892, 4893, 
    4894, 4895, 4896, 4897, 4898, 4899, 4900, 4901, 
    4902, 4903, 4904, 4905, 4906, 4907, 4908, 4909, 
    4910, 4911, 4912, 4913, 4914, 4915, 4916, 4917, 
    4918, 4919, 4920, 4921, 4922, 4923, 4924, 4925, 
    4926, 4927, 4928, 4929, 4930, 4931, 4932, 4933, 
    4934, 4935, 4936, 4937, 4938, 4939, 4940, 4941, 
    4942, 4943, 4944, 4945, 4946, 4947, 4948, 4949, 
    4950, 4951, 4952, 4953, 4954, 4955, 4956, 4957, 
    4958, 4959, 4960, 4961, 4962, 4963, 4964, 4965, 
    4966, 4967, 4968, 4969, 4970, 4971, 4972, 4973, 
    4974, 4975, 4976, 4977, 4978, 4979, 4980, 4981, 
    4982, 4983, 4984, 4985, 4986, 4987, 4988, 4989, 
    4990, 4991, 4992, 4993, 4994, 4995, 4996, 4997, 
    4998, 4999, 5000, 5001, 5002, 5003, 5004, 5005, 
    5006, 5007, 5008, 5009, 5010, 5011, 5012, 5013, 
    5014, 5015, 5016, 5017, 5018, 5019, 5020, 5021, 
    5022, 5023, 5024, 5025, 5026, 5027, 5028, 5029, 
    5030, 5031, 5032, 5033, 5034, 5035, 5036, 5037, 
    5038, 5039, 5040, 5041, 5042, 5043, 5044, 5045, 
    5046, 5047, 5048, 5049, 5050, 5051, 5052, 5053, 
    5054, 5055, 5056, 5057, 5058, 5059, 5060, 5061, 
    5062, 5063, 5064, 5065, 5066, 5067, 5068, 5069, 
    5070, 5071, 5072, 5073, 5074, 5075, 5076, 5077, 
    5078, 5079, 5080, 5081, 5082, 5083, 5084, 5085, 
    5086, 5087, 5088, 5089, 5090, 5091, 5092, 5093, 
    5094, 5095, 5096, 5097, 5098, 5099, 5100, 5101, 
    5102, 5103, 5104, 5105, 5106, 5107, 5108, 5109, 
    5110, 5111, 5112, 5113, 5114, 5115, 5116, 5117, 
    5118, 5119, 5120, 5121, 5122, 5123, 5124, 5125, 
    5126, 5127, 5128, 5129, 5130, 5131, 5132, 5133, 
    5134, 5135, 5136, 5137, 5138, 5139, 5140, 5141, 
    5142, 5143, 5144, 5145, 5146, 5147, 5148, 5149, 
    5150, 5151, 5152, 5153, 5154, 5155, 5156, 5157, 
    5158, 5159, 5160, 5161, 5162, 5163, 5164, 5165, 
    5166, 5167, 5168, 5169, 5170, 5171, 5172, 5173, 
    5174, 5175, 5176, 5177, 5178, 5179, 5180, 5181, 
    5182, 5183, 5184, 5185, 5186, 5187, 5188, 5189, 
    5190, 5191, 5192, 5193, 5194, 5195, 5196, 5197, 
    5198, 5199, 5200, 5201, 5202, 5203, 5204, 5205, 
    5206, 5207, 5208, 5209, 5210, 5211, 5212, 5213, 
    5214, 5215, 5216, 5217, 5218, 5219, 5220, 5221, 
    5222, 5223, 5224, 5225, 5226, 5227, 5228, 5229, 
    5230, 5231, 5232, 5233, 5234, 5235, 5236, 5237, 
    5238, 5239, 5240, 5241, 5242, 5243, 5244, 5245, 
    5246, 5247, 5248, 5249, 5250, 5251, 5252, 5253, 
    5254, 5255, 5256, 5257, 5258, 5259, 5260, 5261, 
    5262, 5263, 5264, 5265, 5266, 5267, 5268, 5269, 
    5270, 5271, 5272, 5273, 5274, 5275, 5276, 5277, 
    5278, 5279, 5280, 5281, 5282, 5283, 5284, 5285, 
    5286, 5287, 5288, 5289, 5290, 5291, 5292, 5293, 
    5294, 5295, 5296, 5297, 5298, 5299, 5300, 5301, 
    5302, 5303, 5304, 5305, 5306, 5307, 5308, 5309, 
    5310, 5311, 5312, 5313, 5314, 5315, 5316, 5317, 
    5318, 5319, 5320, 5321, 5322, 5323, 5324, 5325, 
    5326, 5327, 5328, 5329, 5330, 5331, 5332, 5333, 
    5334, 5335, 5336, 5337, 5338, 5339, 5340, 5341, 
    5342, 5343, 5344, 5345, 5346, 5347, 5348, 5349, 
    5350, 5351, 5352, 5353, 5354, 5355, 5356, 5357, 
    5358, 5359, 5360, 5361, 5362, 5363, 5364, 5365, 
    5366, 5367, 5368, 5369, 5370, 5371, 5372, 5373, 
    5374, 5375, 5376, 5377, 5378, 5379, 5380, 5381, 
    5382, 5383, 5384, 5385, 5386, 5387, 5388, 5389, 
    5390, 5391, 5392, 5393, 5394, 5395, 5396, 5397, 
    5398, 5399, 5400, 5401, 5402, 5403, 5404, 5405, 
    5406, 5407, 5408, 5409, 5410, 5411, 5412, 5413, 
    5414, 5415, 5416, 5417, 5418, 5419, 5420, 5421, 
    5422, 5423, 5424, 5425, 5426, 5427, 5428, 5429, 
    5430, 5431, 5432, 5433, 5434, 5435, 5436, 5437, 
    5438, 5439, 5440, 5441, 5442, 5443, 5444, 5445, 
    5446, 5447, 5448, 5449, 5450, 5451, 5452, 5453, 
    5454, 5455, 5456, 5457, 5458, 5459, 5460, 5461, 
    5462, 5463, 5464, 5465, 5466, 5467, 5468, 5469, 
    5470, 5471, 5472, 5473, 5474, 5475, 5476, 5477, 
    5478, 5479, 5480, 5481, 5482, 5483, 5484, 5485, 
    5486, 5487, 5488, 5489, 5490, 5491, 5492, 5493, 
    5494, 5495, 5496, 5497, 5498, 5499, 5500, 5501, 
    5502, 5503, 5504, 5505, 5506, 5507, 5508, 5509, 
    5510, 5511, 5512, 5513, 5514, 5515, 5516, 5517, 
    5518, 5519, 5520, 5521, 5522, 5523, 5524, 5525, 
    5526, 5527, 5528, 5529, 5530, 5531, 5532, 5533, 
    5534, 5535, 5536, 5537, 5538, 5539, 5540, 5541, 
    5542, 5543, 5544, 5545, 5546, 5547, 5548, 5549, 
    5550, 5551, 5552, 5553, 5554, 5555, 5556, 5557, 
    5558, 5559, 5560, 5561, 5562, 5563, 5564, 5565, 
    5566, 5567, 5568, 5569, 5570, 5571, 5572, 5573, 
    5574, 5575, 5576, 5577, 5578, 5579, 5580, 5581, 
    5582, 5583, 5584, 5585, 5586, 5587, 5588, 5589, 
    5590, 5591, 5592, 5593, 5594, 5595, 5596, 5597, 
    5598, 5599, 5600, 5601, 5602, 5603, 5604, 5605, 
    5606, 5607, 5608, 5609, 5610, 5611, 5612, 5613, 
    5614, 5615, 5616, 5617, 5618, 5619, 5620, 5621, 
    5622, 5623, 5624, 5625, 5626, 5627, 5628, 5629, 
    5630, 5631, 5632, 5633, 5634, 5635, 5636, 5637, 
    5638, 5639, 5640, 5641, 5642, 5643, 5644, 5645, 
    5646, 5647, 5648, 5649, 5650, 5651, 5652, 5653, 
    5654, 5655, 5656, 5657, 5658, 5659, 5660, 5661, 
    5662, 5663, 5664, 5665, 5666, 5667, 5668, 5669, 
    5670, 5671, 5672, 5673, 5674, 5675, 5676, 5677, 
    5678, 5679, 5680, 5681, 5682, 5683, 5684, 5685, 
    5686, 5687, 5688, 5689, 5690, 5691, 5692, 5693, 
    5694, 5695, 5696, 5697, 5698, 5699, 5700, 5701, 
    5702, 5703, 5704, 5705, 5706, 5707, 5708, 5709, 
    5710, 5711, 5712, 5713, 5714, 5715, 5716, 5717, 
    5718, 5719, 5720, 5721, 5722, 5723, 5724, 5725, 
    5726, 5727, 5728, 5729, 5730, 5731, 5732, 5733, 
    5734, 5735, 5736, 5737, 5738, 5739, 5740, 5741, 
    5742, 5743, 5744, 5745, 5746, 5747, 5748, 5749, 
    5750, 5751, 5752, 5753, 5754, 5755, 5756, 5757, 
    5758, 5759, 5760, 5761, 5762, 5763, 5764, 5765, 
    5766, 5767, 5768, 5769, 5770, 5771, 5772, 5773, 
    5774, 5775, 5776, 5777, 5778, 5779, 5780, 5781, 
    5782, 5783, 5784, 5785, 5786, 5787, 5788, 5789, 
    5790, 5791, 5792, 5793, 5794, 5795, 5796, 5797, 
    5798, 5799, 5800, 5801, 5802, 5803, 5804, 5805, 
    5806, 5807, 5808, 5809, 5810, 5811, 5812, 5813, 
    5814, 5815, 5816, 5817, 5818, 5819, 5820, 5821, 
    5822, 5823, 5824, 5825, 5826, 5827, 5828, 5829, 
    5830, 5831, 5832, 5833, 5834, 5835, 5836, 5837, 
    5838, 5839, 5840, 5841, 5842, 5843, 5844, 5845, 
    5846, 5847, 5848, 5849, 5850, 5851, 5852, 5853, 
    5854, 5855, 5856, 5857, 5858, 5859, 5860, 5861, 
    5862, 5863, 5864, 5865, 5866, 5867, 5868, 5869, 
    5870, 5871, 5872, 5873, 5874, 5875, 5876, 5877, 
    5878, 5879, 5880, 5881, 5882, 5883, 5884, 5885, 
    5886, 5887, 5888, 5889, 5890, 5891, 5892, 5893, 
    5894, 5895, 5896, 5897, 5898, 5899, 5900, 5901, 
    5902, 5903, 5904, 5905, 5906, 5907, 5908, 5909, 
    5910, 5911, 5912, 5913, 5914, 5915, 5916, 5917, 
    5918, 5919, 5920, 5921, 5922, 5923, 5924, 5925, 
    5926, 5927, 5928, 5929, 5930, 5931, 5932, 5933, 
    5934, 5935, 5936, 5937, 5938, 5939, 5940, 5941, 
    5942, 5943, 5944, 5945, 5946, 5947, 5948, 5949, 
    5950, 5951, 5952, 5953, 5954, 5955, 5956, 5957, 
    5958, 5959, 5960, 5961, 5962, 5963, 5964, 5965, 
    5966, 5967, 5968, 5969, 5970, 5971, 5972, 5973, 
    5974, 5975, 5976, 5977, 5978, 5979, 5980, 5981, 
    5982, 5983, 5984, 5985, 5986, 5987, 5988, 5989, 
    5990, 5991, 5992, 5993, 5994, 5995, 5996, 5997, 
    5998, 5999, 6000, 6001, 6002, 6003, 6004, 6005, 
    6006, 6007, 6008, 6009, 6010, 6011, 6012, 6013, 
    6014, 6015, 6016, 6017, 6018, 6019, 6020, 6021, 
    6022, 6023, 6024, 6025, 6026, 6027, 6028, 6029, 
    6030, 6031, 6032, 6033, 6034, 6035, 6036, 6037, 
    6038, 6039, 6040, 6041, 6042, 6043, 6044, 6045, 
    6046, 6047, 6048, 6049, 6050, 6051, 6052, 6053, 
    6054, 6055, 6056, 6057, 6058, 6059, 6060, 6061, 
    6062, 6063, 6064, 6065, 6066, 6067, 6068, 6069, 
    6070, 6071, 6072, 6073, 6074, 6075, 6076, 6077, 
    6078, 6079, 6080, 6081, 6082, 6083, 6084, 6085, 
    6086, 6087, 6088, 6089, 6090, 6091, 6092, 6093, 
    6094, 6095, 6096, 6097, 6098, 6099, 6100, 6101, 
    6102, 6103, 6104, 6105, 6106, 6107, 6108, 6109, 
    6110, 6111, 6112, 6113, 6114, 6115, 6116, 6117, 
    6118, 6119, 6120, 6121, 6122, 6123, 6124, 6125, 
    6126, 6127, 6128, 6129, 6130, 6131, 6132, 6133, 
    6134, 6135, 6136, 6137, 6138, 6139, 6140, 6141, 
    6142, 6143, 6144, 6145, 6146, 6147, 6148, 6149, 
    6150, 6151, 6152, 6153, 6154, 6155, 6156, 6157, 
    6158, 6159, 6160, 6161, 6162, 6163, 6164, 6165, 
    6166, 6167, 6168, 6169, 6170, 6171, 6172, 6173, 
    6174, 6175, 6176, 6177, 6178, 6179, 6180, 6181, 
    6182, 6183, 6184, 6185, 6186, 6187, 6188, 6189, 
    6190, 6191, 6192, 6193, 6194, 6195, 6196, 6197, 
    6198, 6199, 6200, 6201, 6202, 6203, 6204, 6205, 
    6206, 6207, 6208, 6209, 6210, 6211, 6212, 6213, 
    6214, 6215, 6216, 6217, 6218, 6219, 6220, 6221, 
    6222, 6223, 6224, 6225, 6226, 6227, 6228, 6229, 
    6230, 6231, 6232, 6233, 6234, 6235, 6236, 6237, 
    6238, 6239, 6240, 6241, 6242, 6243, 6244, 6245, 
    6246, 6247, 6248, 6249, 6250, 6251, 6252, 6253, 
    6254, 6255, 6256, 6257, 6258, 6259, 6260, 6261, 
    6262, 6263, 6264, 6265, 6266, 6267, 6268, 6269, 
    6270, 6271, 6272, 6273, 6274, 6275, 6276, 6277, 
    6278, 6279, 6280, 6281, 6282, 6283, 6284, 6285, 
    6286, 6287, 6288, 6289, 6290, 6291, 6292, 6293, 
    6294, 6295, 6296, 6297, 6298, 6299, 6300, 6301, 
    6302, 6303, 6304, 6305, 6306, 6307, 6308, 6309, 
    6310, 6311, 6312, 6313, 6314, 6315, 6316, 6317, 
    6318, 6319, 6320, 6321, 6322, 6323, 6324, 6325, 
    6326, 6327, 6328, 6329, 6330, 6331, 6332, 6333, 
    6334, 6335, 6336, 6337, 6338, 6339, 6340, 6341, 
    6342, 6343, 6344, 6345, 6346, 6347, 6348, 6349, 
    6350, 6351, 6352, 6353, 6354, 6355, 6356, 6357, 
    6358, 6359, 6360, 6361, 6362, 6363, 6364, 6365, 
    6366, 6367, 6368, 6369, 6370, 6371, 6372, 6373, 
    6374, 6375, 6376, 6377, 6378, 6379, 6380, 6381, 
    6382, 6383, 6384, 6385, 6386, 6387, 6388, 6389, 
    6390, 6391, 6392, 6393, 6394, 6395, 6396, 6397, 
    6398, 6399, 6400, 6401, 6402, 6403, 6404, 6405, 
    6406, 6407, 6408, 6409, 6410, 6411, 6412, 6413, 
    6414, 6415, 6416, 6417, 6418, 6419, 6420, 6421, 
    6422, 6423, 6424, 6425, 6426, 6427, 6428, 6429, 
    6430, 6431, 6432, 6433, 6434, 6435, 6436, 6437, 
    6438, 6439, 6440, 6441, 6442, 6443, 6444, 6445, 
    6446, 6447, 6448, 6449, 6450, 6451, 6452, 6453, 
    6454, 6455, 6456, 6457, 6458, 6459, 6460, 6461, 
    6462, 6463, 6464, 6465, 6466, 6467, 6468, 6469, 
    6470, 6471, 6472, 6473, 6474, 6475, 6476, 6477, 
    6478, 6479, 6480, 6481, 6482, 6483, 6484, 6485, 
    6486, 6487, 6488, 6489, 6490, 6491, 6492, 
*NSET, NSET=skir_sless______________________________________________________________________
    44, 45, 46, 694, 695, 696, 697, 698, 
    699, 700, 701, 702, 703, 704, 705, 706, 
    707, 708, 709, 710, 711, 712, 713, 714, 
    715, 716, 717, 718, 719, 720, 721, 722, 
    723, 724, 725, 726, 727, 728, 729, 730, 
    731, 732, 733, 734, 735, 736, 737, 738, 
    739, 740, 741, 742, 743, 744, 745, 746, 
    747, 748, 749, 750, 751, 752, 753, 754, 
    755, 756, 757, 758, 759, 760, 761, 762, 
    763, 764, 765, 766, 767, 768, 769, 770, 
    771, 772, 773, 774, 775, 776, 777, 778, 
    779, 780, 781, 782, 783, 784, 785, 786, 
    787, 788, 789, 790, 791, 792, 793, 794, 
    795, 796, 797, 798, 799, 800, 801, 802, 
    803, 804, 805, 806, 807, 808, 809, 810, 
    811, 812, 813, 814, 815, 816, 817, 818, 
    819, 820, 821, 822, 823, 824, 825, 826, 
    827, 828, 829, 830, 831, 832, 833, 834, 
    835, 836, 837, 838, 839, 840, 841, 842, 
    843, 844, 845, 846, 847, 848, 849, 850, 
    851, 852, 853, 854, 855, 856, 857, 858, 
    859, 860, 861, 862, 863, 864, 865, 6493, 
    6494, 6495, 6496, 6497, 6498, 6499, 6500, 6501, 
    6502, 6503, 6504, 6505, 6506, 6507, 6508, 6509, 
    6510, 6511, 6512, 6513, 6514, 6515, 6516, 6517, 
    6518, 6519, 6520, 6521, 6522, 6523, 6524, 6525, 
    6526, 6527, 6528, 6529, 6530, 6531, 6532, 6533, 
    6534, 6535, 6536, 6537, 6538, 6539, 6540, 6541, 
    6542, 6543, 6544, 6545, 6546, 6547, 6548, 6549, 
    6550, 6551, 6552, 6553, 6554, 6555, 6556, 6557, 
    6558, 6559, 6560, 6561, 6562, 6563, 6564, 6565, 
    6566, 6567, 6568, 6569, 6570, 6571, 6572, 6573, 
    6574, 6575, 6576, 6577, 6578, 6579, 6580, 6581, 
    6582, 6583, 6584, 6585, 6586, 6587, 6588, 6589, 
    6590, 6591, 6592, 6593, 6594, 6595, 6596, 6597, 
    6598, 6599, 6600, 6601, 6602, 6603, 6604, 6605, 
    6606, 6607, 6608, 6609, 6610, 6611, 6612, 6613, 
    6614, 6615, 6616, 6617, 6618, 6619, 6620, 6621, 
    6622, 6623, 6624, 6625, 6626, 6627, 6628, 6629, 
    6630, 6631, 6632, 6633, 6634, 6635, 6636, 6637, 
    6638, 6639, 6640, 6641, 6642, 6643, 6644, 6645, 
    6646, 6647, 6648, 6649, 6650, 6651, 6652, 6653, 
    6654, 6655, 6656, 6657, 6658, 6659, 6660, 6661, 
    6662, 6663, 6664, 6665, 6666, 6667, 6668, 6669, 
    6670, 6671, 6672, 6673, 6674, 6675, 6676, 6677, 
    6678, 6679, 6680, 6681, 6682, 6683, 6684, 6685, 
    6686, 6687, 6688, 6689, 6690, 6691, 6692, 6693, 
    6694, 6695, 6696, 6697, 6698, 6699, 6700, 6701, 
    6702, 6703, 6704, 6705, 6706, 6707, 6708, 6709, 
    6710, 6711, 6712, 6713, 6714, 6715, 6716, 6717, 
    6718, 6719, 6720, 6721, 6722, 6723, 6724, 6725, 
    6726, 6727, 6728, 6729, 6730, 6731, 6732, 6733, 
    6734, 6735, 6736, 6737, 6738, 6739, 6740, 6741, 
    6742, 6743, 6744, 6745, 6746, 6747, 6748, 6749, 
    6750, 6751, 6752, 6753, 6754, 6755, 6756, 6757, 
    6758, 6759, 6760, 6761, 6762, 6763, 6764, 6765, 
    6766, 6767, 6768, 6769, 6770, 6771, 6772, 6773, 
    6774, 6775, 6776, 6777, 6778, 6779, 6780, 6781, 
    6782, 6783, 6784, 6785, 6786, 6787, 6788, 6789, 
    6790, 6791, 6792, 6793, 6794, 6795, 6796, 6797, 
    6798, 6799, 6800, 6801, 6802, 6803, 6804, 6805, 
    6806, 6807, 6808, 6809, 6810, 6811, 6812, 6813, 
    6814, 6815, 6816, 6817, 6818, 6819, 6820, 6821, 
    6822, 6823, 6824, 6825, 6826, 6827, 6828, 6829, 
    6830, 6831, 6832, 6833, 6834, 6835, 6836, 6837, 
    6838, 6839, 6840, 6841, 6842, 6843, 6844, 6845, 
    6846, 6847, 6848, 6849, 6850, 6851, 6852, 6853, 
    6854, 6855, 6856, 6857, 6858, 6859, 6860, 6861, 
    6862, 6863, 6864, 6865, 6866, 6867, 6868, 6869, 
    6870, 6871, 6872, 6873, 6874, 6875, 6876, 6877, 
    6878, 6879, 6880, 6881, 6882, 6883, 6884, 6885, 
    6886, 6887, 6888, 6889, 6890, 6891, 6892, 6893, 
    6894, 6895, 6896, 6897, 6898, 6899, 6900, 6901, 
    6902, 6903, 6904, 6905, 6906, 6907, 6908, 6909, 
    6910, 6911, 6912, 6913, 6914, 6915, 6916, 6917, 
    6918, 6919, 6920, 6921, 6922, 6923, 6924, 6925, 
    6926, 6927, 6928, 6929, 6930, 6931, 6932, 6933, 
    6934, 6935, 6936, 6937, 6938, 6939, 6940, 6941, 
    6942, 6943, 6944, 6945, 6946, 6947, 6948, 6949, 
    6950, 6951, 6952, 6953, 6954, 6955, 6956, 6957, 
    6958, 6959, 6960, 6961, 6962, 6963, 6964, 6965, 
    6966, 6967, 6968, 6969, 6970, 6971, 6972, 6973, 
    6974, 6975, 6976, 6977, 6978, 6979, 6980, 6981, 
    6982, 6983, 6984, 6985, 6986, 6987, 6988, 6989, 
    6990, 6991, 6992, 6993, 6994, 6995, 6996, 6997, 
    6998, 6999, 7000, 7001, 7002, 7003, 7004, 7005, 
    7006, 7007, 7008, 7009, 7010, 7011, 7012, 7013, 
    7014, 7015, 7016, 7017, 7018, 7019, 7020, 7021, 
    7022, 7023, 7024, 7025, 7026, 7027, 7028, 7029, 
    7030, 7031, 7032, 7033, 7034, 7035, 7036, 7037, 
    7038, 7039, 7040, 7041, 7042, 7043, 7044, 7045, 
    7046, 7047, 7048, 7049, 7050, 7051, 7052, 7053, 
    7054, 7055, 7056, 7057, 7058, 7059, 7060, 7061, 
    7062, 7063, 7064, 7065, 7066, 7067, 7068, 7069, 
    7070, 7071, 7072, 7073, 7074, 7075, 7076, 7077, 
    7078, 7079, 7080, 7081, 7082, 7083, 7084, 7085, 
    7086, 7087, 7088, 7089, 7090, 7091, 7092, 7093, 
    7094, 7095, 7096, 7097, 7098, 7099, 7100, 7101, 
    7102, 7103, 7104, 7105, 7106, 7107, 7108, 7109, 
    7110, 7111, 7112, 7113, 7114, 7115, 7116, 7117, 
    7118, 7119, 7120, 7121, 7122, 7123, 7124, 7125, 
    7126, 7127, 7128, 7129, 7130, 7131, 7132, 7133, 
    7134, 7135, 7136, 7137, 7138, 7139, 7140, 7141, 
    7142, 7143, 7144, 7145, 7146, 7147, 7148, 7149, 
    7150, 7151, 7152, 7153, 7154, 7155, 7156, 7157, 
    7158, 7159, 7160, 7161, 7162, 7163, 7164, 7165, 
    7166, 7167, 7168, 7169, 7170, 7171, 7172, 7173, 
    7174, 7175, 7176, 7177, 7178, 7179, 7180, 7181, 
    7182, 7183, 7184, 7185, 7186, 7187, 7188, 7189, 
    7190, 7191, 7192, 7193, 7194, 7195, 7196, 7197, 
    7198, 7199, 7200, 7201, 7202, 7203, 7204, 7205, 
    7206, 7207, 7208, 7209, 7210, 7211, 7212, 7213, 
    7214, 7215, 7216, 7217, 7218, 7219, 7220, 7221, 
    7222, 7223, 7224, 7225, 7226, 7227, 7228, 7229, 
    7230, 7231, 7232, 7233, 7234, 7235, 7236, 7237, 
    7238, 7239, 7240, 7241, 7242, 7243, 7244, 7245, 
    7246, 7247, 7248, 7249, 7250, 7251, 7252, 7253, 
    7254, 7255, 7256, 7257, 7258, 7259, 7260, 7261, 
    7262, 7263, 7264, 7265, 7266, 7267, 7268, 7269, 
    7270, 7271, 7272, 7273, 7274, 7275, 7276, 7277, 
    7278, 7279, 7280, 7281, 7282, 7283, 7284, 7285, 
    7286, 7287, 7288, 7289, 7290, 7291, 7292, 7293, 
    7294, 7295, 7296, 7297, 7298, 7299, 7300, 7301, 
    7302, 7303, 7304, 7305, 7306, 7307, 7308, 7309, 
    7310, 7311, 7312, 7313, 7314, 7315, 7316, 7317, 
    7318, 7319, 7320, 7321, 7322, 7323, 7324, 7325, 
    7326, 7327, 7328, 7329, 7330, 7331, 7332, 7333, 
    7334, 7335, 7336, 7337, 7338, 7339, 7340, 7341, 
    7342, 7343, 7344, 7345, 7346, 7347, 7348, 7349, 
    7350, 7351, 7352, 7353, 7354, 7355, 7356, 7357, 
    7358, 7359, 7360, 7361, 7362, 7363, 7364, 7365, 
    7366, 7367, 7368, 7369, 7370, 7371, 7372, 7373, 
    7374, 7375, 7376, 7377, 7378, 7379, 7380, 7381, 
    7382, 7383, 7384, 7385, 7386, 7387, 7388, 7389, 
    7390, 7391, 7392, 7393, 7394, 7395, 7396, 7397, 
    7398, 7399, 7400, 7401, 7402, 7403, 7404, 7405, 
    7406, 7407, 7408, 7409, 7410, 7411, 7412, 7413, 
    7414, 7415, 7416, 7417, 7418, 7419, 7420, 7421, 
    7422, 7423, 7424, 7425, 7426, 7427, 7428, 7429, 
    7430, 7431, 7432, 7433, 7434, 7435, 7436, 7437, 
    7438, 7439, 7440, 7441, 7442, 7443, 7444, 7445, 
    7446, 7447, 7448, 7449, 7450, 7451, 7452, 7453, 
    7454, 7455, 7456, 7457, 7458, 7459, 7460, 7461, 
    7462, 7463, 7464, 7465, 7466, 7467, 7468, 7469, 
    7470, 7471, 7472, 7473, 7474, 7475, 7476, 7477, 
    7478, 7479, 7480, 7481, 7482, 7483, 7484, 7485, 
    7486, 7487, 7488, 7489, 7490, 7491, 7492, 7493, 
    7494, 7495, 7496, 7497, 7498, 7499, 7500, 7501, 
    7502, 7503, 7504, 7505, 7506, 7507, 7508, 7509, 
    7510, 7511, 7512, 7513, 7514, 7515, 7516, 7517, 
    7518, 7519, 7520, 7521, 7522, 
*NSET, NSET=opening2_surf___________________________________________________________________
    44, 45, 46, 47, 48, 49, 694, 695, 
    696, 697, 698, 699, 700, 701, 702, 703, 
    704, 705, 706, 707, 708, 709, 710, 711, 
    712, 713, 714, 715, 716, 717, 718, 719, 
    720, 721, 722, 723, 724, 725, 726, 727, 
    728, 729, 730, 731, 732, 733, 734, 735, 
    736, 737, 738, 739, 740, 741, 742, 743, 
    744, 745, 746, 747, 748, 749, 750, 751, 
    752, 753, 754, 755, 756, 757, 758, 759, 
    760, 761, 762, 763, 764, 765, 766, 767, 
    768, 769, 770, 771, 772, 773, 774, 775, 
    776, 777, 778, 779, 780, 781, 782, 783, 
    784, 785, 786, 787, 788, 789, 790, 791, 
    792, 793, 794, 795, 796, 797, 798, 799, 
    800, 801, 802, 803, 804, 805, 806, 807, 
    808, 809, 810, 811, 812, 813, 814, 815, 
    816, 817, 818, 819, 820, 821, 822, 823, 
    824, 825, 826, 827, 828, 829, 830, 831, 
    832, 833, 834, 835, 836, 837, 838, 839, 
    840, 841, 842, 843, 844, 845, 846, 847, 
    848, 849, 850, 851, 852, 853, 854, 855, 
    856, 857, 858, 859, 860, 861, 862, 863, 
    864, 865, 866, 867, 868, 869, 870, 871, 
    872, 873, 874, 875, 876, 877, 878, 879, 
    880, 881, 882, 883, 884, 885, 886, 887, 
    888, 889, 890, 891, 892, 893, 894, 895, 
    896, 897, 898, 899, 900, 901, 902, 903, 
    904, 905, 6493, 6494, 6495, 6496, 6497, 6498, 
    6499, 6500, 6501, 6502, 6503, 6504, 6505, 6506, 
    6507, 6508, 6509, 6510, 6511, 6512, 6513, 6514, 
    6515, 6516, 6517, 6518, 6519, 6520, 6521, 6522, 
    6523, 6524, 6525, 6526, 6527, 6528, 6529, 6530, 
    6531, 6532, 6533, 6534, 6535, 6536, 6537, 6538, 
    6539, 6540, 6541, 6542, 6543, 6544, 6545, 6546, 
    6547, 6548, 6549, 6550, 6551, 6552, 6553, 6554, 
    6555, 6556, 6557, 6558, 6559, 6560, 6561, 6562, 
    6563, 6564, 6565, 6566, 6567, 6568, 6569, 6570, 
    6571, 6572, 6573, 6574, 6575, 6576, 6577, 6578, 
    6579, 6580, 6581, 6582, 6583, 6584, 6585, 6586, 
    6587, 6588, 6589, 6590, 6591, 6592, 6593, 6594, 
    6595, 6596, 6597, 6598, 6599, 6600, 6601, 6602, 
    6603, 6604, 6605, 6606, 6607, 6608, 6609, 6610, 
    6611, 6612, 6613, 6614, 6615, 6616, 6617, 6618, 
    6619, 6620, 6621, 6622, 6623, 6624, 6625, 6626, 
    6627, 6628, 6629, 6630, 6631, 6632, 6633, 6634, 
    6635, 6636, 6637, 6638, 6639, 6640, 6641, 6642, 
    6643, 6644, 6645, 6646, 6647, 6648, 6649, 6650, 
    6651, 6652, 6653, 6654, 6655, 6656, 6657, 6658, 
    6659, 6660, 6661, 6662, 6663, 6664, 6665, 6666, 
    6667, 6668, 6669, 6670, 6671, 6672, 6673, 6674, 
    6675, 6676, 6677, 6678, 6679, 6680, 6681, 6682, 
    6683, 6684, 6685, 6686, 6687, 6688, 6689, 6690, 
    6691, 6692, 6693, 6694, 6695, 6696, 6697, 6698, 
    6699, 6700, 6701, 6702, 6703, 6704, 6705, 6706, 
    6707, 6708, 6709, 6710, 6711, 6712, 6713, 6714, 
    6715, 6716, 6717, 6718, 6719, 6720, 6721, 6722, 
    6723, 6724, 6725, 6726, 6727, 6728, 6729, 6730, 
    6731, 6732, 6733, 6734, 6735, 6736, 6737, 6738, 
    6739, 6740, 6741, 6742, 6743, 6744, 6745, 6746, 
    6747, 6748, 6749, 6750, 6751, 6752, 6753, 6754, 
    6755, 6756, 6757, 6758, 6759, 6760, 6761, 6762, 
    6763, 6764, 6765, 6766, 6767, 6768, 6769, 6770, 
    6771, 6772, 6773, 6774, 6775, 6776, 6777, 6778, 
    6779, 6780, 6781, 6782, 6783, 6784, 6785, 6786, 
    6787, 6788, 6789, 6790, 6791, 6792, 6793, 6794, 
    6795, 6796, 6797, 6798, 6799, 6800, 6801, 6802, 
    6803, 6804, 6805, 6806, 6807, 6808, 6809, 6810, 
    6811, 6812, 6813, 6814, 6815, 6816, 6817, 6818, 
    6819, 6820, 6821, 6822, 6823, 6824, 6825, 6826, 
    6827, 6828, 6829, 6830, 6831, 6832, 6833, 6834, 
    6835, 6836, 6837, 6838, 6839, 6840, 6841, 6842, 
    6843, 6844, 6845, 6846, 6847, 6848, 6849, 6850, 
    6851, 6852, 6853, 6854, 6855, 6856, 6857, 6858, 
    6859, 6860, 6861, 6862, 6863, 6864, 6865, 6866, 
    6867, 6868, 6869, 6870, 6871, 6872, 6873, 6874, 
    6875, 6876, 6877, 6878, 6879, 6880, 6881, 6882, 
    6883, 6884, 6885, 6886, 6887, 6888, 6889, 6890, 
    6891, 6892, 6893, 6894, 6895, 6896, 6897, 6898, 
    6899, 6900, 6901, 6902, 6903, 6904, 6905, 6906, 
    6907, 6908, 6909, 6910, 6911, 6912, 6913, 6914, 
    6915, 6916, 6917, 6918, 6919, 6920, 6921, 6922, 
    6923, 6924, 6925, 6926, 6927, 6928, 6929, 6930, 
    6931, 6932, 6933, 6934, 6935, 6936, 6937, 6938, 
    6939, 6940, 6941, 6942, 6943, 6944, 6945, 6946, 
    6947, 6948, 6949, 6950, 6951, 6952, 6953, 6954, 
    6955, 6956, 6957, 6958, 6959, 6960, 6961, 6962, 
    6963, 6964, 6965, 6966, 6967, 6968, 6969, 6970, 
    6971, 6972, 6973, 6974, 6975, 6976, 6977, 6978, 
    6979, 6980, 6981, 6982, 6983, 6984, 6985, 6986, 
    6987, 6988, 6989, 6990, 6991, 6992, 6993, 6994, 
    6995, 6996, 6997, 6998, 6999, 7000, 7001, 7002, 
    7003, 7004, 7005, 7006, 7007, 7008, 7009, 7010, 
    7011, 7012, 7013, 7014, 7015, 7016, 7017, 7018, 
    7019, 7020, 7021, 7022, 7023, 7024, 7025, 7026, 
    7027, 7028, 7029, 7030, 7031, 7032, 7033, 7034, 
    7035, 7036, 7037, 7038, 7039, 7040, 7041, 7042, 
    7043, 7044, 7045, 7046, 7047, 7048, 7049, 7050, 
    7051, 7052, 7053, 7054, 7055, 7056, 7057, 7058, 
    7059, 7060, 7061, 7062, 7063, 7064, 7065, 7066, 
    7067, 7068, 7069, 7070, 7071, 7072, 7073, 7074, 
    7075, 7076, 7077, 7078, 7079, 7080, 7081, 7082, 
    7083, 7084, 7085, 7086, 7087, 7088, 7089, 7090, 
    7091, 7092, 7093, 7094, 7095, 7096, 7097, 7098, 
    7099, 7100, 7101, 7102, 7103, 7104, 7105, 7106, 
    7107, 7108, 7109, 7110, 7111, 7112, 7113, 7114, 
    7115, 7116, 7117, 7118, 7119, 7120, 7121, 7122, 
    7123, 7124, 7125, 7126, 7127, 7128, 7129, 7130, 
    7131, 7132, 7133, 7134, 7135, 7136, 7137, 7138, 
    7139, 7140, 7141, 7142, 7143, 7144, 7145, 7146, 
    7147, 7148, 7149, 7150, 7151, 7152, 7153, 7154, 
    7155, 7156, 7157, 7158, 7159, 7160, 7161, 7162, 
    7163, 7164, 7165, 7166, 7167, 7168, 7169, 7170, 
    7171, 7172, 7173, 7174, 7175, 7176, 7177, 7178, 
    7179, 7180, 7181, 7182, 7183, 7184, 7185, 7186, 
    7187, 7188, 7189, 7190, 7191, 7192, 7193, 7194, 
    7195, 7196, 7197, 7198, 7199, 7200, 7201, 7202, 
    7203, 7204, 7205, 7206, 7207, 7208, 7209, 7210, 
    7211, 7212, 7213, 7214, 7215, 7216, 7217, 7218, 
    7219, 7220, 7221, 7222, 7223, 7224, 7225, 7226, 
    7227, 7228, 7229, 7230, 7231, 7232, 7233, 7234, 
    7235, 7236, 7237, 7238, 7239, 7240, 7241, 7242, 
    7243, 7244, 7245, 7246, 7247, 7248, 7249, 7250, 
    7251, 7252, 7253, 7254, 7255, 7256, 7257, 7258, 
    7259, 7260, 7261, 7262, 7263, 7264, 7265, 7266, 
    7267, 7268, 7269, 7270, 7271, 7272, 7273, 7274, 
    7275, 7276, 7277, 7278, 7279, 7280, 7281, 7282, 
    7283, 7284, 7285, 7286, 7287, 7288, 7289, 7290, 
    7291, 7292, 7293, 7294, 7295, 7296, 7297, 7298, 
    7299, 7300, 7301, 7302, 7303, 7304, 7305, 7306, 
    7307, 7308, 7309, 7310, 7311, 7312, 7313, 7314, 
    7315, 7316, 7317, 7318, 7319, 7320, 7321, 7322, 
    7323, 7324, 7325, 7326, 7327, 7328, 7329, 7330, 
    7331, 7332, 7333, 7334, 7335, 7336, 7337, 7338, 
    7339, 7340, 7341, 7342, 7343, 7344, 7345, 7346, 
    7347, 7348, 7349, 7350, 7351, 7352, 7353, 7354, 
    7355, 7356, 7357, 7358, 7359, 7360, 7361, 7362, 
    7363, 7364, 7365, 7366, 7367, 7368, 7369, 7370, 
    7371, 7372, 7373, 7374, 7375, 7376, 7377, 7378, 
    7379, 7380, 7381, 7382, 7383, 7384, 7385, 7386, 
    7387, 7388, 7389, 7390, 7391, 7392, 7393, 7394, 
    7395, 7396, 7397, 7398, 7399, 7400, 7401, 7402, 
    7403, 7404, 7405, 7406, 7407, 7408, 7409, 7410, 
    7411, 7412, 7413, 7414, 7415, 7416, 7417, 7418, 
    7419, 7420, 7421, 7422, 7423, 7424, 7425, 7426, 
    7427, 7428, 7429, 7430, 7431, 7432, 7433, 7434, 
    7435, 7436, 7437, 7438, 7439, 7440, 7441, 7442, 
    7443, 7444, 7445, 7446, 7447, 7448, 7449, 7450, 
    7451, 7452, 7453, 7454, 7455, 7456, 7457, 7458, 
    7459, 7460, 7461, 7462, 7463, 7464, 7465, 7466, 
    7467, 7468, 7469, 7470, 7471, 7472, 7473, 7474, 
    7475, 7476, 7477, 7478, 7479, 7480, 7481, 7482, 
    7483, 7484, 7485, 7486, 7487, 7488, 7489, 7490, 
    7491, 7492, 7493, 7494, 7495, 7496, 7497, 7498, 
    7499, 7500, 7501, 7502, 7503, 7504, 7505, 7506, 
    7507, 7508, 7509, 7510, 7511, 7512, 7513, 7514, 
    7515, 7516, 7517, 7518, 7519, 7520, 7521, 7522, 
    7523, 7524, 7525, 7526, 7527, 7528, 7529, 7530, 
    7531, 7532, 7533, 7534, 7535, 7536, 7537, 7538, 
    7539, 7540, 7541, 7542, 7543, 7544, 7545, 
*NSET, NSET=base_plate______________________________________________________________________
    25, 49, 50, 51, 52, 189, 190, 191, 
    192, 193, 194, 195, 196, 197, 198, 199, 
    200, 201, 202, 203, 204, 205, 206, 207, 
    208, 209, 210, 211, 212, 213, 214, 215, 
    216, 217, 218, 219, 220, 221, 222, 223, 
    224, 225, 226, 227, 228, 229, 230, 231, 
    232, 233, 234, 235, 236, 237, 238, 239, 
    240, 241, 242, 243, 244, 245, 246, 247, 
    248, 249, 250, 251, 252, 253, 254, 255, 
    256, 257, 258, 259, 260, 261, 262, 263, 
    264, 265, 266, 267, 876, 877, 878, 879, 
    880, 881, 882, 883, 884, 885, 886, 887, 
    888, 889, 890, 891, 892, 893, 894, 906, 
    907, 908, 909, 910, 911, 912, 913, 914, 
    915, 916, 917, 918, 919, 920, 921, 922, 
    923, 924, 925, 926, 927, 928, 929, 930, 
    931, 932, 933, 934, 935, 936, 937, 938, 
    939, 940, 941, 942, 943, 944, 945, 946, 
    947, 948, 949, 950, 951, 952, 953, 954, 
    955, 956, 957, 958, 959, 960, 961, 962, 
    963, 964, 965, 966, 967, 968, 969, 970, 
    971, 972, 973, 974, 975, 976, 977, 978, 
    979, 980, 981, 982, 983, 984, 985, 986, 
    987, 988, 989, 990, 991, 992, 993, 994, 
    995, 996, 997, 998, 999, 1000, 1001, 1002, 
    1003, 1004, 1005, 1006, 1007, 1008, 1009, 1010, 
    1011, 1012, 1013, 7546, 7547, 7548, 7549, 7550, 
    7551, 7552, 7553, 7554, 7555, 7556, 7557, 7558, 
    7559, 7560, 7561, 7562, 7563, 7564, 7565, 7566, 
    7567, 7568, 7569, 7570, 7571, 7572, 7573, 7574, 
    7575, 7576, 7577, 7578, 7579, 7580, 7581, 7582, 
    7583, 7584, 7585, 7586, 7587, 7588, 7589, 7590, 
    7591, 7592, 7593, 7594, 7595, 7596, 7597, 7598, 
    7599, 7600, 7601, 7602, 7603, 7604, 7605, 7606, 
    7607, 7608, 7609, 7610, 7611, 7612, 7613, 7614, 
    7615, 7616, 7617, 7618, 7619, 7620, 7621, 7622, 
    7623, 7624, 7625, 
*ELSET, ELSET=ovalop1_surf____________________________________________________________________
    1, 2, 3, 4, 5, 6, 7, 8, 
    9, 10, 11, 12, 13, 14, 15, 16, 
    17, 18, 19, 20, 21, 22, 23, 24, 
*ELSET, ELSET=ovalop2_surf____________________________________________________________________
    25, 26, 27, 28, 29, 30, 31, 32, 
    33, 34, 35, 36, 37, 38, 39, 40, 
    41, 42, 43, 44, 45, 46, 47, 48, 
*ELSET, ELSET=skir_carbo_und__________________________________________________________________
    49, 50, 51, 52, 53, 54, 55, 56, 
    57, 58, 59, 60, 61, 62, 63, 64, 
    65, 66, 67, 68, 69, 70, 71, 72, 
    73, 74, 75, 76, 77, 78, 79, 80, 
    81, 82, 83, 84, 85, 86, 87, 88, 
    89, 90, 91, 92, 93, 94, 95, 96, 
    97, 98, 99, 100, 101, 102, 103, 104, 
    105, 106, 107, 108, 109, 110, 111, 112, 
    113, 114, 115, 116, 117, 118, 119, 120, 
    121, 122, 123, 124, 125, 126, 127, 128, 
    129, 
*ELSET, ELSET=manhole_surf____________________________________________________________________
    130, 131, 132, 133, 134, 135, 136, 137, 
    138, 139, 140, 141, 142, 143, 144, 145, 
    146, 147, 148, 149, 150, 151, 152, 153, 
    154, 155, 156, 157, 158, 159, 160, 161, 
    162, 163, 164, 165, 166, 
*ELSET, ELSET=skir_carbo_mid__________________________________________________________________
    167, 168, 169, 170, 171, 172, 173, 174, 
    175, 176, 177, 178, 179, 180, 181, 182, 
    183, 184, 185, 186, 187, 188, 189, 190, 
    191, 192, 193, 194, 195, 196, 197, 198, 
    199, 200, 201, 202, 203, 204, 205, 206, 
    207, 208, 209, 210, 211, 212, 213, 214, 
    215, 216, 217, 218, 219, 220, 221, 222, 
    223, 224, 225, 226, 227, 228, 229, 230, 
    231, 232, 233, 234, 235, 236, 237, 238, 
    239, 240, 241, 242, 243, 244, 245, 246, 
    247, 248, 249, 250, 251, 252, 253, 254, 
    255, 256, 257, 258, 259, 260, 261, 262, 
    263, 264, 265, 266, 267, 268, 269, 270, 
    271, 272, 273, 274, 275, 276, 277, 278, 
    279, 280, 281, 282, 283, 284, 285, 286, 
    287, 288, 289, 290, 291, 292, 293, 294, 
    295, 296, 297, 298, 299, 300, 301, 302, 
    303, 304, 305, 306, 307, 308, 309, 310, 
    311, 312, 313, 314, 315, 316, 317, 318, 
    319, 320, 321, 322, 323, 324, 325, 326, 
    327, 328, 329, 330, 331, 332, 333, 334, 
    335, 336, 337, 338, 339, 340, 341, 342, 
    343, 344, 345, 346, 347, 348, 349, 350, 
    351, 352, 353, 354, 355, 356, 357, 358, 
    359, 360, 361, 362, 363, 364, 365, 366, 
    367, 368, 369, 370, 371, 372, 373, 374, 
    375, 376, 377, 378, 379, 380, 381, 382, 
    383, 384, 385, 386, 387, 388, 389, 390, 
    391, 392, 393, 394, 395, 396, 397, 398, 
    399, 400, 401, 402, 403, 404, 405, 406, 
    407, 408, 409, 410, 411, 412, 413, 414, 
    415, 416, 417, 418, 419, 420, 421, 422, 
    423, 424, 425, 426, 427, 428, 429, 430, 
    431, 432, 433, 434, 435, 436, 437, 438, 
    439, 440, 441, 442, 443, 444, 445, 446, 
    447, 448, 449, 450, 451, 452, 453, 454, 
    455, 456, 457, 458, 459, 460, 461, 462, 
    463, 464, 465, 466, 467, 468, 469, 470, 
    471, 472, 473, 474, 475, 476, 477, 478, 
    479, 480, 481, 482, 483, 484, 485, 486, 
    487, 488, 489, 490, 491, 492, 493, 494, 
    495, 496, 497, 498, 499, 500, 501, 502, 
    503, 504, 505, 506, 507, 508, 509, 510, 
    511, 512, 513, 514, 515, 516, 517, 518, 
    519, 520, 521, 522, 523, 524, 525, 526, 
    527, 528, 529, 530, 531, 532, 533, 534, 
    535, 536, 537, 538, 539, 540, 541, 542, 
    543, 544, 545, 546, 547, 548, 549, 550, 
    551, 552, 553, 554, 555, 556, 557, 558, 
    559, 560, 561, 562, 563, 564, 565, 566, 
    567, 568, 569, 570, 571, 572, 573, 574, 
    575, 576, 577, 578, 579, 580, 581, 582, 
    583, 584, 585, 586, 587, 588, 589, 590, 
    591, 592, 593, 594, 595, 596, 597, 598, 
    599, 600, 601, 602, 603, 604, 605, 606, 
    607, 608, 609, 610, 611, 612, 613, 614, 
    615, 616, 617, 618, 619, 620, 621, 622, 
    623, 624, 625, 626, 627, 628, 629, 630, 
    631, 632, 633, 634, 635, 636, 637, 638, 
    639, 640, 641, 642, 643, 644, 645, 646, 
    647, 648, 649, 650, 651, 652, 653, 654, 
    655, 656, 657, 658, 659, 660, 661, 662, 
    663, 664, 665, 666, 667, 668, 669, 670, 
    671, 672, 673, 674, 675, 676, 677, 678, 
    679, 680, 681, 682, 683, 684, 685, 686, 
    687, 688, 689, 690, 691, 692, 693, 694, 
    695, 696, 697, 698, 699, 700, 701, 702, 
    703, 704, 705, 706, 707, 708, 709, 710, 
    711, 712, 713, 714, 715, 716, 717, 718, 
    719, 720, 721, 722, 723, 724, 725, 726, 
    727, 728, 729, 730, 731, 732, 733, 734, 
    735, 736, 737, 738, 739, 740, 741, 742, 
    743, 744, 745, 746, 747, 748, 749, 750, 
    751, 752, 753, 754, 755, 756, 757, 758, 
    759, 760, 761, 762, 763, 764, 765, 766, 
    767, 768, 769, 770, 771, 772, 773, 774, 
    775, 776, 777, 778, 779, 780, 781, 782, 
    783, 784, 785, 786, 787, 788, 789, 790, 
    791, 792, 793, 794, 795, 796, 797, 798, 
    799, 800, 801, 802, 803, 804, 805, 806, 
    807, 808, 809, 810, 811, 812, 813, 814, 
    815, 816, 817, 818, 819, 820, 821, 822, 
    823, 824, 825, 826, 827, 828, 829, 830, 
    831, 832, 833, 834, 835, 836, 837, 838, 
    839, 840, 841, 842, 843, 844, 845, 846, 
    847, 848, 849, 850, 851, 852, 853, 854, 
    855, 856, 857, 858, 859, 860, 861, 862, 
    863, 864, 865, 866, 867, 868, 869, 870, 
    871, 872, 873, 874, 875, 876, 877, 878, 
    879, 880, 881, 882, 883, 884, 885, 886, 
    887, 888, 889, 890, 891, 892, 893, 894, 
    895, 896, 897, 898, 899, 900, 901, 902, 
    903, 904, 905, 906, 907, 908, 909, 910, 
    911, 912, 913, 914, 915, 916, 917, 918, 
    919, 920, 921, 922, 923, 924, 925, 926, 
    927, 928, 929, 930, 931, 932, 933, 934, 
    935, 936, 937, 938, 939, 940, 941, 942, 
    943, 944, 945, 946, 947, 948, 949, 950, 
    951, 952, 953, 954, 955, 956, 957, 958, 
    959, 960, 961, 962, 963, 964, 965, 966, 
    967, 968, 969, 970, 971, 972, 973, 974, 
    975, 976, 977, 978, 979, 980, 981, 982, 
    983, 984, 985, 986, 987, 988, 989, 990, 
    991, 992, 993, 994, 995, 996, 997, 998, 
    999, 1000, 1001, 1002, 1003, 1004, 1005, 1006, 
    1007, 1008, 1009, 1010, 1011, 1012, 1013, 1014, 
    1015, 1016, 1017, 1018, 1019, 1020, 1021, 1022, 
    1023, 1024, 1025, 1026, 1027, 1028, 1029, 1030, 
    1031, 1032, 1033, 1034, 1035, 1036, 1037, 1038, 
    1039, 1040, 1041, 1042, 1043, 1044, 1045, 1046, 
    1047, 1048, 1049, 1050, 1051, 1052, 1053, 1054, 
    1055, 1056, 1057, 1058, 1059, 1060, 1061, 1062, 
    1063, 1064, 1065, 1066, 1067, 1068, 1069, 1070, 
    1071, 1072, 1073, 1074, 1075, 1076, 1077, 1078, 
    1079, 1080, 1081, 1082, 1083, 1084, 1085, 1086, 
    1087, 1088, 1089, 1090, 1091, 1092, 1093, 1094, 
    1095, 1096, 1097, 1098, 1099, 1100, 1101, 1102, 
    1103, 1104, 1105, 1106, 1107, 1108, 1109, 1110, 
    1111, 1112, 1113, 1114, 1115, 1116, 1117, 1118, 
    1119, 1120, 1121, 1122, 1123, 1124, 1125, 1126, 
    1127, 1128, 1129, 1130, 1131, 1132, 1133, 1134, 
    1135, 1136, 1137, 1138, 1139, 1140, 1141, 1142, 
    1143, 1144, 1145, 1146, 1147, 1148, 1149, 1150, 
    1151, 1152, 1153, 1154, 1155, 1156, 1157, 1158, 
    1159, 1160, 1161, 1162, 1163, 1164, 1165, 1166, 
    1167, 1168, 1169, 1170, 1171, 1172, 1173, 1174, 
    1175, 1176, 1177, 1178, 1179, 1180, 1181, 1182, 
    1183, 1184, 1185, 1186, 1187, 1188, 1189, 1190, 
    1191, 1192, 1193, 1194, 1195, 1196, 1197, 1198, 
    1199, 1200, 1201, 1202, 1203, 1204, 1205, 1206, 
    1207, 1208, 1209, 1210, 1211, 1212, 1213, 1214, 
    1215, 1216, 1217, 1218, 1219, 1220, 1221, 1222, 
    1223, 1224, 1225, 1226, 1227, 1228, 1229, 1230, 
    1231, 1232, 1233, 1234, 1235, 1236, 1237, 1238, 
    1239, 1240, 1241, 1242, 1243, 1244, 1245, 1246, 
    1247, 1248, 1249, 1250, 1251, 1252, 1253, 1254, 
    1255, 1256, 1257, 1258, 1259, 1260, 1261, 1262, 
    1263, 1264, 1265, 1266, 1267, 1268, 1269, 1270, 
    1271, 1272, 1273, 1274, 1275, 1276, 1277, 1278, 
    1279, 1280, 1281, 1282, 1283, 1284, 1285, 1286, 
    1287, 1288, 1289, 1290, 1291, 1292, 1293, 1294, 
    1295, 1296, 1297, 1298, 1299, 1300, 1301, 1302, 
    1303, 1304, 1305, 1306, 1307, 1308, 1309, 1310, 
    1311, 1312, 1313, 1314, 1315, 1316, 1317, 1318, 
    1319, 1320, 1321, 1322, 1323, 1324, 1325, 1326, 
    1327, 1328, 1329, 1330, 1331, 1332, 1333, 1334, 
    1335, 1336, 1337, 1338, 1339, 1340, 1341, 1342, 
    1343, 1344, 1345, 1346, 1347, 1348, 1349, 1350, 
    1351, 1352, 1353, 1354, 1355, 1356, 1357, 1358, 
    1359, 1360, 1361, 1362, 1363, 1364, 1365, 1366, 
    1367, 1368, 1369, 1370, 1371, 1372, 1373, 1374, 
    1375, 1376, 1377, 1378, 1379, 1380, 1381, 1382, 
    1383, 1384, 1385, 1386, 1387, 1388, 1389, 1390, 
    1391, 1392, 1393, 1394, 1395, 1396, 1397, 1398, 
    1399, 1400, 1401, 1402, 1403, 1404, 1405, 1406, 
    1407, 1408, 1409, 1410, 1411, 1412, 1413, 1414, 
    1415, 1416, 1417, 1418, 1419, 1420, 1421, 1422, 
    1423, 1424, 1425, 1426, 1427, 1428, 1429, 1430, 
    1431, 1432, 1433, 1434, 1435, 1436, 1437, 1438, 
    1439, 1440, 1441, 1442, 1443, 1444, 1445, 1446, 
    1447, 1448, 1449, 1450, 1451, 1452, 1453, 1454, 
    1455, 1456, 1457, 1458, 1459, 1460, 1461, 1462, 
    1463, 1464, 1465, 1466, 1467, 1468, 1469, 1470, 
    1471, 1472, 1473, 1474, 1475, 1476, 1477, 1478, 
    1479, 1480, 1481, 1482, 1483, 1484, 1485, 1486, 
    1487, 1488, 1489, 1490, 1491, 1492, 1493, 1494, 
    1495, 1496, 1497, 1498, 1499, 1500, 1501, 1502, 
    1503, 1504, 1505, 1506, 1507, 1508, 1509, 1510, 
    1511, 1512, 1513, 1514, 1515, 1516, 1517, 1518, 
    1519, 1520, 1521, 1522, 1523, 1524, 1525, 1526, 
    1527, 1528, 1529, 1530, 1531, 1532, 1533, 1534, 
    1535, 1536, 1537, 1538, 1539, 1540, 1541, 1542, 
    1543, 1544, 1545, 1546, 1547, 1548, 1549, 1550, 
    1551, 1552, 1553, 1554, 1555, 1556, 1557, 1558, 
    1559, 1560, 1561, 1562, 1563, 1564, 1565, 1566, 
    1567, 1568, 1569, 1570, 1571, 1572, 1573, 1574, 
    1575, 1576, 1577, 1578, 1579, 1580, 1581, 1582, 
    1583, 1584, 1585, 1586, 1587, 1588, 1589, 1590, 
    1591, 1592, 1593, 1594, 1595, 1596, 1597, 1598, 
    1599, 1600, 1601, 1602, 1603, 1604, 1605, 1606, 
    1607, 1608, 1609, 1610, 1611, 1612, 1613, 1614, 
    1615, 1616, 1617, 1618, 1619, 1620, 1621, 1622, 
    1623, 1624, 1625, 1626, 1627, 1628, 1629, 1630, 
    1631, 1632, 1633, 1634, 1635, 1636, 1637, 1638, 
    1639, 1640, 1641, 1642, 1643, 1644, 1645, 1646, 
    1647, 1648, 1649, 1650, 1651, 1652, 1653, 1654, 
    1655, 1656, 1657, 1658, 1659, 1660, 1661, 1662, 
    1663, 1664, 1665, 1666, 1667, 1668, 1669, 1670, 
    1671, 1672, 1673, 1674, 1675, 1676, 1677, 1678, 
    1679, 1680, 1681, 1682, 1683, 1684, 1685, 1686, 
    1687, 1688, 1689, 1690, 1691, 1692, 1693, 1694, 
    1695, 1696, 1697, 1698, 1699, 1700, 1701, 1702, 
    1703, 1704, 1705, 1706, 1707, 1708, 1709, 1710, 
    1711, 1712, 1713, 1714, 1715, 1716, 1717, 1718, 
    1719, 1720, 1721, 1722, 1723, 1724, 1725, 1726, 
    1727, 1728, 1729, 1730, 1731, 1732, 1733, 1734, 
    1735, 1736, 1737, 1738, 1739, 1740, 1741, 1742, 
    1743, 1744, 1745, 1746, 1747, 1748, 1749, 1750, 
    1751, 1752, 1753, 1754, 1755, 1756, 1757, 1758, 
    1759, 1760, 1761, 1762, 1763, 1764, 1765, 1766, 
    1767, 1768, 1769, 1770, 1771, 1772, 1773, 1774, 
    1775, 1776, 1777, 1778, 1779, 1780, 1781, 1782, 
    1783, 1784, 1785, 1786, 1787, 1788, 1789, 1790, 
    1791, 1792, 1793, 1794, 1795, 1796, 1797, 1798, 
    1799, 1800, 1801, 1802, 1803, 1804, 1805, 1806, 
    1807, 1808, 1809, 1810, 1811, 1812, 1813, 1814, 
    1815, 1816, 1817, 1818, 1819, 1820, 1821, 1822, 
    1823, 1824, 1825, 1826, 1827, 1828, 1829, 1830, 
    1831, 1832, 1833, 1834, 1835, 1836, 1837, 1838, 
    1839, 1840, 1841, 1842, 1843, 1844, 1845, 1846, 
    1847, 1848, 1849, 1850, 1851, 1852, 1853, 1854, 
    1855, 1856, 1857, 1858, 1859, 1860, 1861, 1862, 
    1863, 1864, 1865, 1866, 1867, 1868, 1869, 1870, 
    1871, 1872, 1873, 1874, 1875, 1876, 1877, 1878, 
    1879, 1880, 1881, 1882, 1883, 1884, 1885, 1886, 
    1887, 1888, 1889, 1890, 1891, 1892, 1893, 1894, 
    1895, 1896, 1897, 1898, 1899, 1900, 1901, 1902, 
    1903, 1904, 1905, 1906, 1907, 1908, 1909, 1910, 
    1911, 1912, 1913, 1914, 1915, 1916, 1917, 1918, 
    1919, 1920, 1921, 1922, 1923, 1924, 1925, 1926, 
    1927, 1928, 1929, 1930, 1931, 1932, 1933, 1934, 
    1935, 1936, 1937, 1938, 1939, 1940, 1941, 1942, 
    1943, 1944, 1945, 1946, 1947, 1948, 1949, 1950, 
    1951, 1952, 1953, 1954, 1955, 1956, 1957, 1958, 
    1959, 1960, 1961, 1962, 1963, 1964, 1965, 1966, 
    1967, 1968, 1969, 1970, 1971, 1972, 1973, 1974, 
    1975, 1976, 1977, 
*ELSET, ELSET=skir_sless______________________________________________________________________
    1978, 1979, 1980, 1981, 1982, 1983, 1984, 1985, 
    1986, 1987, 1988, 1989, 1990, 1991, 1992, 1993, 
    1994, 1995, 1996, 1997, 1998, 1999, 2000, 2001, 
    2002, 2003, 2004, 2005, 2006, 2007, 2008, 2009, 
    2010, 2011, 2012, 2013, 2014, 2015, 2016, 2017, 
    2018, 2019, 2020, 2021, 2022, 2023, 2024, 2025, 
    2026, 2027, 2028, 2029, 2030, 2031, 2032, 2033, 
    2034, 2035, 2036, 2037, 2038, 2039, 2040, 2041, 
    2042, 2043, 2044, 2045, 2046, 2047, 2048, 2049, 
    2050, 2051, 2052, 2053, 2054, 2055, 2056, 2057, 
    2058, 2059, 2060, 2061, 2062, 2063, 2064, 2065, 
    2066, 2067, 2068, 2069, 2070, 2071, 2072, 2073, 
    2074, 2075, 2076, 2077, 2078, 2079, 2080, 2081, 
    2082, 2083, 2084, 2085, 2086, 2087, 2088, 2089, 
    2090, 2091, 2092, 2093, 2094, 2095, 2096, 2097, 
    2098, 2099, 2100, 2101, 2102, 2103, 2104, 2105, 
    2106, 2107, 2108, 2109, 2110, 2111, 2112, 2113, 
    2114, 2115, 2116, 2117, 2118, 2119, 2120, 2121, 
    2122, 2123, 2124, 2125, 2126, 2127, 2128, 2129, 
    2130, 2131, 2132, 2133, 2134, 2135, 2136, 2137, 
    2138, 2139, 2140, 2141, 2142, 2143, 2144, 2145, 
    2146, 2147, 2148, 2149, 2150, 2151, 2152, 2153, 
    2154, 2155, 2156, 2157, 2158, 2159, 2160, 2161, 
    2162, 2163, 2164, 2165, 2166, 2167, 2168, 2169, 
    2170, 2171, 2172, 2173, 2174, 2175, 2176, 2177, 
    2178, 2179, 2180, 2181, 2182, 2183, 2184, 2185, 
    2186, 2187, 2188, 2189, 2190, 2191, 2192, 2193, 
    2194, 2195, 2196, 2197, 2198, 2199, 2200, 2201, 
    2202, 2203, 2204, 2205, 2206, 2207, 2208, 2209, 
    2210, 2211, 2212, 2213, 2214, 2215, 2216, 2217, 
    2218, 2219, 2220, 2221, 2222, 2223, 2224, 2225, 
    2226, 2227, 2228, 2229, 2230, 2231, 2232, 2233, 
    2234, 2235, 2236, 2237, 2238, 2239, 2240, 2241, 
    2242, 2243, 2244, 2245, 2246, 2247, 2248, 2249, 
    2250, 2251, 2252, 2253, 2254, 2255, 2256, 2257, 
    2258, 2259, 2260, 2261, 2262, 2263, 2264, 2265, 
    2266, 2267, 2268, 2269, 2270, 2271, 2272, 2273, 
    2274, 2275, 2276, 2277, 2278, 2279, 2280, 2281, 
    2282, 2283, 2284, 2285, 2286, 2287, 2288, 2289, 
    2290, 2291, 2292, 2293, 2294, 2295, 2296, 2297, 
    2298, 2299, 2300, 2301, 2302, 2303, 2304, 2305, 
    2306, 2307, 2308, 2309, 2310, 2311, 2312, 2313, 
    2314, 2315, 2316, 2317, 2318, 2319, 2320, 2321, 
    2322, 2323, 2324, 2325, 2326, 2327, 2328, 2329, 
    2330, 2331, 2332, 2333, 2334, 2335, 2336, 2337, 
    2338, 2339, 2340, 2341, 2342, 2343, 2344, 2345, 
    2346, 2347, 2348, 2349, 2350, 2351, 2352, 
*ELSET, ELSET=opening2_surf___________________________________________________________________
    1978, 1979, 1980, 1981, 1982, 1983, 1984, 1985, 
    1986, 1987, 1988, 1989, 1990, 1991, 1992, 1993, 
    1994, 1995, 1996, 1997, 1998, 1999, 2000, 2001, 
    2002, 2003, 2004, 2005, 2006, 2007, 2008, 2009, 
    2010, 2011, 2012, 2013, 2014, 2015, 2016, 2017, 
    2018, 2019, 2020, 2021, 2022, 2023, 2024, 2025, 
    2026, 2027, 2028, 2029, 2030, 2031, 2032, 2033, 
    2034, 2035, 2036, 2037, 2038, 2039, 2040, 2041, 
    2042, 2043, 2044, 2045, 2046, 2047, 2048, 2049, 
    2050, 2051, 2052, 2053, 2054, 2055, 2056, 2057, 
    2058, 2059, 2060, 2061, 2062, 2063, 2064, 2065, 
    2066, 2067, 2068, 2069, 2070, 2071, 2072, 2073, 
    2074, 2075, 2076, 2077, 2078, 2079, 2080, 2081, 
    2082, 2083, 2084, 2085, 2086, 2087, 2088, 2089, 
    2090, 2091, 2092, 2093, 2094, 2095, 2096, 2097, 
    2098, 2099, 2100, 2101, 2102, 2103, 2104, 2105, 
    2106, 2107, 2108, 2109, 2110, 2111, 2112, 2113, 
    2114, 2115, 2116, 2117, 2118, 2119, 2120, 2121, 
    2122, 2123, 2124, 2125, 2126, 2127, 2128, 2129, 
    2130, 2131, 2132, 2133, 2134, 2135, 2136, 2137, 
    2138, 2139, 2140, 2141, 2142, 2143, 2144, 2145, 
    2146, 2147, 2148, 2149, 2150, 2151, 2152, 2153, 
    2154, 2155, 2156, 2157, 2158, 2159, 2160, 2161, 
    2162, 2163, 2164, 2165, 2166, 2167, 2168, 2169, 
    2170, 2171, 2172, 2173, 2174, 2175, 2176, 2177, 
    2178, 2179, 2180, 2181, 2182, 2183, 2184, 2185, 
    2186, 2187, 2188, 2189, 2190, 2191, 2192, 2193, 
    2194, 2195, 2196, 2197, 2198, 2199, 2200, 2201, 
    2202, 2203, 2204, 2205, 2206, 2207, 2208, 2209, 
    2210, 2211, 2212, 2213, 2214, 2215, 2216, 2217, 
    2218, 2219, 2220, 2221, 2222, 2223, 2224, 2225, 
    2226, 2227, 2228, 2229, 2230, 2231, 2232, 2233, 
    2234, 2235, 2236, 2237, 2238, 2239, 2240, 2241, 
    2242, 2243, 2244, 2245, 2246, 2247, 2248, 2249, 
    2250, 2251, 2252, 2253, 2254, 2255, 2256, 2257, 
    2258, 2259, 2260, 2261, 2262, 2263, 2264, 2265, 
    2266, 2267, 2268, 2269, 2270, 2271, 2272, 2273, 
    2274, 2275, 2276, 2277, 2278, 2279, 2280, 2281, 
    2282, 2283, 2284, 2285, 2286, 2287, 2288, 2289, 
    2290, 2291, 2292, 2293, 2294, 2295, 2296, 2297, 
    2298, 2299, 2300, 2301, 2302, 2303, 2304, 2305, 
    2306, 2307, 2308, 2309, 2310, 2311, 2312, 2313, 
    2314, 2315, 2316, 2317, 2318, 2319, 2320, 2321, 
    2322, 2323, 2324, 2325, 2326, 2327, 2328, 2329, 
    2330, 2331, 2332, 2333, 2334, 2335, 2336, 2337, 
    2338, 2339, 2340, 2341, 2342, 2343, 2344, 2345, 
    2346, 2347, 2348, 2349, 2350, 2351, 2352, 2353, 
    2354, 2355, 2356, 2357, 2358, 2359, 2360, 2361, 
    2362, 2363, 2364, 2365, 2366, 2367, 2368, 2369, 
    2370, 2371, 2372, 
*ELSET, ELSET=base_plate______________________________________________________________________
    2373, 2374, 2375, 2376, 2377, 2378, 2379, 2380, 
    2381, 2382, 2383, 2384, 2385, 2386, 2387, 2388, 
    2389, 2390, 2391, 2392, 2393, 2394, 2395, 2396, 
    2397, 2398, 2399, 2400, 2401, 2402, 2403, 2404, 
    2405, 2406, 2407, 2408, 2409, 2410, 2411, 2412, 
    2413, 2414, 2415, 2416, 2417, 2418, 2419, 2420, 
    2421, 2422, 2423, 2424, 2425, 2426, 2427, 2428, 
    2429, 2430, 2431, 2432, 2433, 2434, 2435, 2436, 
    2437, 2438, 2439, 2440, 2441, 
