*Heading
 /home/fethi/snkr/girisimler/oscmw/repos/CalculiX-works/skirt_shell/convertFCS.inp
*NODE
1, -1600, -867.5, 4.669518302741e-13
2, -1780, -867.5, 4.669518302741e-13
3, -1612.5, 7367.5, -1.784e-12
4, -1612.5, 9367.5, -2.228e-12
5, -1612.5, -1282.5, 9e-15
6, -1612.5, -867.49999999997, 1.9485615791161e-13
7, -1400, -1282.5, 9e-15
8, -1780, -1282.5, 9e-15
9, -1579.2814905526, -867.5, 256.65869345125
10, -1517.6593020145, -867.5, 506.67001633263
11, -1416.7292921732, -867.5, 743.55837190676
12, -1279.1069590287, -867.5, 961.1886484047
13, -1108.3568066303, -867.5, 1153.9251620966
14, -908.90107134844, -867.5, 1316.775758046
15, -685.90498403181, -867.5, 1445.5224408082
16, -445.14428843292, -867.5, 1536.8302912954
17, -192.8540711205, -867.5, 1588.3347701458
18, 64.430455250496, -867.5, 1598.702165267
19, 320.04666279483, -867.5, 1567.6644482387
20, 567.37394466924, -867.5, 1496.02564582
21, 800.00690549551, -867.5, 1385.6410206649
22, 1011.920594944, -867.5, 1239.3690433271
23, 1197.6263306616, -867.5, 1060.9977369271
24, 1352.3140467025, -867.5, 855.14688089674
25, 1471.9774715986, -867.5, 627.14778865226
26, 1553.5173859204, -867.5, 382.90579240431
27, 1594.8221486773, -867.5, 128.74675903066
28, 1594.8221486773, -867.5, -128.74675903065
29, 1553.5173859204, -867.5, -382.90579240431
30, 1471.9774715986, -867.5, -627.14778865226
31, 1352.3140467025, -867.5, -855.14688089673
32, 1197.6263306616, -867.5, -1060.9977369271
33, 1011.920594944, -867.5, -1239.3690433271
34, 800.00690549551, -867.5, -1385.6410206649
35, 567.37394466924, -867.5, -1496.02564582
36, 320.04666279484, -867.5, -1567.6644482387
37, 64.430455250503, -867.5, -1598.702165267
38, -192.8540711205, -867.5, -1588.3347701458
39, -445.14428843292, -867.5, -1536.8302912954
40, -685.90498403181, -867.5, -1445.5224408082
41, -908.90107134845, -867.5, -1316.775758046
42, -1108.3568066303, -867.5, -1153.9251620966
43, -1279.1069590287, -867.5, -961.1886484047
44, -1416.7292921732, -867.5, -743.55837190676
45, -1517.6593020145, -867.5, -506.67001633262
46, -1579.2814905526, -867.5, -256.65869345125
47, -1756.9506582398, -867.5, 285.5327964645
48, -1688.3959734911, -867.5, 563.67039317001
49, -1576.1113375426, -867.5, 827.2086887462
50, -1423.0064919193, -867.5, 1069.3223713501
51, -1233.046947376, -867.5, 1283.7417428323
52, -1011.152441875, -867.5, 1464.9130308259
53, -763.06929473519, -867.5, 1608.1437153989
54, -495.22302088144, -867.5, 1709.7236990658
55, -214.55015412139, -867.5, 1767.0224317869
56, 71.678881466336, -867.5, 1778.5561588593
57, 356.0519123594, -867.5, 1744.0266986653
58, 631.20351344466, -867.5, 1664.3285309746
59, 890.00768236389, -867.5, 1541.5256354895
60, 1125.7616618754, -867.5, 1378.7980607013
61, 1332.3592928612, -867.5, 1180.3599823313
62, 1504.4493769567, -867.5, 951.35090499755
63, 1637.5749371536, -867.5, 697.7019148756
64, 1728.2880918366, -867.5, 425.98269404977
65, 1774.2396404037, -867.5, 143.2307694216
66, 1774.2396404037, -867.5, -143.23076942159
67, 1728.2880918366, -867.5, -425.98269404977
68, 1637.5749371536, -867.5, -697.7019148756
69, 1504.4493769567, -867.5, -951.35090499755
70, 1332.3592928612, -867.5, -1180.3599823313
71, 1125.7616618754, -867.5, -1378.7980607013
72, 890.00768236389, -867.5, -1541.5256354895
73, 631.20351344466, -867.5, -1664.3285309746
74, 356.05191235939, -867.5, -1744.0266986653
75, 71.678881466331, -867.5, -1778.5561588593
76, -214.55015412139, -867.5, -1767.0224317869
77, -495.22302088144, -867.5, -1709.7236990658
78, -763.06929473519, -867.5, -1608.1437153989
79, -1011.152441875, -867.5, -1464.9130308259
80, -1233.046947376, -867.5, -1283.7417428323
81, -1423.0064919193, -867.5, -1069.3223713501
82, -1576.1113375426, -867.5, -827.2086887462
83, -1688.3959734911, -867.5, -563.67039317001
84, -1756.9506582398, -867.5, -285.5327964645
85, -1591.6196271976, 7367.5, 258.66383949381
86, -1529.5160153115, 7367.5, 510.62837583516
87, -1427.7974897682, 7367.5, 749.36742168717
88, -1289.099982146, 7367.5, 968.6979347202
89, -1117.0158441819, 7367.5, 1162.9402024252
90, -916.00186096818, 7367.5, 1327.0630686554
91, -691.26361671939, 7367.5, 1456.8155848767
92, -448.62197818616, 7367.5, 1548.8367779458
93, -194.36074355101, 7367.5, 1600.7436355372
94, 64.93381818224, 7367.5, 1611.1920259328
95, 322.54702734799, 7367.5, 1579.9118267402
96, 571.80655361201, 7367.5, 1507.7133461777
97, 806.25695944471, 7367.5, 1396.4663411385
98, 1019.826224592, 7367.5, 1249.0516139778
99, 1206.9827863698, 7367.5, 1069.2867817465
100, 1362.8790001923, 7367.5, 861.82771590342
101, 1483.4772955953, 7367.5, 632.04738075079
102, 1565.6542404977, 7367.5, 385.89724390716
103, 1607.2816967136, 7367.5, 129.75259308529
104, 1607.2816967136, 7367.5, -129.75259308585
105, 1565.6542404976, 7367.5, -385.89724390771
106, 1483.4772955952, 7367.5, -632.04738075131
107, 1362.8790001921, 7367.5, -861.82771590392
108, 1206.9827863696, 7367.5, -1069.286781747
109, 1019.8262245917, 7367.5, -1249.0516139782
110, 806.25695944439, 7367.5, -1396.4663411389
111, 571.80655361168, 7367.5, -1507.713346178
112, 322.54702734765, 7367.5, -1579.9118267406
113, 64.933818181893, 7367.5, -1611.1920259331
114, -194.36074355136, 7367.5, -1600.7436355375
115, -448.6219781865, 7367.5, -1548.8367779461
116, -691.26361671972, 7367.5, -1456.815584877
117, -916.00186096849, 7367.5, -1327.0630686556
118, -1117.0158441822, 7367.5, -1162.9402024254
119, -1289.0999821462, 7367.5, -968.69793472029
120, -1427.7974897683, 7367.5, -749.36742168722
121, -1529.5160153115, 7367.5, -510.62837583518
122, -1591.6196271976, 7367.5, -258.66383949382
123, -1612.5, 7589.7222222222, -1.8331033333333e-12
124, -1612.5, 7811.9444444444, -1.8824466666667e-12
125, -1612.5, 8034.1666666667, -1.93179e-12
126, -1612.5, 8256.3888888889, -1.9811333333333e-12
127, -1612.5, 8478.6111111111, -2.0304766666667e-12
128, -1612.5, 8700.8333333333, -2.07982e-12
129, -1612.5, 8923.0555555556, -2.1291633333333e-12
130, -1612.5, 9145.2777777778, -2.1785066666667e-12
131, -1591.6196271976, 9367.5, 258.66383949381
132, -1529.5160153115, 9367.5, 510.62837583516
133, -1427.7974897682, 9367.5, 749.36742168717
134, -1289.099982146, 9367.5, 968.6979347202
135, -1117.0158441819, 9367.5, 1162.9402024252
136, -916.00186096819, 9367.5, 1327.0630686554
137, -691.2636167194, 9367.5, 1456.8155848767
138, -448.62197818616, 9367.5, 1548.8367779458
139, -194.36074355101, 9367.5, 1600.7436355372
140, 64.933818182237, 9367.5, 1611.1920259328
141, 322.54702734799, 9367.5, 1579.9118267402
142, 571.80655361201, 9367.5, 1507.7133461777
143, 806.25695944471, 9367.5, 1396.4663411385
144, 1019.826224592, 9367.5, 1249.0516139778
145, 1206.9827863698, 9367.5, 1069.2867817465
146, 1362.8790001923, 9367.5, 861.82771590342
147, 1483.4772955953, 9367.5, 632.04738075079
148, 1565.6542404977, 9367.5, 385.89724390716
149, 1607.2816967136, 9367.5, 129.75259308529
150, 1607.2816967136, 9367.5, -129.75259308584
151, 1565.6542404976, 9367.5, -385.8972439077
152, 1483.4772955952, 9367.5, -632.04738075131
153, 1362.8790001921, 9367.5, -861.82771590391
154, 1206.9827863696, 9367.5, -1069.286781747
155, 1019.8262245917, 9367.5, -1249.0516139782
156, 806.2569594444, 9367.5, -1396.4663411389
157, 571.80655361168, 9367.5, -1507.713346178
158, 322.54702734766, 9367.5, -1579.9118267406
159, 64.933818181901, 9367.5, -1611.1920259331
160, -194.36074355135, 9367.5, -1600.7436355375
161, -448.62197818649, 9367.5, -1548.8367779461
162, -691.26361671972, 9367.5, -1456.815584877
163, -916.00186096848, 9367.5, -1327.0630686556
164, -1117.0158441822, 9367.5, -1162.9402024254
165, -1289.0999821462, 9367.5, -968.69793472029
166, -1427.7974897683, 9367.5, -749.36742168723
167, -1529.5160153115, 9367.5, -510.62837583519
168, -1591.6196271976, 9367.5, -258.66383949382
169, -1612.5, -1075, -3.4239757225436e-14
170, -1591.619631476, -867.5, -258.66381316159
171, -1529.5160589088, -867.5, -510.62824524903
172, -1427.7975910912, -867.5, -749.36722864086
173, -1289.1000198534, -867.5, -968.69788454219
174, -1117.0159660458, -867.5, -1162.9400853782
175, -916.00197490458, -867.5, -1327.0629900117
176, -691.2638366165, -867.5, -1456.8154805353
177, -448.6220578305, -867.5, -1548.8367548797
178, -194.36111373481, -867.5, -1600.7435905907
179, 64.933665292463, -867.5, -1611.1920320976
180, 322.54676324619, -867.5, -1579.9118806572
181, 571.80632807343, -867.5, -1507.7134317135
182, 806.25686286183, -867.5, -1396.4663969013
183, 1019.8261573498, -867.5, -1249.051668879
184, 1206.9826981865, -867.5, -1069.2868812884
185, 1362.8789830346, -867.5, -861.82774303647
186, 1483.477279455, -867.5, -632.04741863757
187, 1565.6542336733, -867.5, -385.897271595
188, 1607.2816968714, -867.5, -129.75259113752
189, 1607.281695941, -867.5, 129.75260266325
190, 1565.6542304857, -867.5, 385.89728452724
191, 1483.4772722517, -867.5, 632.047435545
192, 1362.8789723581, -867.5, 861.8277599199
193, 1206.9826848588, -867.5, 1069.2868963313
194, 1019.8261450481, -867.5, 1249.0516789228
195, 806.25685111232, -867.5, 1396.4664036847
196, 571.80631371038, -867.5, 1507.7134371606
197, 322.54674640116, -867.5, 1579.9118840961
198, 64.933656123057, -867.5, 1611.1920324673
199, -194.36112192635, -867.5, 1600.7435895961
200, -448.62206498555, -867.5, 1548.8367528072
201, -691.26384480721, -867.5, 1456.8154766489
202, -916.00197907768, -867.5, 1327.062987131
203, -1117.0159681458, -867.5, 1162.9400833615
204, -1289.100023115, -867.5, 968.6978802017
205, -1427.797592737, -867.5, 749.36722550449
206, -1529.5160588544, -867.5, 510.62824541215
207, -1591.6196315213, -867.5, 258.66381288319
208, -1591.6196271976, -1282.5, 258.66383949383
209, -1529.5160153115, -1282.5, 510.62837583521
210, -1427.7974897683, -1282.5, 749.36742168726
211, -1289.0999821461, -1282.5, 968.69793472033
212, -1117.0158441821, -1282.5, 1162.9402024254
213, -916.00186096842, -1282.5, 1327.0630686557
214, -691.26361671964, -1282.5, 1456.815584877
215, -448.6219781864, -1282.5, 1548.8367779461
216, -194.36074355123, -1282.5, 1600.7436355376
217, 64.933818182029, -1282.5, 1611.1920259331
218, 322.54702734779, -1282.5, 1579.9118267405
219, 571.80655361183, -1282.5, 1507.713346178
220, 806.25695944454, -1282.5, 1396.4663411388
221, 1019.8262245919, -1282.5, 1249.0516139781
222, 1206.9827863697, -1282.5, 1069.2867817468
223, 1362.8790001922, -1282.5, 861.82771590373
224, 1483.4772955952, -1282.5, 632.04738075109
225, 1565.6542404976, -1282.5, 385.89724390746
226, 1607.2816967136, -1282.5, 129.75259308558
227, 1607.2816967136, -1282.5, -129.75259308556
228, 1565.6542404976, -1282.5, -385.89724390744
229, 1483.4772955953, -1282.5, -632.04738075108
230, 1362.8790001922, -1282.5, -861.82771590371
231, 1206.9827863697, -1282.5, -1069.2867817468
232, 1019.8262245919, -1282.5, -1249.0516139781
233, 806.25695944456, -1282.5, -1396.4663411388
234, 571.80655361184, -1282.5, -1507.713346178
235, 322.54702734781, -1282.5, -1579.9118267405
236, 64.933818182043, -1282.5, -1611.1920259331
237, -194.36074355123, -1282.5, -1600.7436355376
238, -448.62197818639, -1282.5, -1548.8367779461
239, -691.26361671963, -1282.5, -1456.815584877
240, -916.00186096841, -1282.5, -1327.0630686557
241, -1117.0158441821, -1282.5, -1162.9402024254
242, -1289.0999821461, -1282.5, -968.69793472034
243, -1427.7974897683, -1282.5, -749.36742168726
244, -1529.5160153115, -1282.5, -510.62837583521
245, -1591.6196271976, -1282.5, -258.66383949383
246, -1612.5, -656.34615384613, -1.2099644997777e-13
247, -1612.5, -445.19230769228, -1.6475338550467e-13
248, -1612.5, -234.03846153844, -2.0851032103157e-13
249, -1612.5, -22.884615384594, -2.5226725655847e-13
250, -1612.5, 188.26923076925, -2.9602419208538e-13
251, -1612.5, 399.4230769231, -3.3978112761228e-13
252, -1612.5, 610.57692307694, -3.8353806313918e-13
253, -1612.5, 821.73076923079, -4.2729499866608e-13
254, -1612.5, 1032.8846153846, -4.7105193419298e-13
255, -1612.5, 1244.0384615385, -5.1480886971988e-13
256, -1612.5, 1455.1923076923, -5.5856580524678e-13
257, -1612.5, 1666.3461538462, -6.0232274077368e-13
258, -1612.5, 1877.5, -6.4607967630058e-13
259, -1612.5, 2088.6538461539, -6.8983661182748e-13
260, -1612.5, 2299.8076923077, -7.3359354735438e-13
261, -1612.5, 2510.9615384615, -7.7735048288128e-13
262, -1612.5, 2722.1153846154, -8.2110741840818e-13
263, -1612.5, 2933.2692307692, -8.6486435393508e-13
264, -1612.5, 3144.4230769231, -9.0862128946198e-13
265, -1612.5, 3355.5769230769, -9.5237822498888e-13
266, -1612.5, 3566.7307692308, -9.9613516051578e-13
267, -1612.5, 3777.8846153846, -1.0398920960427e-12
268, -1612.5, 3989.0384615385, -1.0836490315696e-12
269, -1612.5, 4200.1923076923, -1.1274059670965e-12
270, -1612.5, 4411.3461538462, -1.1711629026234e-12
271, -1612.5, 4622.5, -1.2149198381503e-12
272, -1612.5, 4833.6538461538, -1.2586767736772e-12
273, -1612.5, 5044.8076923077, -1.3024337092041e-12
274, -1612.5, 5255.9615384615, -1.346190644731e-12
275, -1612.5, 5467.1153846154, -1.3899475802579e-12
276, -1612.5, 5678.2692307692, -1.4337045157848e-12
277, -1612.5, 5889.4230769231, -1.4774614513117e-12
278, -1612.5, 6100.5769230769, -1.5212183868386e-12
279, -1612.5, 6311.7307692308, -1.5649753223655e-12
280, -1612.5, 6522.8846153846, -1.6087322578924e-12
281, -1612.5, 6734.0384615385, -1.6524891934193e-12
282, -1612.5, 6945.1923076923, -1.6962461289462e-12
283, -1612.5, 7156.3461538462, -1.7400030644731e-12
284, -1381.8713042336, -1282.5, 224.57635676985
285, -1327.9518892627, -1282.5, 443.33626429106
286, -1239.6381306515, -1282.5, 650.61357541844
287, -1119.2185891501, -1282.5, 841.04006735414
288, -969.81220580145, -1282.5, 1009.6845168345
289, -795.28843742983, -1282.5, 1152.1787882902
290, -600.16686102776, -1282.5, 1264.8321357072
291, -389.50125237872, -1282.5, 1344.7265048834
292, -168.74731223034, -1282.5, 1389.7929238776
293, 56.376648344289, -1282.5, 1398.8643946086
294, 280.04082994559, -1282.5, 1371.7063922088
295, 496.45220158571, -1282.5, 1309.0224400925
296, 700.00604230871, -1282.5, 1212.4358930818
297, 885.43052057619, -1282.5, 1084.4479129112
298, 1047.9230393291, -1282.5, 928.37301981123
299, 1183.2747908649, -1282.5, 748.25352078466
300, 1287.980287649, -1282.5, 548.75431507074
301, 1359.3277126805, -1282.5, 335.04256835378
302, 1395.4693800928, -1282.5, 112.65341415182
303, 1395.4693800928, -1282.5, -112.65341415183
304, 1359.3277126805, -1282.5, -335.04256835379
305, 1287.980287649, -1282.5, -548.75431507075
306, 1183.2747908649, -1282.5, -748.25352078467
307, 1047.9230393291, -1282.5, -928.37301981124
308, 885.43052057618, -1282.5, -1084.4479129112
309, 700.0060423087, -1282.5, -1212.4358930818
310, 496.4522015857, -1282.5, -1309.0224400925
311, 280.04082994558, -1282.5, -1371.7063922088
312, 56.376648344286, -1282.5, -1398.8643946086
313, -168.74731223035, -1282.5, -1389.7929238776
314, -389.50125237873, -1282.5, -1344.7265048834
315, -600.16686102776, -1282.5, -1264.8321357072
316, -795.28843742983, -1282.5, -1152.1787882902
317, -969.81220580145, -1282.5, -1009.6845168345
318, -1119.2185891501, -1282.5, -841.04006735414
319, -1239.6381306515, -1282.5, -650.61357541844
320, -1327.9518892627, -1282.5, -443.33626429106
321, -1381.8713042336, -1282.5, -224.57635676985
322, -1756.9506582398, -1282.5, 285.5327964645
323, -1688.3959734911, -1282.5, 563.67039317001
324, -1576.1113375426, -1282.5, 827.20868874619
325, -1423.0064919193, -1282.5, 1069.3223713501
326, -1233.046947376, -1282.5, 1283.7417428323
327, -1011.152441875, -1282.5, 1464.9130308259
328, -763.0692947352, -1282.5, 1608.1437153989
329, -495.22302088144, -1282.5, 1709.7236990658
330, -214.55015412139, -1282.5, 1767.0224317869
331, 71.678881466336, -1282.5, 1778.5561588593
332, 356.0519123594, -1282.5, 1744.0266986653
333, 631.20351344466, -1282.5, 1664.3285309746
334, 890.00768236389, -1282.5, 1541.5256354895
335, 1125.7616618754, -1282.5, 1378.7980607013
336, 1332.3592928612, -1282.5, 1180.3599823313
337, 1504.4493769567, -1282.5, 951.35090499756
338, 1637.5749371536, -1282.5, 697.7019148756
339, 1728.2880918366, -1282.5, 425.98269404977
340, 1774.2396404037, -1282.5, 143.2307694216
341, 1774.2396404037, -1282.5, -143.23076942159
342, 1728.2880918366, -1282.5, -425.98269404977
343, 1637.5749371536, -1282.5, -697.7019148756
344, 1504.4493769567, -1282.5, -951.35090499755
345, 1332.3592928612, -1282.5, -1180.3599823313
346, 1125.7616618754, -1282.5, -1378.7980607013
347, 890.00768236389, -1282.5, -1541.5256354895
348, 631.20351344466, -1282.5, -1664.3285309746
349, 356.05191235939, -1282.5, -1744.0266986653
350, 71.678881466332, -1282.5, -1778.5561588593
351, -214.55015412139, -1282.5, -1767.0224317869
352, -495.22302088144, -1282.5, -1709.7236990658
353, -763.06929473519, -1282.5, -1608.1437153989
354, -1011.152441875, -1282.5, -1464.9130308259
355, -1233.046947376, -1282.5, -1283.7417428323
356, -1423.0064919193, -1282.5, -1069.3223713501
357, -1576.1113375426, -1282.5, -827.2086887462
358, -1688.3959734911, -1282.5, -563.67039317001
359, -1756.9506582398, -1282.5, -285.5327964645
360, -1601.0164859758, 8367.5, -192.10717306414
361, -1601.0164859758, 8367.5, 192.10717306413
362, -95.179044954004, 7578.1320197946, 1609.688486537
363, -30.660885390977, 7590.181199099, -1612.2084041142
364, -825.66075458208, 7581.2701730669, 1385.0778846871
365, -827.58769049092, 9137.9681227856, -1383.9273936878
366, 656.04553027189, 7574.2154856584, 1473.0134278485
367, 725.43895848568, 7585.4847001424, -1440.1057178583
368, 1313.991419915, 7581.4172521885, -934.67182707369
369, 1263.4166053682, 7574.5433835245, 1001.9789878599
370, 1612.0462559922, 9133.524257835, -38.692107935953
371, -1179.1134739604, 7596.0658000083, -1099.9297709539
372, -1178.9187194505, 9139.6928508974, 1100.1385088997
373, -287.89570231889, 9134.8208681932, 1586.5915154005
374, 161.80809412132, 9142.964911622, -1604.361145677
375, 486.18104865028, 9132.9615352693, 1537.4617020345
376, 886.15250288331, 9140.1079216726, -1347.1840164778
377, 1144.7222272528, 9130.8023244994, 1135.6895146934
378, 1409.7265930464, 9136.8925920022, -782.85262972392
379, 1584.0121141403, 7577.7167296375, 301.82058100302
380, -1410.2654475817, 9122.1974475477, -781.86191667127
381, -1360.9558953788, 7630.9852465063, 864.84365758662
382, -776.10871499931, 9131.997312785, 1413.4397640977
383, -775.82764565556, 7594.4182941828, -1413.5940612026
384, 1598.0336132293, 7579.7729823576, -215.58921047352
385, 1541.3333376112, 9131.7816855639, 473.79443302128
386, -351.40791006253, 9143.6746568132, -1573.7437076134
387, -1463.8057893242, 7587.8859601214, -676.33645427997
388, -1453.8002406276, 9168.1580067012, 697.5836191659
389, -1601.0164859758, 8811.9444444444, -192.10717306413
390, -1601.0164859758, 7923.0555555556, 192.10717306413
391, -1586.5037606732, 7912.1424501229, -288.38552213256
392, -1601.0164859758, 8811.9444444444, 192.10717306413
393, -1571.9842588606, 9088.0951072696, -359.20251270425
394, -1565.6449641823, 7592.1773038554, 385.89750962151
395, -1511.474426911, 9121.8412360504, -561.787413727
396, -1402.7998112958, 8900.4361197318, -795.17870553464
397, -1307.5988172107, 8889.2136946469, -943.57828708527
398, -1393.6513615883, 8693.6898981188, -811.10549710613
399, -1249.6539939461, 8701.1071895775, -1019.0775592099
400, -1277.1584547565, 8513.9407971762, -984.38845504927
401, -1089.3706101305, 8571.5246072083, -1188.8760008588
402, -1164.2045480752, 8350.5557691491, -1115.6979379131
403, -1335.0786316154, 8283.3528898726, -904.27876334792
404, -924.48272258858, 8294.1220157686, -1321.1689625474
405, -911.40017311495, 8510.8107732526, -1330.2276335837
406, -694.6579602681, 8271.2848224428, -1455.2001046726
407, -697.60408853215, 8489.9981012537, -1453.7900650967
408, -452.29459046574, 8261.3651890174, -1547.768282273
409, -460.56464979231, 8481.6053626691, -1545.3275617825
410, -198.25306861605, 8256.4516629844, -1600.2662331344
411, -208.88182534203, 8477.3716570172, -1598.9136028247
412, 60.999985887439, 8253.0994465213, -1611.3457534094
413, 49.109374512972, 8474.4608025997, -1611.7519590903
414, 318.8701910576, 8249.8190842176, -1580.6580029813
415, 307.07869595203, 8471.6430007319, -1582.99098491
416, 569.21336930987, 8246.169678373, -1508.6942537039
417, 557.56197999202, 8468.5157509907, -1513.0388600393
418, 804.10559753729, 8242.3659525551, -1397.7062099107
419, 792.34252805526, 8465.2308673047, -1404.4078553575
420, 1018.1149302463, 8238.8932557975, -1250.4468776667
421, 1006.5463193068, 8462.0360694279, -1259.7775686347
422, 1206.0502845213, 8235.9049108043, -1070.3384277155
423, 1195.2859395993, 8459.0756113354, -1082.3459790117
424, 1362.1460429952, 8233.2542622285, -862.98570090876
425, 1353.2102248396, 8456.3656944173, -876.93102358881
426, 1483.0261101492, 8230.9342582789, -633.10530478509
427, 1476.5619675845, 8453.7740051257, -648.03812668666
428, 1565.5844791888, 8228.7735933918, -386.18016715307
429, 1561.5899378784, 8451.2148502012, -402.02824530918
430, 1607.2660239424, 8226.3186403421, -129.94658981447
431, 1605.8427070979, 8448.6093962428, -146.49020687174
432, 1607.3173451277, 8223.4776393794, 129.31024798382
433, 1608.5952439199, 8445.9206399474, 112.3010941597
434, 1565.7571715441, 8220.5826722538, 385.47939553392
435, 1569.8851443113, 8443.2706672396, 368.30769292732
436, 1483.6263053885, 8217.9941547584, 631.69752775305
437, 1490.2552678306, 8440.7191998165, 615.8961997368
438, 1363.14045633, 8215.7542713767, 861.41411877471
439, 1371.8351979399, 8438.4223268043, 847.49902426798
440, 1208.1014871234, 8213.6680713129, 1068.0227059709
441, 1219.1123122698, 8436.6663522109, 1055.436980997
442, 1022.4792801967, 8212.1828899499, 1246.8807776886
443, 1035.54414676, 8435.5510298758, 1236.0519054839
444, 810.57545293765, 8212.0705494699, 1393.9641649877
445, 824.54205853157, 8435.3906302609, 1385.7487076406
446, 578.50238219787, 8213.3942910278, 1505.1569399502
447, 592.18336387963, 8436.5708558831, 1499.8271893331
448, 331.4368818708, 8215.5408945321, 1578.0708688569
449, 343.97616837749, 8438.559444386, 1575.3852316988
450, 74.822532955631, 8217.4228987491, 1610.7630988483
451, 86.768742561476, 8440.2695823095, 1610.1637785848
452, -183.13676034331, 8218.1672471395, 1602.0665348576
453, -171.83344879026, 8440.8992412631, 1603.3182752866
454, -435.27644950159, 8217.6672897419, 1552.6401468057
455, -425.53524964807, 8439.8530796108, 1555.3381433701
456, -675.01484066217, 8216.0923146737, 1464.4152565272
457, -666.89575127884, 8436.3055076767, 1468.1304963504
458, -891.14234217958, 8213.3078035072, 1343.8829229021
459, -887.74000579264, 8427.9107770171, 1346.132865482
460, -1067.8577802466, 8208.6387942684, 1208.236059769
461, -1080.358973205, 8405.8500627588, 1197.071016701
462, -1176.8829615239, 8203.2065110894, 1102.3160092835
463, -1228.3797439296, 8333.1288762934, 1044.6230443874
464, -1327.6480144495, 8184.2166785486, 915.15335837435
465, -1414.4150465001, 8305.8790661789, 774.32995767996
466, -1325.9280088669, 8592.2185685717, 917.64361792952
467, -422.8590721743, 8039.2514473748, -1556.0678607304
468, -1454.2304924165, 8157.5208451101, 696.68625281833
469, 109.53079995867, 8669.0335728283, 1608.7757129402
470, 351.66703656421, 8028.6383041647, -1573.6863184083
471, 846.0969928289, 8664.0120954398, 1372.6942984183
472, 1045.3980213738, 8018.0233527353, -1227.7293278158
473, 1384.7950911914, 8665.6272527529, 826.15330282098
474, 1497.1545716962, 8011.4828825304, -598.93003995156
475, -876.92317343, 8656.2136988898, 1353.2042844085
476, -1483.4278090061, 8575.6620054961, 632.14002630199
477, 1468.5857344359, 8000.1019183496, 665.91625209802
478, 1555.1142770843, 8676.8510080526, -426.39109145236
479, -405.57887331007, 8668.9051385545, 1560.6609862198
480, 994.31732991567, 7995.259991907, 1269.4517129485
481, 1177.9785543473, 8684.3631970653, -1101.1572385847
482, 298.82957248301, 7999.4544336124, 1584.5688933426
483, 536.42823931989, 8692.2366644613, -1520.659805684
484, -463.4210724181, 8003.2603442974, 1544.4733682911
485, -1090.1432295383, 8023.8539241417, 1188.1675832312
486, -1490.1779262124, 8673.7160251165, -616.05930195808
487, 1610.2268785126, 8672.0752058539, 85.788122943672
488, -229.81955955012, 8698.5415240024, -1596.0386456132
489, -711.77907906923, 8702.3421833387, -1446.9027318258
490, -1286.4188474685, 8057.3417472178, -972.25561283867
491, -1421.0156133355, 8034.1844337921, -762.14934656365
492, -1453.1986828091, 8247.550347319, -698.83589871264
493, -901.29320712159, 8059.5561793976, -1337.0962807245
494, -1115.3709534566, 8835.7173815319, -1164.5179068964
495, 1603.8652618246, 8005.1886066654, 166.75248745945
496, -1422.1653493348, 7977.5362864957, 760.00181130641
497, -1519.384961759, 7962.6150773682, 540.02743292182
498, -1403.546091424, 8786.9586524311, 793.86073946232
499, -1480.2402150303, 8780.6022963542, 639.56850343767
500, -1556.8604246235, 8582.2950796955, 419.93650812446
501, -1522.4365934715, 7996.4543447083, -531.3635293203
502, -1381.718643734, 7814.2484388491, -831.2698376484
503, -1511.1019453242, 8159.6874770874, 562.78853947317
504, -1237.1253425276, 8902.8436148167, 1034.2509427883
505, -1496.8608372376, 8360.7464980463, 599.63921039661
506, -1370.9546195045, 8490.9116873748, -848.90467162185
507, -1475.2486240227, 8459.0066770278, -650.99945157533
508, -1499.0166400289, 8889.8984973315, -594.22953152337
509, -1469.7877328602, 7688.5355019993, 663.23647145916
510, -1559.7184317658, 8636.1834891941, -409.19368845315
511, -1331.3290879918, 9153.6250205343, 909.78999495375
512, -1545.1895459857, 9184.7601312947, 461.03165882324
513, -1551.5148901186, 7571.1726421989, -439.27503494211
514, -1542.2299563722, 8200.876316284, -470.83716147716
515, -990.3202799528, 9132.3660588972, 1272.5647136223
516, -839.30506398919, 8893.4880893484, 1376.8526980843
517, -605.41380479665, 8898.5477900547, 1494.5338105685
518, -534.35665113007, 9133.2744053865, 1521.3875735732
519, -357.09159369747, 8901.1260224577, 1572.4637954183
520, -100.3797595314, 8901.7659570829, 1609.3725440343
521, -643.2869129814, 8664.9884946364, 1478.6274344728
522, -1213.6961008803, 7600.4484092129, 1061.6477045231
523, -1293.5068457278, 7873.9247346132, 962.80555446423
524, -989.8444442703, 7595.910617032, -1272.9348715505
525, -1055.5251847964, 7827.1401312779, -1219.02472778
526, -1052.5433336022, 8887.6834720066, 1221.6002845813
527, -1034.3994479753, 7586.684509497, 1237.0014721983
528, -962.9381667993, 7801.1319282252, 1293.4084870159
529, -752.70845057868, 7793.7513244643, 1426.0388502619
530, -597.13607725594, 7579.7875797907, 1497.8603727315
531, -24.53848032747, 9134.646265767, 1612.3132113655
532, 161.47850418537, 8900.811567917, 1604.3943517302
533, 369.86306502239, 8667.2879403429, 1569.5094439211
534, -143.53203896388, 8669.9896727608, 1606.0992228695
535, 617.66608841535, 8665.654128451, 1489.5139953357
536, 662.5378561728, 8897.6890103158, 1470.1047761521
537, 890.40996980633, 8896.6880933113, 1344.3739270105
538, 730.16379719994, 9132.200676897, 1437.7159396789
539, 236.98762872584, 9134.0077555835, 1594.9902656939
540, -538.77274462929, 7592.8080206237, -1519.829303822
541, -613.82228197539, 7819.4819913671, -1491.100058821
542, -286.48835736197, 7591.49429125, -1586.8462397731
543, -110.03855576507, 7812.8773148039, -1608.7410023807
544, 151.66176670462, 7810.4184411293, -1605.3520476231
545, 232.51121514934, 7588.862990281, -1595.6489528015
546, -351.19220559748, 7578.9850319393, 1573.7918574447
547, -270.04315216749, 7790.3231622219, 1589.7274012825
548, -15.834332918228, 7789.0040515196, 1612.4221855769
549, 159.32812361896, 7576.7237664763, 1604.6093231328
550, 544.39933292542, 7997.3955286198, 1517.8244416221
551, 487.97571540089, 7785.1102171586, 1536.8930452362
552, 776.56025280309, 7996.3288422132, 1413.1956018341
553, 946.2329982544, 7782.86325879, 1305.6860691913
554, 1142.401948478, 7783.4807272068, 1138.0234456748
555, 1181.8306330986, 7997.1407909527, 1097.0219769092
556, 1555.6776695213, 8002.7816748744, 424.33097007209
557, 1539.1189617832, 7788.0616531074, 480.93909926194
558, 1442.1379081232, 7786.4319078945, 721.40575046293
559, 1341.0077493271, 7999.0003623618, 895.47966389453
560, 1236.3894106025, 8664.7143764577, 1035.1443444708
561, 1267.7668727487, 8896.3002416577, 996.46911501936
562, 1411.5955020405, 8897.2233195174, 779.47770186129
563, 1313.7210055343, 9131.2568953152, 935.05186380661
564, 1500.9119403287, 8667.9516137886, 589.45094033061
565, 1519.0463940635, 8898.6401621177, 541.00590152045
566, 1576.5829494963, 8670.3782589038, 338.49104103055
567, 1095.2703046576, 8896.5230672343, 1183.4529837205
568, 1609.931530145, 8008.0111750455, -91.162871698405
569, 1612.2069412969, 7792.3293344493, -31.288813156154
570, 1382.2130204476, 8013.3906838187, -830.46603055774
571, 1411.9481510407, 7795.91153238, -778.83873540396
572, 1519.1592911527, 7794.9866134612, -540.68880373553
573, 1574.9552372325, 8010.3182451025, -345.98550320658
574, 1603.0283188049, 8674.7298258167, -174.6149326373
575, 1596.8438296637, 8903.4875950187, -224.23182881449
576, 1540.0872185781, 8905.5183291186, -477.82943255268
577, 1584.4572527118, 9134.9065289539, -299.47497150699
578, 1612.2126163653, 8901.9653419862, 30.995016574941
579, 1597.8725848678, 9133.0177322457, 216.7794691223
580, 1465.1161684996, 8679.6219709744, -673.51545117772
581, 1442.8583593494, 8907.5629228566, -719.96372986958
582, 1336.9592177736, 8682.2011312511, -901.51292512303
583, 834.9691386429, 8021.3531380958, -1379.4911916471
584, 884.54023765291, 7801.7287801742, -1348.2431341091
585, 1091.8619238323, 7799.4366104173, -1186.5982596691
586, 1232.6290767234, 8015.9183126756, -1039.6191761751
587, 770.75700737321, 8689.6612643444, -1416.3689842575
588, 726.62527944381, 8915.1275223641, -1439.5075191395
589, 486.19093469174, 8917.0131497122, -1537.4585758651
590, 282.78293477965, 8694.6876169699, -1587.5110489728
591, 984.49431136481, 8687.1297123731, -1277.0846586221
592, 1141.9171803724, 8911.3127561867, -1138.5098646728
593, 486.26230035335, 7587.3587024807, -1537.4360065002
594, 656.7191613019, 7804.8564215112, -1472.7132296821
595, -97.744862685681, 9143.4734227306, -1609.5347214837
596, -22.710144981871, 8919.7589017497, -1612.3400007942
597, -599.43866345991, 9142.6438267762, -1496.9403723869
598, -526.97279412599, 8920.1234683612, -1523.9609073782
599, -1037.7787926208, 9119.330632014, -1234.1677406507
600, -959.39359310266, 8896.878545652, -1296.0398872353
601, 1088.0739655805, 9139.1399282018, -1190.072606515
602, 1263.806157194, 9138.1537775992, -1001.4876032883
603, 1306.6863499061, 8909.6646756253, -944.85737226314
604, 1059.5539262372, 8664.8751938403, 1215.5337430357
605, 942.98191526333, 8913.3436275903, -1308.035931481
606, -1243.4571605412, 9061.0464752673, -1026.6296504165
607, -1085.035271737, 8636.7307631192, 1192.834002904
608, 655.62151623126, 9141.2591053846, -1473.2021969142
609, -1601.0252153215, 8589.8489368562, -192.03440555634
610, -1604.4050789733, 8139.2143984961, 161.37761765216
611, -1042.3749995665, 8703.2257210054, -1230.2882426776
612, -1595.147149259, 8589.8230158026, 235.93486308226
613, -1601.0164859758, 8145.2777777778, -192.10717306422
614, 411.41176591911, 9142.1877805179, -1559.1342338011
615, 1586.8918203725, 8900.6451320011, 286.29427643294
616, -1337.3170336714, 7592.0775404984, -900.96516144045
617, 22.951331067823, 8696.7885295713, -1612.3365962661
618, -282.41642013412, 8920.5528359932, -1587.5759887378
619, -483.9322988208, 8700.5995582852, -1538.1699010662
620, -912.54353770195, 8703.236618307, -1329.4435361366
621, -1601.0164859756, 9034.1666666667, -192.10717306535
622, -1601.1563831686, 7704.8013543455, 190.93760784574
623, -760.18096143421, 8915.2888814373, -1422.0695082604
624, -1601.0164859756, 7700.8333333333, -192.10717306535
625, -1601.0976885405, 9031.2421394561, 191.42918788597
626, 422.02337353453, 8899.607112681, 1556.2954867426
627, 1447.4504603476, 9131.8347019842, 710.68648125098
628, 1515.407386559, 9136.141790834, -551.11680604931
629, 952.64335439372, 9131.7216009323, 1301.0164681279
630, -1109.5318989871, 8067.4921094445, -1170.0826109028
631, 230.42770207691, 8918.6035226792, -1595.9511591534
632, -843.51450232136, 7824.7814557677, -1374.2778466632
633, -1572.4273616297, 7814.5141000027, 357.25780413282
634, -663.65401874156, 8047.3376321865, -1469.5987370047
635, -1552.963657497, 8994.2632839753, 434.12544683251
636, -362.13984471758, 7815.8038259695, -1571.3088628985
637, -162.47359749423, 8035.1390451521, -1604.2937801803
638, 98.910460445047, 8031.8399091942, -1609.4635662527
639, 413.19953024078, 7807.7807319518, -1558.6614053781
640, 606.18521242823, 8025.2044772625, -1494.2230595665
641, 950.84712071483, 7584.1576549212, -1302.3297986217
642, 1148.477633535, 7582.9352283578, -1131.8917352632
643, 1270.5731390597, 7797.9291648982, -992.8884744088
644, 1448.3220106759, 7581.177173138, -708.90865457517
645, 1543.4139503761, 7580.7006196107, -466.97218847617
646, 1586.7936005285, 7794.1949502063, -286.83816149431
647, 1611.8525554613, 7579.2626051208, 46.060278514164
648, 1595.984740063, 7790.6545278668, 230.26687453888
649, 1514.3499267787, 7577.0146188777, 554.01585282339
650, 1406.1020096637, 7576.1106904255, 789.34426150975
651, -1562.0564411249, 8367.7684502304, 400.17587945371
652, 1307.0372380144, 7785.5334374114, 944.37192847689
653, 1085.2543702565, 7574.6026942941, 1192.6443813796
654, 880.68636792493, 7574.5075944895, 1350.7636277834
655, 723.16596466718, 7784.3141898514, 1441.2484466559
656, -1571.0311348421, 7957.4888991727, 363.34851946557
657, 410.52283683938, 7575.8196427628, 1559.3685217353
658, -1233.5668094254, 7823.8581198886, -1038.4926774489
659, -1226.4448506918, 8074.9210023083, 1046.8940365338
660, 39.935162121999, 8001.8391574183, 1612.0053576556
661, -217.86854455617, 8003.1436927719, 1597.7138823198
662, -522.22366440973, 7791.5249800145, 1525.5948388939
663, -1145.3534086933, 7823.7971077302, 1135.0417391981
664, -703.56747551894, 8004.663737948, 1450.913438777
665, -915.83701671163, 8009.7415959165, 1327.1768373404
666, -1553.558990735, 8416.5541066168, -431.99015349548
667, 235.63606332536, 7787.5252313438, 1595.1904958053
668, -1495.8878069132, 7795.8294460769, -602.0624419874
669, -1564.1788230489, 8857.1070590317, -391.79798509323
670, -1577.3339409803, 7811.3937860518, -334.93052239161
671, -1472.7964159406, 8973.7366508564, 656.52830823361
672, -1602.3204392397, 9196.6305242903, -180.9087134911
673, -1602.3354728165, 7538.7934465954, 180.77550374027
674, -1602.3023064516, 7538.3042704929, -181.06925272457
675, -1603.8235927532, 9212.7896696568, 167.0580186486
676, -1554.8444346735, 8792.3925090485, 427.34040824446
677, -1370.011067023, 8942.8006855643, 850.42657887629
678, -1567.6690811049, 8156.0312584043, 377.59061753217
679, -1539.2227518786, 7760.3545408717, 480.57687322334
680, -206.0323102594, -1075.006544381, -1599.2832786005
681, -206.03231412828, -1075.0065446542, 1599.2832781021
682, 311.87067539055, -1075.0059797401, -1582.0538931279
683, -457.66067210828, -1075.0054339201, -1546.1900830598
684, -1124.8678324031, -1075.014055755, -1155.3469739496
685, -1124.8678338018, -1075.0140558955, 1155.3469725877
686, 311.87042950199, -1075.0059801122, 1582.0539415991
687, -457.66067566381, -1075.0054341247, 1546.1900820073
688, 58.033103766346, -1075.0040267587, -1611.4553320037
689, -1293.8255104788, -1075.0983716079, -962.37728947278
690, -1293.8255116216, -1075.098371705, 962.37728793629
691, 58.033067814602, -1075.0040269609, 1611.4553332984
692, 1355.6919344599, -1075.0069599659, -873.08955772419
693, 1479.6783592641, -1075.0050131695, -640.89052542596
694, 1348.4841316555, -1075.0068244271, 884.18117837809
695, 1608.400078944, -1075.0068837963, 115.06250305612
696, 1437.0588194766, -1075.0047193896, 731.47101654064
697, 1199.9995405939, -1075.005565677, -1077.1177042404
698, -698.45903650417, -1075.004768974, -1453.3795063479
699, -698.4590396255, -1075.0047691293, 1453.3795048479
700, 1606.4507592759, -1075.005003195, -139.66438990232
701, 1198.7170393026, -1075.0055434197, 1078.5447904451
702, 1012.330830866, -1075.0051970822, -1255.1340561947
703, 1571.2674919834, -1075.0049883805, 362.3650149949
704, 798.80631387601, -1075.0047125678, -1400.7415084951
705, 1012.1179630162, -1075.0051939143, 1255.30571253
706, 798.7729064786, -1075.0047123671, 1400.7605589734
707, 1564.028533555, -1075.0034884346, -392.4342164722
708, 1522.9928690952, -1075.0034383313, 529.79440175761
709, -1534.2629244666, -1078.9099699227, -496.18341144679
710, -1534.2629246167, -1078.9099699683, 496.18341098282
711, -1430.5059545677, -1075.6575919969, 744.18411833718
712, -1430.5059539213, -1075.6575919443, -744.18411957966
713, -920.76600424095, -1075.0046918755, -1323.7619597979
714, -920.7660064363, -1075.0046919728, 1323.7619582709
715, 565.8165886354, -1075.0036571864, -1509.9714313095
716, 565.81157231586, -1075.0036573604, 1509.9733109787
717, -1600.6862849619, -1097.8384420865, -194.83947228834
718, -1600.6862849646, -1097.8384421142, 194.83947226626
719, -1606.0426763633, 3243.3800641464, 144.17001861387
720, -1602.1319605429, 3461.1538461538, -182.57043522394
721, 1359.9672178516, 7149.9965750302, -866.41518522602
722, 1434.1913200838, 7117.3852755657, 737.07740193109
723, 1611.7352199486, -561.42974276111, -49.99790046729
724, -1602.131960543, 2405.3846153846, -182.57043522261
725, -1602.6875647202, 2177.0763799982, 177.62675096245
726, -1600.2442776678, 4490.1364839683, -198.43718914404
727, -1597.9145011323, 4526.431909069, 216.39921624262
728, 1139.4250074929, -649.63810958441, 1141.0040003209
729, -1600.3638982077, 1332.4416837676, -197.47010549624
730, -1599.1561191227, 1375.2159090347, 207.02396461612
731, 1125.6678280598, -650.94986277748, -1154.578261204
732, -1598.763128644, 5335.8157065837, 210.03743757773
733, -1602.1319605406, 5361.5384615385, -182.57043524325
734, 238.15664605918, -650.79114371495, 1594.8161354336
735, 476.67111531617, 7135.2746286776, 1540.4366157218
736, 345.05050981439, 7151.8858187044, -1575.1502760881
737, 218.17829544806, -638.88452738549, -1597.6717937127
738, -544.12652662314, 7154.7142833279, 1517.9207850997
739, -571.29388574324, 7164.8349557393, -1507.9059959577
740, -747.95564839287, -647.25740864641, 1428.5374278235
741, -786.84413166955, -659.61558130755, -1407.4917270826
742, -1601.0529189264, 3859.1367157352, 191.80328383975
743, -1604.5128963774, 709.52022383686, 160.30202207501
744, -1602.1319605431, 716.15384615386, -182.57043522159
745, -1600.0787076542, 6026.8896280052, 199.76791251594
746, -1601.2736152339, 6026.6683668716, -189.95190177727
747, 1606.5676886577, 7138.9843245752, -138.31285603377
748, -1603.7709467049, 82.149852735495, 167.56269904022
749, -1600.786022114, 112.80373692289, -194.01829728393
750, -1187.5024761831, 7147.0848350109, 1090.8675185354
751, -1129.146828556, 7131.5090958756, -1151.165361526
752, -1602.3347840518, 6610.8821375651, 180.78160893004
753, -1602.1319605431, 6628.4615384615, -182.57043522162
754, -1333.2008957012, -649.04253044455, 907.04485905164
755, -1304.7476780606, -627.71133514199, -947.51681444674
756, -1599.9065491587, 4932.7530305913, 201.1421077561
757, -1602.1319605431, 3038.8461538462, -182.57043522174
758, -1601.784901358, 3858.7478519422, -185.59085981001
759, -1601.1295292592, 2813.9317072497, 191.16267419007
760, -1598.1917847267, 1993.6219701965, -214.34168651802
761, -1600.5328648206, 1775.9698466064, 196.09582775731
762, -1602.1319605431, 4939.2307692308, -182.57043522174
763, -35.551274218903, 7137.7129297349, 1612.1079788357
764, -127.34601858947, 7142.5752224724, -1607.4635668134
765, -315.88294841727, -630.26435881845, -1581.2572927907
766, -268.64956010394, -651.65218559253, 1589.9634976313
767, 712.15761982861, -650.24414574243, -1446.7195015132
768, 938.12609271793, 7141.236041945, 1311.522841622
769, 811.38323213063, 7151.36614129, -1393.4941454705
770, 727.52763367123, -648.94857707749, 1439.051688433
771, 1430.6901880926, -651.04360306689, 743.85035533629
772, 1429.3137299403, -645.40017672939, -746.49179343694
773, -1601.5035222441, -335.79275278332, 188.00358811308
774, -1602.1319605431, -339.61538461536, -182.57043522156
775, -1462.1298920614, 7161.4516815863, 679.9518431426
776, -1464.4428866504, 7164.1494342043, -674.95588158423
777, -1596.9447197008, 7024.7866166088, 223.44362102323
778, -1601.4524234357, 7040.5132205748, -188.43838298583
779, -1548.8649041058, -680.62854972768, 448.52924921233
780, -1551.7699439761, -672.15379027591, -438.37319063611
781, -1458.0858492664, -660.37776722477, 688.58103907109
782, -1363.9727846471, -425.98283051411, 860.07779028076
783, -1203.7125874597, -415.42556142609, 1072.9539010966
784, -1391.0752805093, -198.84320360243, 815.51563082692
785, -1228.6392629138, -146.18749778546, 1044.3177976266
786, -1320.5610300798, 69.654468233793, 925.35041128312
787, -1159.27584238, 5.7777150108323, 1120.8182965286
788, -1215.4272066918, 144.99365422734, 1059.6654099806
789, -1079.9386342676, 190.46391656571, 1197.4502407246
790, -1135.5321450642, 404.7961635935, 1144.8672274642
791, -950.76793671132, 414.7810449809, 1302.3808411057
792, -990.35642226516, 633.97506759407, 1272.5365864412
793, -781.98841840215, 643.66619254726, 1410.195301369
794, -1033.4025482294, 856.38618229414, 1237.8344158754
795, -805.92710586304, 912.19623051215, 1396.6524424627
796, -940.53871238519, 1135.4455030616, 1309.7872103985
797, -556.71285506617, 644.88281336418, 1513.3499232618
798, -551.1797572217, 865.81945643332, 1515.3739030482
799, -335.13388699969, 643.76776379494, 1577.289448025
800, -323.84982284153, 849.91951009959, 1579.6448908223
801, -173.0183656783, 652.47648011558, 1603.1908414515
802, -1100.5971706427, 1073.575850814, 1178.49067484
803, -1177.5801165115, 1279.1724988222, 1101.5712221071
804, -1034.3785494346, 1340.6759396875, 1237.0189476408
805, -872.67619800449, 1403.8523884732, 1355.9470384145
806, -954.15379145968, 1608.6594790198, 1299.9023193954
807, -776.71767884731, 1658.7983499368, 1413.1052149642
808, -811.8879511737, 1839.8925145605, 1393.1957742587
809, -683.13489410872, 1847.6816846142, 1460.6449858571
810, -776.18964671386, 2025.3722838757, 1413.3953219684
811, -602.4828643819, 1968.0182183789, 1495.7177494587
812, -114.56521646853, 801.85944475333, 1608.4249796605
813, -690.22925428458, 2230.825739085, 1457.3059443983
814, -427.01784142147, 2178.3653806452, 1554.9317527643
815, -592.61090866114, 2449.8543846469, 1499.6564619794
816, -353.813092676, 2446.2798574653, 1573.2047163231
817, -495.31715755314, 2664.8788734271, 1534.5416404999
818, -262.88504241681, 2664.8510371714, 1590.9267569421
819, -401.74323000628, 2873.0901770335, 1561.6527472435
820, -169.26607632958, 2875.3217793913, 1603.5913491244
821, -30.102763913959, 2667.644591189, 1612.218921794
822, 66.396711188402, 2872.8075552452, 1611.1324047716
823, 190.61947622525, 2656.9396579284, 1601.1935991251
824, 288.08092466289, 2847.7388465633, 1586.5582105293
825, 379.03987769155, 2605.7228725168, 1567.3185645984
826, 480.07710865281, 2780.9879974777, 1539.3785604317
827, 639.35958421951, 2664.860254288, 1480.3321233847
828, 742.06114223418, 2856.4817014622, 1431.6116417544
829, 875.3484514646, 2696.7441092129, 1354.2288485195
830, 970.75379693821, 2895.4737644482, 1287.5600491676
831, 1082.4876857281, 2713.4365162497, 1195.1560508238
832, 1171.4144820143, 2907.0449238767, 1108.1374630209
833, 1266.2130069281, 2718.8307840192, 998.44284541462
834, 1346.1676083789, 2898.4649978766, 887.70407166366
835, 1438.1440198052, 2717.5105778295, 729.33510774338
836, 1464.2349932703, 2904.7713302791, 675.42898830774
837, 1530.5329758303, 2716.380792663, 507.60052971338
838, 1523.9123117459, 2921.0235508932, 527.14387607666
839, 1587.7542770837, 2720.6074543921, 281.47188869974
840, 153.42643584121, 3085.9256428014, 1605.1843590964
841, 1066.595663429, 3094.4557120661, 1209.3596368462
842, 1528.455025114, 2512.3318161413, 513.82360487474
843, 1587.3578183982, 2496.4264216948, 283.69917524782
844, 1582.6355510304, 2234.2932271079, 308.95750989366
845, 1612.3286381027, 2281.0908713825, 24.219304107057
846, 1599.9660382623, 2076.9120337827, 200.74567144616
847, 1612.1908233652, 2081.0429891211, 32.108571742759
848, 1610.2726182347, 1892.4180468704, 84.925246546017
849, 1606.2415618763, 1871.0983820715, -142.05008839049
850, 992.20687123797, 2518.8497784772, 1271.1019069532
851, 1611.7456573119, 1655.9364224926, -49.660300615554
852, 1585.404387449, 1629.0509493405, -294.41973369106
853, 1566.2627973958, 1861.943191107, -383.41979462702
854, 1612.197294564, 2730.3049129203, 31.781987850635
855, 1522.1096343273, 1602.9250520804, -532.32662569999
856, 1488.4533816614, 1840.0153559587, -620.23817426286
857, 1431.945860461, 1562.0408980772, -741.43026957647
858, 1380.8604203291, 1786.6104774137, -832.71311293324
859, 1248.6470537474, 1710.0863561829, -1020.325193097
860, 1169.1854691182, 1940.2846038791, -1110.4889877491
861, 1059.4076678894, 1604.7720071304, -1215.6612156962
862, 989.76698146792, 1889.7820881552, -1273.0026605128
863, 809.54305425462, 1652.3612179206, -1394.5639712761
864, 777.25780262, 1876.2285424383, -1412.8120767458
865, 584.89182897522, 1670.7949887278, -1502.6856338984
866, 549.73984373245, 1878.3044080689, -1515.8983765314
867, 367.95427492121, 1678.819792628, -1569.9580269286
868, 710.40067661788, 2093.5030491066, -1447.5830275831
869, 485.95416113393, 2087.9816931251, -1537.5334293195
870, 647.04348620274, 2299.7200728542, -1476.9897744804
871, 422.10444682592, 2296.9948257912, -1556.2735001119
872, 607.97631101647, 2503.2800992888, -1493.49519966
873, 375.98007271187, 2506.8799798312, -1568.0553730241
874, 347.12159249311, 2726.1317170116, -1574.6951684601
875, 95.313557234759, 2723.7965782559, -1609.6805780134
876, 332.83342216183, 2986.5893288301, -1577.7769184082
877, 186.34807567585, 2293.6794415472, -1601.696317177
878, 61.740285407796, 2940.1648875319, -1611.3175584867
879, 209.33643620337, 3139.5149393921, -1598.8543140116
880, 49.817976166667, 3136.6977210769, -1611.7302128582
881, 99.000504153063, 3323.589116542, -1609.4580301408
882, 295.30574635341, 3268.7884700008, -1585.2293741193
883, 201.42894987515, 3524.6713300887, -1599.8697386786
884, 467.21891872592, 3468.8801272836, -1543.3297210915
885, 312.93810424549, 3741.1377080051, -1581.8431003885
886, 558.01969760715, 3729.5419516586, -1512.8701135968
887, 414.11932388612, 3958.4146123544, -1558.4172832019
888, 646.83112776247, 3952.5174286963, -1477.082784998
889, 489.53905491667, 4172.190540289, -1536.3958066784
890, 714.8690530569, 4167.9540234581, -1445.3816463124
891, 524.31485571033, 4385.6626412966, -1524.8787431247
892, 747.0796689448, 4381.3767436959, -1428.9992105092
893, 285.6797045979, 4391.2142868082, -1586.9923300161
894, 530.05191385873, 4600.3532743558, -1522.8940659441
895, 291.02642664133, 4612.5773298399, -1586.0205626128
896, 540.0919130151, 4815.077357351, -1519.3624660629
897, 303.09680923178, 4836.2972737464, -1583.758208492
898, -37.01236698506, 3545.479125444, -1612.0750954665
899, 1602.2741785673, 1697.4568304155, 181.40457023114
900, -174.70684102599, 2929.6902783191, -1603.0077208033
901, 923.43313489817, 4163.89144313, -1321.9090328825
902, 954.45561962691, 4377.3029421809, -1299.6875553012
903, 585.20364649546, 1466.8595746745, -1502.5642299794
904, 367.81597521046, 1490.6946009335, -1569.9904334751
905, 333.75251724038, 5045.9709360136, -1577.5827584888
906, 124.39030028157, 5099.4444583645, -1607.6950602268
907, 16.03363730531, 4890.1658425664, -1612.420223456
908, -122.60920975391, 5041.8905547638, -1607.8318008776
909, -246.6391296688, 4839.726195089, -1593.5261465736
910, 1207.265066788, 1389.31621571, -1068.9680704644
911, 1546.9997309981, 1318.0979056414, -454.95221813159
912, 1112.4423224983, 4159.6111622479, -1167.3262863629
913, 1140.6134475071, 4373.1549360989, -1139.8159847495
914, -281.0282325845, 5037.0623091279, -1587.8223081853
915, -274.81570036889, 5225.3270677427, -1588.9093305239
916, 593.94859124787, 1264.7998678766, -1499.1290292547
917, 365.1041622323, 1286.9914140069, -1570.6232730749
918, -498.1370596567, 5243.2815148971, -1533.6285753299
919, 598.52779896966, 2713.556463026, -1497.3067008447
920, 1276.2215454994, 4153.7839513113, -985.6177546405
921, 1300.5054211752, 4367.7654235879, -953.34681263126
922, 1308.631615841, 4582.3654185262, -942.16135549697
923, 1439.5717015697, 4576.4996726001, -726.51308762281
924, 1443.3122015296, 4792.4559169627, -719.05348589736
925, 1538.4577414993, 4788.4345971062, -483.0500649871
926, 1504.923021829, 3130.8485160384, 579.13368411501
927, 1449.0793142887, 5006.3138363449, -707.35937335039
928, 1541.291970247, 5004.9627838, -473.92898661288
929, 1594.5264218758, 4785.8620312298, -240.15745807884
930, 1596.2506897762, 5005.8964224246, -228.41598254574
931, 1612.4367770125, 4784.6932244432, -15.422469191171
932, 1612.4810381266, 4988.4484219805, 9.7526558991277
933, 1606.8986409984, 4784.1518077994, 134.41333127955
934, 1599.4803228389, 4917.4756943251, 204.57967199416
935, 1573.9498275199, 4786.0412066298, 350.53088239287
936, 1538.4162124123, 4960.0169109331, 483.18230984016
937, 1488.688568655, 4787.3774079337, 619.67347181654
938, 1421.6025342219, 4957.5444141196, 761.07411273958
939, 1354.73339583, 4771.2664008987, 874.5761250017
940, 1259.6914056947, 4888.5235715404, 1006.6582644544
941, 1213.3172425718, 4738.5074410601, 1062.0937516882
942, 1127.7831956242, 4956.9243757749, 1152.5121059369
943, 1077.3769535111, 4699.952609517, 1199.7651035373
944, 965.86306120703, 5014.2445733925, 1291.2328210598
945, 884.37587290154, 4792.4858242044, 1348.3509524001
946, 690.54064368999, 4864.434229052, 1457.161220325
947, 596.14305341177, 4662.2171864432, 1498.2577503577
948, 480.25377945485, 4915.9940629894, 1539.323453075
949, 403.66702303423, 4712.6242093084, 1561.1572674788
950, 248.79377224946, 4939.6992493466, 1593.191403099
951, 183.25777046145, 4730.169741147, 1602.0528289959
952, 2.7294411540937, 4947.9551045823, 1612.4976252748
953, -55.346949412282, 4737.5195710484, 1611.5497977494
954, -241.97979980614, 4953.0789422655, 1594.2403213012
955, -294.08892806995, 4745.1932858238, 1585.4552326291
956, -184.65336063343, 5157.4381684127, 1601.8924419319
957, -415.34511048449, 5153.677244127, 1558.0903060506
958, 1176.0454129727, 5217.6542801282, 1103.2215836299
959, 566.66309082461, 5129.4358706099, 1509.6539655308
960, 1581.4115298563, 5113.4615358476, 315.16280552515
961, 1539.2536135872, 5221.8866044889, -480.5079712281
962, -474.25621135087, 4833.6936089326, -1541.1807625776
963, -621.65476181314, 2881.2976987074, 1487.8516487291
964, -131.31859603136, 5360.8865010027, 1607.1439142506
965, -378.34434449755, 5345.9520506375, 1567.4860176874
966, 304.32666087378, 2480.9986855608, 1583.5223509846
967, -546.72906200531, 3083.2150119121, 1516.9853397987
968, -494.3918209185, 5445.0565584937, -1534.8400108714
969, -705.53837473724, 5449.5787265389, -1449.9560665634
970, 407.55694401868, 1067.9370663596, -1560.1462998887
971, 157.21572387028, 1079.6132995562, -1604.8176641259
972, 80.316350631728, 1341.6175636723, -1610.4985166415
973, -94.681925909244, 1081.5769089037, -1609.7178033807
974, -179.6358572864, 1294.894501908, -1602.4628559537
975, -335.58905491847, 1081.1156369761, -1577.1926682363
976, -411.79617518322, 1289.6525921129, -1559.032027669
977, -564.1141258868, 1083.6266579893, -1510.6066491473
978, -637.68044174842, 1291.2308882152, -1481.0539508228
979, -740.82624219897, 3102.6126426674, 1432.2476543496
980, 82.829781149128, 726.85602432615, 1610.371206703
981, 166.20380782998, 924.55812911365, 1603.9117385595
982, 280.57088397619, 658.71478216942, 1587.9034841391
983, 354.25321439631, 863.42963100646, 1573.1061718312
984, 456.2063286596, 584.09934114392, 1546.6207468682
985, 544.9018356869, 790.36260101272, 1517.6441181856
986, 723.61045157316, 679.09511306606, 1441.0253378238
987, 1411.1250301855, 4141.7804249192, -780.3290893557
988, 1370.7650451372, 3927.5347946798, -849.22880943974
989, -777.25935553793, 1080.9451146779, -1412.8073445137
990, -328.27325746252, 5557.9794603801, 1578.7315704474
991, -576.32509541211, 5544.5064760699, 1505.9902327068
992, -650.03093866271, 5285.1543921244, 1475.6750691594
993, -802.161109942, 5542.9107943007, 1398.8188302871
994, -703.66256124719, 3291.1790435611, 1450.8673264749
995, -836.05149769928, 3284.4262049197, 1378.8307570668
996, -897.69611678061, 2255.6399111456, 1339.5139483862
997, -850.73423531732, 1288.4145634468, -1369.8202542031
998, -680.86374313062, 1503.4448648231, -1461.7050411852
999, -683.92068729813, 870.82647301596, -1460.2772167231
1000, 833.2457906784, 907.32087654354, 1380.5327989657
1001, 991.34741594002, 784.92560051106, 1271.7723087258
1002, 7.857603276901, 863.3190097314, -1612.4807918109
1003, -887.89828426502, 5323.7220427963, 1346.0284711177
1004, -499.28759342899, 5651.6181808457, -1533.2543944258
1005, -256.70678448719, 5646.2258869968, -1591.9353311658
1006, -719.35254236579, 5643.4133429652, -1443.1524058197
1007, -847.26997701581, 5443.2620385916, -1371.9656981608
1008, -880.33309773644, 851.84797652869, -1350.9884159675
1009, 524.84970562299, 4529.3942387502, 1524.6947388354
1010, -947.88681006592, 5588.158559632, -1304.4792612434
1011, -901.5163581706, 1499.6462779155, -1336.9458341342
1012, -942.59750238857, 1708.5097593252, -1308.3063625197
1013, 1272.2363954664, 4619.1560369088, 990.75639170689
1014, 1599.9306314805, 4653.4474587391, 201.02766585796
1015, -726.13852076697, 3527.2982047755, 1439.7498986348
1016, -914.28615232385, 3402.8009473692, 1328.2457010338
1017, 629.4168064794, 1090.2201061082, 1484.5868482705
1018, 1449.7628633553, 2120.3295002187, -705.95736112629
1019, -1000.3250455965, 5560.2473520732, 1264.7153554495
1020, -929.37035236637, 5768.2729045954, 1317.735345966
1021, 1481.4952905111, 3896.9554047511, -636.67923491659
1022, 1440.4554743602, 3693.1487993413, -724.75926688312
1023, -1023.7918106908, 3251.6370468767, 1245.7950354429
1024, -1044.1408697474, 5378.03182331, -1228.7899050224
1025, -883.84962649205, 3707.1110851281, 1348.6904298036
1026, -649.47981805392, 3741.4793267558, 1475.9177137885
1027, 952.12710863132, 1129.5747286104, 1301.394314906
1028, -1069.3077910879, 3589.9561062299, 1206.9529621355
1029, -715.32328852693, 5856.2081631054, -1445.1538165919
1030, -928.61508135125, 5847.6444648319, -1318.2677006039
1031, -779.98572411687, 633.96824529697, -1411.3039909628
1032, -953.0224526626, 588.50968536454, -1300.7319906445
1033, -974.060089829, 3883.5586380102, 1285.0534149888
1034, -983.84950874962, 1904.1571212411, -1277.5740304799
1035, -466.18908049636, 1843.1654864317, 1543.640120797
1036, -1078.0569373023, 5343.5962559633, 1199.144605649
1037, -975.71946468022, 5119.4483911383, 1283.7939285048
1038, -1133.4423968834, 3840.5790865746, 1146.9361635299
1039, 556.36502239741, 5027.3484430209, -1513.4793983522
1040, -1074.6303731832, 5824.974836559, 1202.2163405275
1041, -1011.6596902178, 5949.2441753223, 1255.6670371986
1042, 1519.8353784495, 3638.9650878615, -538.78545475022
1043, 1488.4345098545, 3500.0524135213, -620.28346080723
1044, 1416.0669293332, 3494.8127564556, -771.32476976157
1045, -1152.8150578757, 1890.5855704465, -1127.4624586747
1046, -1007.6756839288, 2087.374238305, -1258.8664681691
1047, -437.47081674087, 4621.0452573284, -1552.0232932292
1048, -659.63711646401, 4623.0651433367, -1471.4061258869
1049, -885.60830311659, 6071.7845630634, -1347.5362549451
1050, -1077.3916605914, 6068.8759967091, -1199.7423721224
1051, 1419.3751533748, 3255.1201231317, -765.22003090361
1052, -1102.1304195466, 1488.2926866486, -1177.0568941063
1053, 813.71087353111, 1320.0052217156, 1392.1362606852
1054, 1103.0739870498, 1341.5474205368, 1176.1828282904
1055, 338.65517762741, 5238.4588458847, -1576.5376098017
1056, 554.68519665555, 5234.5490054122, -1514.0958435352
1057, 526.0858708528, 5442.1036481623, -1524.2686580856
1058, 748.35571732387, 5441.7728254778, -1428.3313804626
1059, 714.43640562326, 5654.8573107884, -1445.5955440079
1060, 929.17713896497, 5653.2575611346, -1317.8779454708
1061, 919.8959199162, 5867.3771286989, -1324.3729181338
1062, 1114.73021966, 5864.0203374316, -1165.1417053148
1063, -70.804802573912, 5570.7739782459, 1610.9446690271
1064, -272.00470636868, 5784.6095990313, 1589.3929534405
1065, -9.8292718628252, 5798.513648043, 1612.4699744717
1066, 641.01278930139, 1059.2520376965, -1479.617017629
1067, -1145.7448423769, 5133.4784991591, 1134.6466124705
1068, -1029.8668023081, 4936.3572552129, 1240.7776853473
1069, -1116.0186383354, 1546.7395537662, 1163.8972096946
1070, -848.71966039098, 363.48860833186, -1371.0693707421
1071, -1101.6430733904, 521.40225048291, -1177.5130298106
1072, -1192.4477382273, 742.67620220567, -1085.4595622203
1073, -670.36915892706, 412.51215522077, -1466.5477422652
1074, -878.38436187435, 2082.1843702141, -1352.2562589343
1075, -1013.1222603226, 2275.7396794375, -1254.4872702471
1076, -1176.8917329962, 2282.7622222291, -1102.306644377
1077, -1020.2991639523, 2477.8473168211, -1248.6571127595
1078, -1183.8110601089, 2482.8306334369, -1094.8723452287
1079, -1027.7565745243, 2675.8532586904, -1242.5261907719
1080, -1176.7570818097, 5949.662991205, 1102.4503889482
1081, -262.63379229022, 6021.2657182959, 1590.9682529281
1082, 37.453860599331, 6082.4862037331, 1612.0649162347
1083, -643.7019590454, 4416.7059532318, -1478.4467963508
1084, -837.33966894183, 4425.2508190079, -1378.0488503878
1085, -675.02334778094, 4216.4850552453, -1464.4113351771
1086, -863.9032873276, 4244.7274630533, -1361.5532633332
1087, -965.3801440637, 4425.9164832094, -1291.586847721
1088, -1016.4792881405, 4298.2618626351, -1251.7686910631
1089, -931.02458401782, 4058.5762818851, -1316.5670909133
1090, -1146.5168530732, 4383.330169844, -1133.8665184687
1091, -1088.1287054413, 4120.7393225561, -1190.0127730069
1092, -1018.6144265716, 3865.9585795973, -1250.0318525431
1093, -1170.4159502463, 3935.1369264836, -1109.1801505036
1094, -33.378653537582, 504.2134396123, 1612.1544261624
1095, -1195.4211904649, 4936.5548334259, 1082.184016392
1096, -1245.6183334613, 3636.3109551227, 1024.0064089281
1097, -1289.7417736417, 4015.5527639505, -967.84328076395
1098, -1122.8625724539, 5851.452931262, -1157.295953468
1099, 892.69881672488, 571.26824225266, 1342.8551919494
1100, 1058.9822268112, 492.56014905323, 1216.0318363761
1101, -171.96552860921, 3137.0148327365, -1603.3041144132
1102, -1243.663849902, 1029.1281768986, 1026.3792566582
1103, -1231.3218799605, 437.46261995874, -1041.1534641243
1104, 1541.7037879936, 2030.5527309117, 472.58761822161
1105, 1148.1998569899, 1134.8806517112, 1132.1735089423
1106, -73.641273444539, 4529.1713382622, 1610.8174981012
1107, -1244.324858382, 6073.212898218, -1025.5777881604
1108, -1287.2271102914, 5814.0806655057, 971.18525614377
1109, 850.80937226391, 2309.9492696014, -1369.7785654691
1110, -230.22434259353, 1487.8797510138, -1595.9803073812
1111, -1111.6276780617, 3667.5718576447, -1168.0917108499
1112, 532.3593233518, 1366.6959441558, 1522.0890139155
1113, 674.48527540846, 1517.7556340068, 1464.6618684333
1114, -28.254758359981, 1005.1132358146, 1612.2523676085
1115, -1150.6993233762, 211.55972437575, -1129.6217189549
1116, 1268.3170701854, 3287.9021420792, -995.76873153088
1117, -1187.5666862543, 2679.0724351077, -1090.7976162278
1118, -670.9831037959, 6076.927115038, -1466.2669479302
1119, 459.60415556962, 1517.9339498201, 1545.614450435
1120, -903.06001305385, 201.79062788337, 1335.9036300158
1121, 709.83656249941, 5869.101799682, -1447.8597245899
1122, 741.18288935577, 6083.6960931408, -1432.0665246658
1123, 514.28083580345, 6084.3809368214, -1528.2919444251
1124, -1065.593100016, 6063.7830813462, 1210.2338517796
1125, -1259.5845391539, 6112.2880728, 1006.7775410616
1126, -1279.6371098991, 3810.7779142889, 981.1642247817
1127, -1303.4962200207, 2288.8754897657, -949.2376978823
1128, 973.25914635334, 4536.02721127, 1285.66734899
1129, -1287.8305161521, 3733.6949779373, -970.3849764242
1130, 1573.2709856438, 3166.7021440199, 353.56521165036
1131, 1562.733170439, 3384.2497261345, 397.56118197023
1132, 1363.6023584915, 3082.4521485229, -860.68275650897
1133, 1611.1462061869, 1435.8504116288, 66.318239421487
1134, 492.35649570329, 848.67243797509, -1535.4952608461
1135, 719.63611999334, 846.81594975815, -1443.0141557594
1136, 590.15166753118, 632.11232461708, -1500.627767469
1137, 811.60689511481, 630.81035355284, -1393.3638926994
1138, 689.9560808066, 417.35953389324, -1457.4380924967
1139, 902.61714491144, 416.66490719061, -1336.2087618541
1140, 462.26096858566, 422.8948863006, -1544.8219488306
1141, 1013.5232033756, 639.72707591643, -1254.1714262938
1142, 1093.0755903338, 424.23294665795, -1185.4803604947
1143, 1188.0712097425, 659.65506695532, -1090.2604573456
1144, 1254.1190707742, 447.87007062465, -1013.5918740116
1145, 1325.3268124166, 698.18784919539, -918.5281865244
1146, 1382.5281653072, 491.88898830773, -829.94128803951
1147, 1479.6969449651, 552.6764998392, -640.84761358684
1148, 1522.7337820963, 334.5959095317, -530.53860629279
1149, 1547.4703013735, 628.69709244022, -453.34904897471
1150, 1578.4983470455, 405.47447070064, -329.44341811554
1151, 1589.4230273394, 720.34123957982, -271.89064076983
1152, 1606.8207861144, 492.4513151404, -135.34085482036
1153, 1611.5456011439, 590.94088131895, 55.776194278484
1154, 1601.2677026919, 364.55456559554, 190.08392892145
1155, 1566.5142944732, 463.34089076575, 382.39097400982
1156, 577.91722227198, 2974.2529444858, 1505.3817094065
1157, -926.24685564982, 6128.0778514949, 1319.9327561044
1158, 1531.680093632, 238.47984771977, 504.12854854064
1159, 383.68516496726, 452.82857826477, 1566.1878793283
1160, -787.64356991811, 2223.5929438072, -1407.0445095721
1161, 1270.4385039695, 1329.8209819151, 993.06073728993
1162, -1291.1978082541, 5865.0457291554, -965.89993932418
1163, -1190.3316968914, 4034.3580342084, 1087.7796296167
1164, -1322.7051323558, 4000.6580367653, 922.28302634044
1165, -1346.4049409535, 3626.1221828278, 887.32686240833
1166, 1178.5468881205, 1625.2035947014, 1100.548949156
1167, -1018.4009334535, 6286.0943899912, -1250.2057921822
1168, -1312.5900745394, 362.66170263275, 936.62266061276
1169, -1308.2902947493, 652.28266400621, -942.6193100117
1170, -1293.4750379341, 5145.0728709833, 962.84828585523
1171, -1304.7721029121, 1225.9941590112, 947.48318022463
1172, -310.19146971963, 4534.2381821084, 1582.3836123888
1173, -832.71435011314, 3823.4430038667, -1380.8487229374
1174, -556.20827574645, 204.19536933021, -1513.5354462415
1175, -89.783068535263, 6337.7810973232, 1609.9984682645
1176, 187.76311904542, 6246.9747762269, 1601.5310544501
1177, 315.62771925597, 6025.9139946742, 1581.3086433834
1178, 358.62481868342, 6237.1600137695, 1572.1153475473
1179, 554.70614809243, 6017.8436403935, 1514.0881680149
1180, 585.24049090819, 6237.1467827625, 1502.5498799481
1181, 781.66100502482, 6018.6885282462, 1410.3807499597
1182, 809.14512820471, 6240.1673186452, 1394.7948867272
1183, 990.96202611196, 6019.1301731891, 1272.0726214321
1184, 1016.506708602, 6241.5411944834, 1251.7545535036
1185, 1180.6848945033, 6011.282145829, 1098.2549822457
1186, 1201.1114813318, 6238.7133977253, 1075.8776375856
1187, 1359.3339242373, 5964.7381713026, 867.40842342538
1188, 1356.2296818027, 6243.3878936222, 872.25401176282
1189, 1462.3786265499, 6029.3684415666, 679.43885052579
1190, 1488.5800251361, 6256.2728394023, 619.93416833728
1191, 1555.0500230218, 6054.4972085714, 426.62536596015
1192, 1590.9586314393, 6221.8844671201, 262.75601622162
1193, 1607.8968517148, 6015.8094660809, 121.89300767875
1194, 1611.6856620301, 6144.8868324589, -51.570687954823
1195, 1604.3639101936, 5958.2498586114, -161.88457775785
1196, 1593.2697041153, 6224.8534147059, -248.35812143679
1197, 1577.2465160808, 6023.8782518405, -335.38547158653
1198, 1544.8450629216, 6264.0346179192, -462.21574539596
1199, 1554.6141336693, 3829.4535180601, -428.21100844084
1200, 734.79203944443, 3512.834806973, -1435.3560824916
1201, -1057.5528994591, 4567.4803657749, -1217.2660156521
1202, -1189.720565611, 4607.8493864543, -1088.4479994597
1203, -1402.6566057584, 563.72982698495, -795.43128350727
1204, 965.48302848886, 270.14940161347, 1291.5169995812
1205, 1125.8301614173, 5650.219974024, -1154.4199727191
1206, 1142.9550035328, 222.2533093986, 1137.4680008454
1207, 1556.6469223392, 117.17557732226, -420.76139668565
1208, -1191.3389017836, 3466.281916123, -1086.6764428837
1209, -1019.9781211748, 3433.6581365262, -1248.9193745161
1210, -1338.1625694183, 3491.0269206388, -899.70885422685
1211, 168.63662098986, 3964.6017615512, -1603.657780025
1212, -1351.9971717103, 977.0282729579, 878.78266672669
1213, 1254.0679892245, 1127.3473909079, 1013.6550732852
1214, -990.24450505283, 6310.0631530005, 1272.6236788868
1215, -806.28784111765, 6358.540636921, 1396.4442202295
1216, -1337.6661076904, 4942.852692829, 900.44681171833
1217, 1580.9619371229, 137.83626246872, 317.41041345202
1218, 565.50791549709, 207.50536384103, -1510.0870590822
1219, 334.45468661548, 215.76379589793, -1577.4340474446
1220, 1519.2078572307, 3370.6946466663, -540.55233011207
1221, 584.14148498412, 6298.9996682036, -1502.9774696373
1222, 806.70362682568, 6297.1065886271, -1396.2083650518
1223, 348.99997751098, 6299.528895786, -1574.2799350348
1224, 771.80388315933, 5230.3714406151, -1415.7988065932
1225, 1257.5541343355, 3078.0644945767, -1009.3269211673
1226, 1271.8029449317, 2828.2947378109, -991.31273071199
1227, 1409.5678294286, 2941.8648484332, -783.13845369971
1228, 524.22902228946, 1666.2845954116, 1524.9082528405
1229, 306.17145356244, 1769.615633745, 1583.1667045856
1230, 987.54709163196, 205.73556906006, -1274.7255071553
1231, -816.97035056905, 2915.3750743331, 1390.2215388418
1232, 1317.2055131243, 237.49756928354, -930.13687248206
1233, -1382.5330219004, 6094.008272827, -829.9147040203
1234, -1325.9496334535, 6308.3260221091, -917.61237136719
1235, 1593.8217598161, 3748.3319697331, -244.79033496729
1236, 211.74416633815, 1677.2859757166, -1598.5372336045
1237, 1280.3952389924, 5860.081187355, -980.18975007166
1238, 1201.8927892183, 6467.3701020164, 1075.0047580107
1239, -285.38534126819, 4322.2366198669, 1587.0449807723
1240, 1603.9177091647, 3881.2845470748, -166.24726365615
1241, -549.09726985797, 1078.2175546596, 1516.1297365233
1242, -1431.389738798, 3696.4492441026, -742.48281541706
1243, 1355.284859223, 2545.9484542259, 873.72131530354
1244, -658.74412529954, 2020.4832025318, -1471.806132577
1245, -536.06752288169, 2268.1462290209, -1520.7855838139
1246, 1597.0518935777, 2297.8791681065, -222.74510072108
1247, 1056.0571307328, 3945.2236988751, -1218.5729447791
1248, -44.262321494453, 4319.7729367364, 1611.8923280982
1249, 1305.6883938736, 1537.8648688443, 946.23594355013
1250, 1248.302029922, 1844.8245033306, 1020.7472733627
1251, -1225.0560013563, 4746.7029177096, 1048.5189010935
1252, 1471.902560312, 3400.4058559143, 658.55252444965
1253, 1503.7789315882, 3594.4015006861, 582.09795831028
1254, 1378.663620839, 3612.1527256046, 836.34514152609
1255, 1465.4348146324, 3744.9308839579, 672.82186361368
1256, 1295.9952893746, 3809.1405303497, 959.46890342009
1257, -502.73361340621, 3290.9625916803, 1532.1279508917
1258, -153.02476000263, 2259.1204736379, 1605.2226025505
1259, 1562.4377852226, 6434.5307935425, 398.72047828549
1260, -471.38910629571, 2063.7213237939, -1542.0601161966
1261, 1289.498880956, 5646.731532486, -968.18222225011
1262, -241.06008338674, 4110.7550969286, 1594.3796470482
1263, 1.9254917043178, 4103.7269387388, 1612.4987854882
1264, -217.57761783193, 3900.5367066445, 1597.7535266196
1265, 23.472035524868, 3883.7414689952, 1612.3291002502
1266, 940.52624463668, 5799.4511212253, 1309.802730353
1267, 1585.2938652004, 1491.6732760602, 295.014256374
1268, 1571.2222089996, 6478.2612758961, -362.56131205312
1269, 1437.0318382542, 5744.9599794171, 731.52402145093
1270, 1216.9827524542, 439.88697365474, 1057.8917544503
1271, 1428.4070819783, 760.88012101098, -748.22518343758
1272, 1612.4295556084, 5834.5370147796, -16.159844894166
1273, -858.64562836704, 6550.2832052385, 1364.8750490961
1274, -1429.8838682005, 6374.2438846807, -745.37869047591
1275, -1374.0813581145, 6556.1168821267, -843.83422555438
1276, 1498.9010337686, 6495.1247805212, -594.54581238287
1277, -1365.0811707847, 4746.7099991089, 858.31753021411
1278, 136.30001398086, 6410.5371601336, 1606.7291978993
1279, -1412.5964327328, 5169.5604309304, 777.64263863831
1280, -728.06841228528, 141.30854503584, -1438.7749308914
1281, -457.50809109611, 55.749042646465, -1546.2352376029
1282, -362.39167363975, 234.26466296217, -1571.2508028334
1283, -1426.0788088231, 5882.7287976734, -752.63296699552
1284, -1325.8193869431, 5658.623768797, -917.80054796361
1285, -1049.9850263059, 6500.8571430994, 1223.7998969256
1286, 591.64749803016, 6456.6697361015, 1500.0386528176
1287, -415.09522543508, 2919.4098678236, -1558.1568970341
1288, -416.19727658627, 3133.4937346293, -1557.8628924965
1289, -282.17296004515, 37.893652213172, -1587.6192787342
1290, -1095.739345747, 4801.7400085474, -1183.0087565903
1291, -1233.4963019043, 4744.0538758023, -1038.5764234795
1292, -1333.7029986728, 4643.821055379, -906.3064183152
1293, -1414.556210907, 4829.8162077729, -774.07204920695
1294, -1295.3742259937, 4938.4666310658, -960.29168967785
1295, -1438.2965043371, 5021.2785292251, -729.01351122655
1296, -1411.3248416567, 1173.6435406358, 779.94801782786
1297, -430.413422108, 4408.8106804991, -1553.9952661341
1298, 435.74664256638, -0.44779134871533, -1552.5090852897
1299, -1439.4783681279, 708.60899383669, -726.67709446879
1300, -1405.3765038132, 869.76134170221, -790.61585907796
1301, -1506.5757770069, 887.36977362608, -574.79501403033
1302, -1451.1107092515, 1128.9673691041, -703.1611936512
1303, 1552.6120852587, -79.481389731868, 435.41412881157
1304, 666.83965956812, 6511.6528559079, -1468.1585213645
1305, 880.42445747409, 6509.7268868205, -1350.9343518702
1306, -892.23011881193, 4945.0752845815, 1343.1609700902
1307, -521.72706943014, 4325.7200225015, 1525.7647369838
1308, -657.01434215721, 6574.5489713829, 1472.5791225343
1309, 277.61711290775, 6083.7199308493, -1588.4225521496
1310, 109.70557293291, 6300.0264431747, -1608.7638044941
1311, 202.53390101351, 6514.1128554487, -1599.7302364905
1312, -36.60653460856, 6515.3915068201, -1612.0843620278
1313, -1450.0080433776, 4667.9065495963, -705.43220224413
1314, 1100.9943590372, 3297.7245985176, -1178.129711956
1315, -1490.0802956562, 514.43565920188, -616.2954034932
1316, -1465.6287526889, 245.28288474946, -672.37698565899
1317, -1421.0187138552, 15.462553035541, 762.14356572495
1318, 1590.4849370643, 4043.1892465962, -265.60826931718
1319, 1608.0394824707, 43.467673227321, 119.99672744154
1320, 3.5642513291948, 3676.5315131619, 1612.4959963261
1321, 207.23658801332, 3628.260861655, 1599.1278378584
1322, 310.064123791, 3841.6213287184, 1582.4089411962
1323, 452.93111315244, 3691.4851664666, 1547.5830504589
1324, 562.81776441737, 3917.959048965, 1511.091735478
1325, 608.64212534217, 3699.9922294909, 1493.223990335
1326, 774.30673102531, 3983.4381355874, 1414.4315660127
1327, -1453.5687024202, 3504.408016121, -698.06594594862
1328, -1380.1349292089, 3291.4029201144, -833.89657250618
1329, 962.97669337498, 4590.2788125195, -1293.3868110275
1330, 1066.3617677662, 2864.0988406882, -1209.5658778428
1331, 1206.0652895558, 2651.6864726082, -1070.3215201253
1332, 1549.6689785198, 3874.7133159811, 445.77547661831
1333, 1486.107304934, 4092.5699199218, 625.83855825997
1334, 1490.4382842076, 20.185006216524, 615.45317948875
1335, 187.58615166939, 5578.090193048, 1601.5517917802
1336, -1178.8371082485, 2870.2927760282, -1100.2259577883
1337, 1082.9357982555, 3.0944054881579, 1194.7500355725
1338, 888.38887882114, 37.379183894325, 1345.7103346209
1339, 842.78053181975, 1070.4073437786, -1374.7329302071
1340, 296.50865766245, 5433.9751987155, -1585.0048206548
1341, 1321.2091785874, 5009.2460245855, -924.44111899477
1342, -132.69046466363, 6300.0799243393, -1607.0312312079
1343, -273.09885730614, 6515.9361988318, -1589.2053166274
1344, -747.90720282369, 6163.0611929836, 1428.5627920488
1345, 1460.7338845531, 6279.3383964058, -682.96770529996
1346, 1389.5515850011, 6501.2573216174, -818.12788189248
1347, 1504.1395824637, 543.34901872714, 581.16540689229
1348, 1545.2361335448, 763.27140417698, 460.90667150873
1349, -1454.3829062945, 5678.9360422703, -696.36802553083
1350, 1597.2132524125, 3392.518179306, 221.58510326334
1351, -386.95783841999, 2707.1914401025, -1565.3819071369
1352, 426.23459852012, 1933.5950611852, 1555.1474224533
1353, 608.74007287863, 1928.7164671164, 1493.184063692
1354, 173.69288463855, 1986.6067820201, 1603.1180237645
1355, 55.985926170272, 1709.5216637731, 1611.5277532446
1356, 862.02294011137, 3692.5268298172, 1362.7496878044
1357, -1479.9161261614, 3315.9571335655, -640.31805601803
1358, -1410.7323581962, 3098.1764111042, -781.01915215795
1359, -1378.3796329823, 4556.7125885237, 836.79475580745
1360, -1481.6371748683, 4549.6558948923, 636.32562118828
1361, -1515.2623289429, 3698.6889153933, -551.48910883227
1362, -1346.0551490629, 1190.5906744226, -887.85739578418
1363, -1489.6918839651, 1333.6578597186, -617.23365840489
1364, -1401.5348632792, 1403.4655678629, -797.40609318315
1365, -1027.443549281, -203.17804797785, 1242.7850444436
1366, 1361.3910980499, 1742.577291139, 864.17615179764
1367, -533.99411897006, -99.697273794574, -1521.5148570533
1368, -787.27152303203, -167.44402042121, -1407.2527122479
1369, -891.89773023468, 5307.2566359163, -1343.3817096193
1370, -1438.2931756091, 908.41548561606, 729.02007848118
1371, -299.26388716559, 2283.2886078188, -1584.4865840256
1372, -243.11221084241, 2071.7352556262, -1594.0680292998
1373, -1418.1381735876, 4537.8258523956, -767.49008828898
1374, -1498.5753040369, 4488.0783438222, -595.34163816424
1375, -1363.6893227881, 5378.1549887776, 860.52715685092
1376, -1513.7422351321, 1475.476596963, -555.64787411852
1377, -1468.7042094708, 1619.5850246674, -665.63240899531
1378, -1490.4434745918, 4291.295858446, -615.41658547178
1379, -1563.0512840239, 4288.3083605063, -396.27230574829
1380, 41.616058852416, 4397.587370836, -1611.9628398474
1381, -1357.15639322, 1419.347636188, 870.79386216735
1382, -1457.4940373216, 1378.9341463879, 689.83280737815
1383, -1385.4797051765, 1601.7034063578, 824.98607830571
1384, -619.66465651121, 2692.9128880092, -1488.6815935892
1385, 1316.4686015186, 2044.1052988565, 931.17955632172
1386, -1279.4412843801, 3437.5902337259, 981.41956737953
1387, -1380.9398818608, 3499.8165223126, 832.56289725374
1388, -1333.341752031, 3252.2812033824, 906.83779097393
1389, -1459.5358329704, 3577.0689112412, 685.50229261405
1390, -1426.9959232657, 3326.1677211078, 750.89267869923
1391, -1378.9406359622, 3067.8379102797, 835.86997275078
1392, -1484.9901779584, 3125.6949293021, 628.46105998624
1393, -1396.6999245054, 2888.4943483332, 805.84467746535
1394, -1322.5650400582, 2887.6359958504, 922.48390808211
1395, -1387.4173811515, 2711.1759122095, 821.72325043509
1396, -1283.6125859412, 2775.5431966834, 975.95754620152
1397, -1375.819252744, 2520.0663550665, 840.99774172292
1398, -1480.0361403161, 2497.8457956986, 640.0406088152
1399, -1383.8143812425, 2316.759615127, 827.77639567631
1400, -1484.0415425879, 2313.2842225366, 630.69786659986
1401, -1551.6449494003, 2476.8084483701, 438.81540877161
1402, -1400.52726623, 2126.2458239294, 799.17444915266
1403, -1287.1091136423, 2103.6052132552, 971.34163079406
1404, 1531.964369483, 6711.4643241543, -503.26402312149
1405, 1610.3686398053, 3226.6856614792, 83.0845768998
1406, 226.10813145405, 431.99919984513, -1596.5688539854
1407, -364.88499277911, 3348.2746696795, -1570.6736644517
1408, -605.36113692997, 3363.792992221, -1494.555144484
1409, -710.21865204348, 3120.192950313, -1447.6693145385
1410, -506.23546907851, 3571.7422827593, -1530.9744604806
1411, 1090.0477518439, 2157.580494245, -1188.2650076269
1412, -1458.9909669484, 5422.6903064542, 686.66118323963
1413, -1512.1889775624, 6494.4373799178, -559.86119770738
1414, 1131.1018603916, 1980.3607781438, 1149.255316386
1415, 1135.6316520696, 919.87751883354, -1144.7794991902
1416, -700.87072200045, 4838.3651990444, -1452.2180410856
1417, 1007.993903834, 6294.2337137297, -1258.619622409
1418, -693.6918149397, 1471.8537565824, 1455.6609134995
1419, 498.38403770297, 5798.1636161169, 1533.549504344
1420, -1244.7268903496, 4561.9061686434, 1025.0898120959
1421, -1444.5522051458, 6660.5194868871, -716.53797080579
1422, -1334.4313804682, 6675.3325075625, -905.2336244995
1423, -699.52320350973, 1751.8550562778, -1452.8676125787
1424, -250.9695080193, 5865.2916340927, -1592.8498861257
1425, 661.46714006536, -6.8689907541668, -1470.586841585
1426, -1350.5987255755, 5441.5852931234, -880.93040825355
1427, -526.05800236444, 427.44534421417, 1524.2769270102
1428, 1600.5724151725, 1212.789025044, 195.85222876779
1429, 1413.4681985045, 5855.2122176383, -776.07669905904
1430, 1420.7841136873, 5643.5007904392, -762.60084896146
1431, -1473.7272491407, 4750.9199604032, 654.43619261101
1432, -1530.5727715025, 5465.1041322796, 507.45206483658
1433, -1516.665221251, 5669.6593565103, 547.61922291324
1434, -1190.449383626, 2905.7974363584, 1087.6508337509
1435, 110.27261530314, 6645.3277692261, 1608.7250367793
1436, 365.43874865381, 6667.5089859116, 1570.5454596446
1437, 1149.6611659107, 5436.9490311841, -1130.6896203794
1438, 686.63570340001, 4207.1450546923, 1459.005314842
1439, -193.63815963087, 6613.5228353522, 1600.8312048734
1440, 1406.2503198105, 1459.4028342751, 789.0800125298
1441, 199.01816345516, 11.340509786278, -1600.171414529
1442, 1594.6567833661, -173.15231748306, 239.29032332218
1443, 1590.7759912389, 6692.9701326959, -263.85949946542
1444, 1061.8204651945, -214.36900865667, 1213.5543577403
1445, 1219.7254923842, -231.46994935176, 1054.7283030458
1446, 1277.2841444605, 3456.9042575928, 984.24033501829
1447, -1073.4743860671, 2795.3358012299, 1203.2486520737
1448, 863.39911766882, -198.71623115009, 1361.8782134224
1449, 616.32067337832, 105.46680572292, 1490.0711842363
1450, 625.64189349611, -189.2663400008, 1486.1816021563
1451, 314.13059985929, 35.087885898594, 1581.6067246576
1452, -1509.0326018838, 26.001495772218, -568.31379361005
1453, -1447.8611555293, -105.08011311601, -709.82809227576
1454, -1379.9832170163, 16.178578704385, -834.14760905588
1455, -1533.0749170996, 6297.7740838005, -499.84194385875
1456, 1062.5503974929, 3866.2022260728, 1212.9153131592
1457, -1507.359185215, 4675.7391251982, -572.73745545853
1458, -1321.6391669602, 1719.6795089452, -923.80990749668
1459, -1417.9781677485, 1908.6386182622, -767.78566417818
1460, -1499.9294247593, 5220.9716808492, 591.9217645633
1461, -225.20320128728, 3693.3289615494, 1596.6965561546
1462, 1051.1158838138, 2619.7714934637, -1222.8376495713
1463, 851.47002652524, 2890.4881623721, -1369.3680006089
1464, -1553.1538643383, 1673.4868944393, -433.44446071616
1465, -1494.4105668799, 4085.8971421488, -605.71983712726
1466, 365.57083430648, -197.73341800406, 1570.5147203258
1467, 54.228140374665, 10.634188094631, 1611.5878592876
1468, 105.19684015491, -210.80093101715, 1609.0649143442
1469, -196.27937029951, 0.12650272829774, 1600.5095124483
1470, 381.07868039759, 3551.7718157846, 1566.8241064688
1471, -1483.1955348397, 1580.4783215048, 632.68481459072
1472, -1492.0861087982, 2132.934470275, 611.42327905721
1473, -1570.9218642551, 5643.1319061399, 363.82065855305
1474, -1522.9374006969, 5885.2872715542, 529.92647568986
1475, -146.64522648223, -217.5169742392, 1605.817967334
1476, -434.46815086575, -5.3155344217487, 1552.8665225624
1477, -387.34513002032, -220.49305363581, 1565.2861193013
1478, 1612.167576253, 1145.4785374267, -33.255334865405
1479, -23.885247142414, 3487.6376958366, 1612.3230208684
1480, -799.09485310385, 4805.8344489564, 1400.5727396625
1481, -796.49728680241, 4549.0664150996, 1402.0515931131
1482, 508.9702269382, 2187.4372365993, 1530.068706772
1483, -14.156925644407, 1898.7242805991, 1612.4377856866
1484, -99.849994895725, 1678.8064907833, 1609.4054987375
1485, -1514.2647959465, 848.38658009477, 554.22221070708
1486, -1474.7012146954, 631.53082439377, 652.23852747572
1487, -1551.47748456, 1045.0635017016, 439.40712907599
1488, 768.19220968995, 3405.921588818, 1417.7616575285
1489, 88.786990660971, 1492.0990554467, 1610.0537523488
1490, -170.00610722598, 1492.6153262327, 1603.5130635353
1491, 1075.1904674087, 6507.1416504237, -1201.7249222725
1492, 1188.134607205, 6290.9606986517, -1090.1913691967
1493, -1095.9885512638, 3243.5825544687, -1182.7778853037
1494, -1446.2952478612, 5911.8271968404, 713.01321896601
1495, -1470.0247977072, 6099.4064787779, 662.7108714741
1496, 1464.5321124751, 828.49256821873, 674.78450695972
1497, 1514.0230556288, 1056.2463016483, 554.90850435883
1498, -1082.8676245838, 5238.75392867, -1194.8021681991
1499, 1291.4790565513, 173.58019183194, 965.53927067554
1500, 344.58555981273, 1294.6219775356, 1575.2520536483
1501, 1612.4831361622, 4053.3905381293, 9.3993732038714
1502, 1544.7522416919, 4269.7082363924, 462.52586353171
1503, 1601.7685141797, 3841.466791758, 185.81653732771
1504, -656.04409138461, 5010.5532706249, 1473.0116326654
1505, 75.041487093216, 2163.9990018449, 1610.7529133588
1506, 190.11565325283, 4323.3601222998, 1601.2534969667
1507, 528.90304001512, -216.32286011109, -1523.2934444595
1508, 752.15307287678, -220.95925054414, -1426.3354011154
1509, -1.9122093075128, 5865.2148399825, -1612.4988004085
1510, -1532.6247108113, -103.85292816317, -501.22066491507
1511, -1506.1668473106, -265.1240643617, -575.86569128985
1512, 1611.7355053735, 3423.0081647651, -49.988698658719
1513, 1606.7679511, 3179.0796125862, -135.96667504246
1514, 1214.6162046652, 922.01653367087, 1060.6080259932
1515, 1595.3273562854, 4322.772124335, -234.77807851524
1516, -414.5887160623, 6461.6572414313, 1558.2917432654
1517, -369.57245610877, 6299.037015373, -1569.5773418612
1518, -512.87696480545, 6514.9313919875, -1528.7623675254
1519, -390.03322310671, 6742.5191239807, -1564.6184767068
1520, -713.69453404654, 6733.7379358916, -1445.9588785188
1521, 1532.5950185031, 4340.4465260123, -501.34022745767
1522, 51.701977084191, 6727.1423378896, -1611.6708781248
1523, 282.46621126684, 6725.8923858069, -1587.5674332165
1524, -753.54651227324, 6510.7266315383, -1425.5961785073
1525, -935.64709939838, 6717.0498801144, -1313.2860122642
1526, 738.48695480227, 6723.8300883411, -1433.4585962964
1527, -1487.4971212841, 2884.9831432843, 622.50424507963
1528, 1420.2987205715, 4279.8944263208, 763.50447692223
1529, 4.3062976502586, 5641.5255580824, -1612.494185566
1530, -1522.7195918598, 3274.3414482884, 530.55200903062
1531, -441.7949541504, 1879.2842398095, -1550.7979387745
1532, -218.61174743399, 1864.3842342417, -1597.6123617902
1533, -1526.4662626321, 5884.8971101998, -519.6741725721
1534, -1543.2927608065, 5713.5018179356, -467.34178610159
1535, 1320.8245030409, 5221.5260975154, -924.99064732216
1536, 776.99377896087, 2134.2877835263, 1412.9572943188
1537, 1552.7978178385, 6927.7050513998, -434.75129647538
1538, -1375.1757848467, 4372.5310785872, 842.04950218264
1539, -1477.3928187065, 4355.8431867026, 646.11866052526
1540, -508.68273896201, 5988.2067996718, 1530.1630707659
1541, 1210.8009243376, 2180.57772547, 1064.9614597181
1542, -656.93098037169, -7.3919826961487, 1472.6163129327
1543, -614.82176968199, -220.47106464892, 1490.6882202132
1544, -1494.3361273741, 1771.5481464705, 605.90345709511
1545, -1395.9778325357, 1779.0737644736, 807.09491122088
1546, 1510.5367802947, 5848.8658686382, -564.3295540097
1547, 1516.7591495029, 5644.6877326133, -547.38558884298
1548, 1608.3779592873, 910.35780465355, 115.37128553948
1549, -140.12978676936, 235.34899623628, -1606.3996375596
1550, -247.63070383412, 447.08252522546, -1593.3723600339
1551, -1501.0558243839, 3126.9691957448, -589.05950915669
1552, -1519.9660856573, 2921.8764905817, -538.38964177016
1553, -659.20152382781, 6751.9478688453, 1471.6013266417
1554, 1456.9891320847, 1651.6318203506, 690.92037567725
1555, -1533.702277299, 6680.8088252653, -497.91365742437
1556, 1153.2040618769, 2421.6631400367, -1127.0760054969
1557, 1273.732942314, 2518.00392972, -988.83168923266
1558, -1375.5953003388, 6782.9871495193, -841.36400116347
1559, 1612.1991625473, -255.61271399344, 31.687089508075
1560, 1610.0124404277, -34.33285408655, -89.722589025142
1561, 1601.9174587422, -324.04771603045, -184.52808669446
1562, -1461.376053764, 4160.8853178601, 681.57049064553
1563, -1552.2602454165, 4123.6968633919, 436.63388418961
1564, -1511.881627786, 3918.1786182882, 560.69064392677
1565, -1234.2375114899, 4213.6408921091, 1037.6954667449
1566, -1102.0935512332, 4252.0537731777, 1177.0914145467
1567, -1433.4389875524, 2893.6172675646, -738.51882077179
1568, -1454.2353615839, 2634.5804537081, -696.67608917232
1569, -1542.2921588096, 2708.1131663839, -470.63337005205
1570, -1515.7827232591, 2440.8166087769, -550.05719240858
1571, -1406.071871234, 2427.0049261752, -789.3785315258
1572, -1469.2421353662, 2322.7496259494, -664.44422286905
1573, -1540.9049381434, 2319.8907111758, -475.15557128144
1574, -1519.1586505595, 2205.8394219099, -540.66373827065
1575, -1563.3591935443, 4086.7856132181, -395.05580305851
1576, -1545.8604517274, 605.22843754043, 458.77706805703
1577, -1530.6245274994, 413.65239541366, 507.29593348517
1578, -1578.8891655429, 436.05443030365, 327.52063338299
1579, -1522.0542157458, 204.71668325894, 532.45782417104
1580, -725.91835196859, 3595.5939290067, -1439.860920039
1581, -1561.7028899213, 506.28795572105, -401.55341371607
1582, -1560.9171864304, 291.77539458146, -404.59683447301
1583, -1417.8384960267, 2194.4398259933, -768.04355698895
1584, 1380.1479534015, 2233.5352338198, 833.89342137842
1585, -586.93432393491, 2482.3857139139, -1501.8872442145
1586, 650.99536271487, 2329.2352407778, 1475.2522513271
1587, -1551.4957024584, 3361.0474762149, -439.34279967836
1588, 1489.9313690075, 4443.088350735, 616.67933517354
1589, 1410.4498407106, 605.15225813492, 781.54882774909
1590, -1560.6855853743, 1268.1254342888, -405.4892909346
1591, 147.65750278747, 6892.8206245082, 1605.7252967883
1592, -568.1210451425, -434.60783227923, 1509.1042622255
1593, -1548.1914357721, 1320.5512866937, 450.84836427458
1594, -624.86201612119, 3794.5394638588, -1486.5075273005
1595, -402.55806410149, 3775.9546005055, -1561.4429010087
1596, -531.62259670747, 3996.0182110247, -1522.3450962103
1597, -306.60777482714, 3981.3387344327, -1583.0819010453
1598, 4.6806658942822, 2072.7802086865, -1612.4931424266
1599, 99.181296111878, 6937.9471308771, -1609.4468993311
1600, -1367.6416404732, 5172.7887351407, -854.2318083738
1601, -1490.1999979405, 5257.1343033614, -616.00591085908
1602, -1502.4080638669, 5055.2453708557, -585.60203980978
1603, -349.04828448192, 2493.780239836, -1574.2687395165
1604, -107.982001532, 2501.3984410904, -1608.8803499754
1605, -1440.3152750314, 210.41188233397, 725.01690149641
1606, -1563.6767152922, 1770.7050807081, 393.79713585667
1607, -918.70199802027, 3203.5597304045, -1325.1952367647
1608, -989.85457002336, 3027.944921997, -1272.9269975866
1609, 1046.2246860037, 3476.045183931, 1227.0249629751
1610, -86.308502179517, -434.51207891483, 1610.1884689041
1611, -1564.950373653, 2105.0742183763, -388.70473998227
1612, -1539.9334628324, 1894.6282061606, -478.29463280508
1613, -1271.7922759491, 6864.7831157, -991.31161350648
1614, -1252.9301762617, 6684.9219140898, -1015.046878563
1615, -1119.995751107, 6908.831480027, -1160.0706067174
1616, -1546.3163625347, 6069.8412070492, 457.23806551801
1617, -1478.0248116924, 6287.297152773, 644.67165485326
1618, -1467.6836315033, 6490.436530925, 667.87969049899
1619, -1385.1052967076, 6473.8045297219, 825.61452923293
1620, -1433.9613203784, 6704.5035510148, 737.50412050895
1621, -1289.1035853666, 6641.0239011278, 968.69313971407
1622, -1519.7916074492, 6746.3582855944, 538.88196534275
1623, -1556.6582919579, 6263.2097394656, 420.68517171827
1624, -1388.0026249484, 6927.8608677614, 820.73431588475
1625, -673.80630268689, -406.59191545098, -1464.9717226
1626, -874.8580198139, -456.54342933098, -1354.5403453892
1627, -969.91418867569, -247.68539697094, -1288.1854827333
1628, -1133.0312370047, -387.29788747954, -1147.3423412773
1629, -424.04135606362, -387.53356452117, -1555.7460954407
1630, -998.19700072769, -512.34514675567, -1266.3956300826
1631, -464.69150372178, 4201.1710816359, -1544.0916050121
1632, -237.03471683574, 4190.3905130614, -1594.9830573729
1633, 406.20100800631, 6901.0722254721, 1560.4998749266
1634, -929.30183952145, 7148.5974615998, -1317.7836641362
1635, -966.24232555162, 6501.8564716853, -1290.9419697047
1636, -1554.2784874362, 4342.5051981134, 429.39424752703
1637, -1592.9826069464, 4175.4059369271, 250.13259149719
1638, -1210.5686507545, 1242.4823346301, -1065.2124729721
1639, -1135.213056257, 1024.9267203389, -1145.1836268915
1640, -1504.2024463005, 3886.8448463352, -580.97745292748
1641, 1585.2572047043, 4113.6387592319, 295.21118739899
1642, 1610.9578679177, 3679.2198620739, -70.74569610993
1643, -1417.7900357888, 3881.5570362804, -768.13300882729
1644, -1569.667793585, 3695.1610934616, -369.19373444293
1645, 1596.1426719857, 3312.9114947556, -229.16957843993
1646, 420.55218462444, -427.42224190847, 1556.6936776576
1647, -243.30793372629, 223.76197550232, 1594.0381673884
1648, -1265.3836414044, 1891.1284600143, -999.47911645165
1649, -834.56635137022, 2678.3419224684, -1379.7301830471
1650, -1561.8868788118, 5308.7789872134, -400.83717131776
1651, 891.47887715093, -426.9426179055, 1343.66536611
1652, -964.19695720633, 5093.7409558023, -1292.4703652208
1653, -1348.8658830275, 680.23344282182, 883.58140519321
1654, -1478.8569126879, -448.95925614243, 642.76056795853
1655, -1041.3364995219, 1272.432638557, -1231.1673738211
1656, -719.84010694385, 5056.6838249616, -1442.909271345
1657, -186.5335667453, 1801.7608830252, 1601.6745901076
1658, -1198.4155627545, 5215.3148447608, -1078.8670937289
1659, -204.40324993335, 6082.7681756071, -1599.4923022186
1660, 247.98132444856, 5866.3784976051, -1593.3180609655
1661, -1365.3136665406, 4318.7490205871, -857.94765708228
1662, -647.05631202064, 2892.5843938329, -1476.9818093714
1663, -721.43440407344, 6953.2204833695, -1442.1128041204
1664, -111.76132683019, 1280.0944210903, 1608.6222381727
1665, -402.26404510541, 1363.6189610282, 1561.5186727305
1666, -1507.6438299188, 4863.3245419969, -571.98776010332
1667, -1566.2906892137, 4897.2808537423, -383.26820013586
1668, -1329.5035065347, 5540.0724276079, 912.45568309728
1669, -1456.8013285679, -590.473182573, -691.2944643203
1670, -1164.9485467422, -643.7534085117, 1114.9210733804
1671, -966.74911085139, -644.23904830659, 1290.5624949721
1672, -1006.0194123277, -420.2995570981, 1260.1904712505
1673, -145.63683838624, 2715.3556239249, -1605.9097346259
1674, -204.58191621289, 4403.9411122519, -1599.4694600106
1675, -546.93883976481, 4544.0429188277, 1516.9097185015
1676, -746.56131908744, 4324.6420504696, 1429.2666082434
1677, -685.24321660124, 4114.9279112814, 1459.6570784901
1678, -874.23624140762, 4099.9309146615, 1354.9417333354
1679, -473.71378537457, 4115.4872985817, 1541.3475745168
1680, -1242.7416725954, 6918.2895038805, 1027.495635782
1681, -1494.7051315061, -233.25648375343, 604.9925979797
1682, -1509.6099164595, -15.069930810733, 566.77851112867
1683, -1563.5717047418, -277.86461064834, 394.21387440297
1684, -1472.0704847041, 5470.2890104242, -658.15436249657
1685, -1195.5291823704, 5418.9402577839, -1082.0647124829
1686, 255.1390700638, 260.40760310505, 1592.1875835493
1687, -513.6745523968, 1561.7916520251, 1528.494557592
1688, -1533.6234506006, 3507.0238547173, -498.15639661783
1689, 828.32516979377, 2684.7126408475, -1383.4907361804
1690, -1340.2053478995, 7150.5437307117, 896.66311624793
1691, -1058.5611762281, 6930.781917446, 1216.3892949792
1692, -1490.7439400848, 6955.355079792, 614.6884090955
1693, -1571.736003752, 6791.274684103, 360.28723904762
1694, -1329.1555734857, 7091.3071579268, -912.96243280221
1695, -976.64189512582, 2983.9940400355, 1283.0923294468
1696, -446.18121093101, 3911.8003850148, 1549.5416630508
1697, -1492.4555346569, 1107.4781959891, 610.52098428336
1698, -1574.4055220503, 6468.9146459261, -348.43672709475
1699, -1573.3575596911, 6263.0573903743, -353.13866291703
1700, -1570.5366187154, 6072.1443096258, -365.48011042644
1701, -1497.8065241068, 6151.691920229, -597.2731349972
1702, -1337.0521322233, 3882.8821729314, -901.35823181757
1703, -1451.2150858674, 4962.5799339786, 702.94575382095
1704, -1548.6954702298, 5004.5426236537, 449.11392405883
1705, -1554.4561377529, 4750.2895869633, 428.75068919818
1706, -1576.1928774213, 5149.897760493, 340.25999589379
1707, -1557.6054785197, 5283.2266662528, 417.16451084805
1708, -1556.0783436755, 4541.3163099699, 422.8253029965
1709, 1532.1227398991, 1565.8359767476, 502.78168050282
1710, 1487.2849577602, 1365.5692552453, 623.03474786138
1711, 1564.4140474384, 1763.3885695262, 390.89456370747
1712, -1560.6105049577, 1490.3346058984, -405.77815772783
1713, -1582.3590911629, 1129.1420055511, -310.32293469561
1714, -1594.1627289937, 1690.7846486467, -242.49738278414
1715, -1524.3162202325, 1067.6114427776, -525.94723752664
1716, -1551.0091975079, 881.10207878791, -441.05722333224
1717, -1596.8329489926, 932.28580921074, -224.24102098873
1718, -1498.2698845674, 3408.9622536516, 596.10984764299
1719, -1520.0148716731, 3677.176128419, 538.2518920337
1720, -1198.2414495845, 837.55579048739, 1079.060468888
1721, -1563.1900492971, 3501.445386099, 395.7245582947
1722, -1583.3224496504, 3665.1540928167, 305.36959677477
1723, -1568.1312701387, 3823.3513100602, 375.66652291735
1724, -861.88510387089, -7.0201882887491, 1362.8317065425
1725, -1563.9094684288, 4489.3871582768, -392.87176989227
1726, -714.52647821298, 2680.2193099356, 1445.547949875
1727, -911.22421144412, 2720.4689238936, 1330.348176427
1728, -1006.811930082, 2507.2887130384, 1259.5573877203
1729, -808.3065279805, 2472.2128999548, 1395.2767066858
1730, -1083.4501361767, 2285.8835354261, 1194.2739686177
1731, -965.77399628746, 2040.4812853359, 1291.292373047
1732, -989.27065509284, 1822.2494602178, 1273.3808490156
1733, -1142.6926225424, 2065.6679312652, 1137.7204231975
1734, -1407.6622012183, 3753.5222733268, 786.53909257007
1735, -1558.0439058341, 1566.3778128944, 415.52406053361
1736, -1564.7891984775, 1962.5465022746, 389.35306891615
1737, -647.10552313348, 3923.0127264493, 1476.9602492908
1738, 38.595159180704, 4625.0382977684, -1612.0379963093
1739, -1160.2503683268, 5631.9165392762, -1119.80945363
1740, -1552.0934716378, 2309.9625930803, 437.22633948642
1741, -1594.5587562151, 2437.4254243283, 239.87938783818
1742, -1556.4504674487, 2657.8262136892, 421.45342914056
1743, -1562.7899539537, 3066.1249511787, 397.30167069432
1744, -1224.8519740258, 4205.0059147213, -1048.7572329639
1745, -278.14309110544, 1119.79697872, 1588.3302431842
1746, -495.57063939026, 5041.8338587941, -1534.459799004
1747, -1164.8910115002, 2083.4397493826, -1114.9811872421
1748, 377.68883228114, 1078.6844341493, 1567.6446786075
1749, -291.1962610558, 7146.7276314077, 1585.9890669314
1750, -114.94821467733, 6899.4472189478, 1608.3976537581
1751, 229.53421929415, 7133.5353777834, 1596.0799049621
1752, 648.4051357145, 6909.160273819, 1476.3925228246
1753, 319.92683434099, 1871.3911844138, -1580.4444800079
1754, 251.20977123463, 2079.6426030483, -1592.8122490902
1755, -330.02091063622, 7092.8377260553, -1578.3671649039
1756, -272.02480137854, 6935.2218503876, -1589.389514321
1757, -559.8363242978, -641.23618927561, -1512.1972372398
1758, -148.7843170248, -395.4868627406, -1605.6211876986
1759, -45.95816885832, -632.81873495532, -1611.8448677783
1760, 125.17872389492, -412.49511970449, -1607.6338650653
1761, 381.26196616019, -424.81438325294, -1566.7795176991
1762, -861.12997700019, 2996.9303502312, -1363.3089747079
1763, -467.47910301383, 4966.7616100063, 1543.2499383179
1764, -1223.6758608245, 3172.7541611405, 1050.1292668711
1765, 241.78405950569, 4177.1290180467, -1594.2702387199
1766, -1565.8893883146, 84.84264863642, -384.90448605641
1767, -1196.7155827858, 5615.9185861941, 1080.7524607228
1768, -898.70379609513, 64.149001377138, -1338.8380840783
1769, 1084.0135468063, 3081.9930522235, -1193.7722803047
1770, 878.3237815674, 3099.736685751, -1352.3010447773
1771, 167.02157575904, 1545.5392061012, -1603.8267889406
1772, -68.784095008744, 1490.66981532, -1611.0322135979
1773, -1484.061046733, 2686.9738524845, 630.65197162844
1774, 1600.6346198208, 2083.408647825, -195.34320032981
1775, 1546.1144138842, 2303.7485827535, -457.95185068894
1776, 1597.2536461302, 2517.4327711532, -221.29374560247
1777, 1535.7055371101, 2556.1845107243, -491.7296584206
1778, 1563.928942682, 2731.6922049918, -392.8309169462
1779, 1486.630036493, 2302.2237344198, -624.59584228558
1780, 1446.6852912384, 2446.186073217, -712.24276944919
1781, 1598.0967117503, 2735.168425924, -215.12098214461
1782, 1594.8002198672, 2994.9012488127, -238.33248877366
1783, 1539.4497417818, 2875.6589964268, -479.87924758413
1784, 356.57918415226, 639.21439727264, -1572.5805812047
1785, 1553.7575507272, 2087.3672434064, -431.30874876929
1786, -232.4269167091, 869.30419154297, -1595.6610305962
1787, 931.02429666833, -651.56106855607, -1316.573679894
1788, 1042.6231140756, -435.29177846841, -1230.0866936208
1789, 1219.9296139621, -432.57330111752, -1054.492206418
1790, 1144.3806951508, -218.5888252655, -1136.0336547188
1791, 1303.3195671724, -210.68949361139, -949.49601447385
1792, 1236.5670053318, 3.3649317607362, -1034.932188767
1793, 1368.7165329859, -425.8350470069, -852.52646927268
1794, 1431.1849410073, -190.33738013294, -742.89800142809
1795, 68.680854623023, 3753.5742169476, -1611.0366523499
1796, 1611.6471572643, 2964.5707419823, 52.760300958075
1797, 580.77215875, 7151.6854494471, -1504.2826101942
1798, 562.34847927701, 6937.5040559968, -1511.2664379504
1799, -1072.1094484889, 4556.0013760495, 1204.4649916239
1800, -779.53682418583, 7155.507619888, 1411.5519922225
1801, 1315.7121972495, 2017.5473748851, -932.24800234582
1802, -1245.1118481544, 1473.2186589493, 1024.6221945773
1803, 908.44280317673, 1940.2581373557, 1332.2550163507
1804, -1248.4024033164, 3270.5019279612, -1020.6104104237
1805, 1012.5125605769, 2146.158001085, 1254.9874624623
1806, -927.95797517253, 3629.0471503795, -1318.730336806
1807, 1456.560529898, 321.11330085272, 691.82346811781
1808, 1301.677869726, -650.49688398469, 951.74537167484
1809, 1386.3804880197, -399.99405694912, 823.49007583056
1810, 1484.6801811138, -437.07579919395, 629.21662278937
1811, 1527.5609000898, -646.87831575337, 516.47569684775
1812, 1426.252012217, 3044.8400449488, 752.32497535557
1813, 1364.0590023055, 3246.5924298483, 859.95886485744
1814, -1417.8088312315, -362.12597120541, -768.09831627397
1815, -1305.5813305929, -394.45416761676, -946.36780163305
1816, 796.26447413298, 4536.9215755226, 1402.1879728559
1817, 1612.206529493, 2502.6350730866, 31.310024797616
1818, 781.18093081257, 358.74881238046, 1410.6467047747
1819, 1325.6306777091, 3713.5176625495, -918.08959463619
1820, 1292.2207484753, 3500.1482028501, -964.5464194857
1821, 1132.2018373296, 3510.8165717545, -1148.1716931065
1822, 1176.8377108062, 3724.3431667382, -1102.376389471
1823, 997.15796915384, 3729.725952434, -1267.221639686
1824, 909.02198965391, 3307.144551991, -1331.8599012099
1825, 704.41689147879, 3315.8461935584, -1450.5041957323
1826, 664.25952650303, 3128.5596776161, -1469.3276659081
1827, 550.28932358197, 3316.7583729744, -1515.6989991267
1828, 948.41898407707, 3516.2125886106, -1304.0991148688
1829, -910.95468727662, 4831.0274710587, -1330.5327481232
1830, -1564.7781314264, 2514.5981217369, -389.3975441982
1831, -1588.564974114, 2723.0535677261, -276.80603098945
1832, -1574.1023836952, 2971.8453693679, -349.80365042969
1833, 791.49960344443, 3728.0381269168, -1404.8830764118
1834, 1595.5459614436, 5835.7890051207, -233.28781831312
1835, 1604.1019534513, 5714.8392798157, -164.46000843266
1836, 1607.8412277843, 5670.2235251602, 122.62453684486
1837, 1611.2649649725, 5531.8241040122, -63.367340063592
1838, 1588.5197644973, 5856.6971356116, 277.1191653428
1839, 1552.3864882505, 5694.1972405528, 436.21776615613
1840, 1505.6019558353, 5888.3241417832, 577.36633661196
1841, 1493.3942372243, 5537.1622016318, 608.24550627417
1842, 1339.8939892981, 5631.9172267388, 897.14529481292
1843, 1390.3847147889, 5361.8003110266, 816.71121165533
1844, 1286.9306294522, 5788.2114271511, 971.59336141306
1845, 1222.7552430782, 5538.8123001806, 1051.2144312274
1846, 1141.1272368853, 5754.2209361872, 1139.3016114867
1847, 1042.6011709931, 5582.0110151096, 1230.1052919692
1848, 902.41495822382, 5577.9023019368, 1336.345315457
1849, 898.66203706856, 5320.9603119757, 1338.8719058292
1850, 99.463964209771, 1227.3809179402, 1609.4294554651
1851, 609.54676374728, 6680.6755955436, 1492.854944887
1852, 834.27104940092, 6687.6686706874, 1379.9134772595
1853, 819.41273825655, 6462.7495805646, 1388.7878503693
1854, 1038.2743961977, 6690.1372387262, 1233.7594430328
1855, -321.68432126254, 6258.7303205674, 1580.087301171
1856, 494.69512806652, 5653.4019873248, -1534.7434281272
1857, 1165.6272935378, 4497.2003171076, 1114.2232046208
1858, 1245.8479304917, 4321.0768433552, 1023.741086977
1859, 1033.7781556886, 4389.8821221143, 1237.5292554805
1860, 345.51271653977, 2081.1801559682, 1575.0489564754
1861, 322.59331821895, 5150.2879503945, 1579.9023756937
1862, 385.7315271609, 5363.5102834845, 1565.6851529234
1863, 176.41020707209, 5234.7595986795, -1602.8212851512
1864, -746.03698154038, 4022.731648795, -1429.540368438
1865, 1559.0634343668, 3602.4762596884, 411.71716785591
1866, 1402.6698056134, 3945.2769394505, 795.42728298012
1867, 1207.8043087263, 4003.7666963499, 1068.3587628076
1868, -1269.0627947565, 1458.9763853794, -994.80345386607
1869, 731.6042500362, 5798.4196177823, 1436.9834918752
1870, -599.95997929897, 6295.8316658737, -1496.7315098831
1871, -480.23323153646, 212.18960364715, 1539.3287989315
1872, 116.90792726754, 647.53933261973, -1608.2564650832
1873, 1134.5594247397, 7141.3513500578, 1145.8421475806
1874, 1300.7597523723, 7136.3594557959, 952.99977414167
1875, 1380.9823195186, 6888.8481368827, 832.51093988655
1876, 1473.2282932034, 6810.8506338706, 655.58141712501
1877, 1426.8383244976, 6676.7797422428, 751.21240618754
1878, 1348.2602795621, 6683.3299967386, 884.52248259381
1879, 1247.3439161557, 6909.0102069529, 1021.9178438564
1880, 1547.3582111982, 7042.4790243826, 453.7314831534
1881, 1581.7040008784, 6782.8254251146, 313.69169044161
1882, 1607.5929477373, 7110.5216158897, 125.83760943378
1883, 1611.1132611101, 6869.3316808711, 67.113831019969
1884, 1018.9031570529, 7151.0513643299, -1249.8047000133
1885, 995.14301252002, 6935.9770727933, -1268.8045619609
1886, 1180.329629078, 6934.6781085315, -1098.6367831877
1887, 1200.8474621583, 7150.6455881776, -1076.172312347
1888, 1337.7895069459, 6933.9023261728, -900.28037937433
1889, 1294.4042993058, -649.04957664255, -961.61417988528
1890, 1591.8878103406, -646.52116206061, 257.06671626707
1891, -468.11730967562, 438.98337275093, -1543.0564699698
1892, -708.61125840773, 1072.0074460068, 1448.4567883497
1893, -120.20333991745, 3339.4893832384, -1608.0134548387
1894, 1478.9838066642, 7149.7273882799, -642.49171197596
1895, 1603.0041498923, 1384.3630905253, -174.83666916674
1896, 1499.6064864288, 1114.3100458241, -592.76422720078
1897, 1463.5537210863, 1390.8731615651, -676.90392710419
1898, 1394.5594326296, 1257.9976562795, -809.56219406747
1899, 1510.1354458993, 2316.8835725477, 565.40263462917
1900, 1470.7197496696, 2128.3946426663, 661.18981467895
1901, 1228.3794593833, 3937.9691912816, -1044.6368958102
1902, 68.304022068603, 5156.3909280071, 1611.0526728096
1903, 304.66089114437, 1509.8268215284, 1583.4580821006
1904, 1314.5268318935, 4796.0354728543, -933.91867905961
1905, 1162.9946598424, 5012.0308280155, -1116.9707571772
1906, 1156.0244279734, 4799.4388966274, -1124.1830567056
1907, 1528.7315619419, -635.51766034667, -513.00026889005
1908, 1482.9395929437, -408.47156056329, -633.30792867852
1909, 1524.308712226, -153.10201966201, -525.99653533525
1910, 1482.7679170213, 64.532326760065, -633.70976807415
1911, 1588.9182554745, -613.1918209, -274.82513393558
1912, -1247.1614589621, 2312.6889813433, 1022.126440402
1913, -1599.9322421123, 4091.172386164, -200.93762872643
1914, 941.65346558568, 1540.0844282314, 1308.9925887247
1915, 1504.0858798087, 837.98964263471, -581.30437727367
1916, -67.50332471111, 5175.7499056161, -1611.0863865905
1917, -812.62770500189, 2471.7615333663, -1392.7644163391
1918, -1005.3339532975, 291.92300709437, -1260.7373753505
1919, -708.22645159119, 5261.2975734393, -1448.6449798976
1920, 1583.4665429393, 2945.1311570374, 304.66989364378
1921, -524.88295464513, 5769.5137804045, 1524.681952019
1922, -1548.0890799885, 7182.6222479984, 451.19969897194
1923, -1548.1059012148, 7185.032378324, -451.14198074752
1924, -1551.0215728301, 6958.4627633908, -441.01370246601
1925, 135.41549427382, 3493.4864480006, 1606.8039858052
1926, -44.086480311587, 3295.62321541, 1611.8971470547
1927, -1573.2792939929, 1177.5034543, 353.48718613501
1928, -1593.972231263, 1022.1432069404, 243.74644977271
1929, 1283.7626185311, 858.2052982022, -975.77535937165
1930, 1228.7498541347, 1119.5373031846, -1044.2012008265
1931, 998.8836270084, 1132.0194396673, -1265.8618634126
1932, -1602.139392891, 3250.1135419369, -182.50519821074
1933, -1599.5034031083, 3042.4532847656, 204.32335208992
1934, 8.7630801232704, 241.85969627567, 1612.476125462
1935, 1606.4953348437, 6431.389007001, -139.15072094088
1936, -1062.154466067, -23.542989882612, -1213.25287772
1937, 1361.8303019122, 1321.0334137751, 863.4838638754
1938, 1601.0573672933, 6559.1558000324, 191.84749451511
1939, 970.70667545663, 1378.8090724034, -1287.595574368
1940, 915.58593120101, 2112.923755244, -1327.3561659059
1941, -1602.139392891, 3672.4212342446, -182.50519821074
1942, 1612.4960473331, 269.10661277442, -6.834472667812
1943, -448.10114406564, 1496.4566667513, -1548.9875427349
1944, -1256.283287885, 4496.5027448618, -1010.8939165213
1945, 254.83210464765, 856.88293720574, -1592.2367417779
1946, -210.88408267983, 4624.8061615777, -1598.6507547655
1947, 462.65656436984, 330.7340126191, 1544.7035208102
1948, -1042.5640490325, 4755.7751284088, 1230.128042944
1949, -1602.1319605431, 4728.0769230769, -182.57043522162
1950, -463.6861559701, 872.06935106559, -1544.3938050329
1951, -1187.5141063309, 6288.9440030324, -1090.8548579853
1952, -745.10080387839, 5760.8276639485, 1430.02854476
1953, 1470.1342746944, 2535.6496910837, 662.49057112828
1954, -1289.7811611954, 3077.6929742458, -967.79079113075
1955, -1556.3918882419, 6511.9375481488, 421.66970540842
1956, 1266.7682060312, 3085.9601005211, 997.73835409602
1957, -1398.7538170017, 4071.3187037165, -802.27435225053
1958, 1186.8992210985, 2533.8517593842, 1091.5361952411
1959, 755.29972563276, 4594.6862461606, -1424.6716593649
1960, 959.72468135376, 5439.7369998224, -1295.8016756308
1961, 478.04158499198, 4140.1069128502, 1540.0118790703
1962, 792.15257610394, 1727.0093224523, 1404.5150039855
1963, -1602.1319605431, 5150.3846153846, -182.57043522162
1964, 860.28076366265, 3947.7693949465, -1363.8501432715
1965, 92.783589082754, 2474.9212664559, 1609.8283865776
1966, 1514.7908479278, 4109.4067339837, -552.80915270325
1967, 1445.9739451737, 5219.7846520926, -713.68580633037
1968, 795.09019443768, 1442.3952055299, -1402.8541518322
1969, 568.22930394816, 3484.0321738526, 1509.0651566918
1970, 1612.5029226704, 4581.7784403307, 4.9534928559274
1971, -328.39855236101, 3082.0969463636, 1578.7055122163
1972, 1240.8892547534, -33.617246945726, 1029.7458834849
1973, 436.98247827574, 6512.5718533954, -1552.1616961153
1974, -1046.7620245221, 804.45596467382, -1226.5577976782
1975, 1083.538232819, 997.25498175871, 1194.2037133257
1976, -1154.9748498307, 3357.4084242144, 1125.2498577644
1977, -1602.139392891, 5572.5787657554, 182.50519821076
1978, 1322.7968086876, 1490.2939026712, -922.16794711855
1979, -1602.1319605431, 5783.8461538462, 182.57043522138
1980, -475.71251453415, 3501.9637203109, 1540.7318725778
1981, -1602.139392891, 5783.959695783, -182.50519821075
1982, -1602.1319605431, 5572.6923076923, -182.57043522174
1983, 929.25612802511, 866.85801369157, -1317.8222512396
1984, 836.53607620066, 3054.5294651793, 1378.5415671433
1985, 955.5428547998, 6080.843406747, -1298.888432482
1986, 1149.39457528, 4586.3236527963, -1130.9606162826
1987, 772.4652729762, 5019.4971773814, -1415.4380651762
1988, 1598.5607661325, 187.90878653511, -211.64502556727
1989, -865.30747105839, 4615.2428727675, -1360.6612912757
1990, 784.85240092516, 205.04640715042, -1408.6073230212
1991, -1283.7301553522, 3005.0159697453, 975.80289610271
1992, -1140.2170636887, 6225.9041677412, 1140.2014070833
1993, 763.78941735106, 4807.7508417281, -1420.1383684535
1994, 248.94485627523, 5802.6873222665, 1593.1678028134
1995, 379.40798104423, 3049.6357842442, 1567.2294985226
1996, 1462.1753621075, 6932.3657391101, -679.87616932514
1997, -1398.9998253881, 6118.1917613795, 801.84529173519
1998, 1430.7625822129, 4356.666398716, -743.71110003041
1999, 611.23308267458, 481.75140281206, 1492.1653067574
2000, 1045.0165977111, 1767.2211557006, 1228.0539984495
2001, -1171.4473340359, 631.19927466995, 1108.0908104073
2002, 367.68435718721, 6445.3921522807, 1570.0212624259
2003, -817.52077524108, 1951.6333706059, -1389.8979313406
2004, -222.5091507644, -167.471110532, -1597.0742137002
2005, -780.9144675139, 1212.6053623622, 1410.7903013686
2006, -1238.2695458088, 5361.3812484984, 1032.88075867
2007, -117.24372014701, 2458.7100449826, 1608.2319542654
2008, -1412.772268466, 5668.7867496581, 777.32314879326
2009, 245.67196394783, 4106.593169002, 1593.6757656646
2010, 221.0196197204, 1069.4822324631, 1597.2812148264
2011, 166.93394675137, 4527.3967954035, 1603.8359119908
2012, -570.56026269506, 5143.6919273282, 1508.1837365215
2013, 1346.9795152377, 6476.3925081574, 886.47163269784
2014, 1144.9922884806, 713.08825376821, 1135.4172447064
2015, -808.59856388372, 5077.6460609673, 1395.1074841036
2016, 1536.4064726051, 4567.5167095196, -489.53520132998
2017, -744.40883088508, 422.35567869896, 1430.3888779541
2018, -1274.9346538803, 960.36895764645, -987.26691426658
2019, 794.31245519375, 1257.7303688472, -1403.2946549862
2020, -964.66027669286, 1058.406692893, -1292.1245931065
2021, -604.4917955842, 1281.9356940416, 1494.9069722486
2022, 379.41521336565, 4527.8322405558, 1567.2277476775
2023, -1294.4923690916, 1610.1358119587, 961.48011522596
2024, -293.62655346891, 444.22253583182, 1585.5409291088
2025, -1602.6494051625, -543.62897439355, 177.97073688114
2026, -1602.139392891, -550.65568883232, -182.50519821073
2027, -1602.1319605431, -128.46153846152, 182.57043522166
2028, -1604.1876873892, 297.04287075929, 163.52460491282
2029, -1602.139392891, -128.34799652463, -182.50519821073
2030, -1569.2384358949, -298.66266786038, -371.01446523866
2031, -481.70508359026, 5863.6694225635, -1538.8688452711
2032, 1077.7772021067, 6914.420015524, 1199.4055693189
2033, -1300.003671011, 838.80910055761, 954.01520903829
2034, 1143.4053185671, 6077.4568080393, -1137.0153408735
2035, -1144.1067978224, -648.80346186371, -1136.2982973452
2036, 232.70158364114, 467.13322067725, 1595.6212020154
2037, -271.66120182709, 3557.4715759579, -1589.4517013894
2038, 1594.9260327138, 4562.4543172496, -237.48908916515
2039, 721.8076507783, 7138.3723538826, 1441.929185071
2040, 874.13889396353, -7.7283141095777, -1355.0099043921
2041, -436.8259544824, 6080.5683248913, -1552.204916297
2042, -1348.550677707, 345.2901635977, -884.0624038705
2043, -254.19012926601, 5427.5697330251, -1592.3391102495
2044, 971.51156697606, 4803.0393088902, -1286.9883896273
2045, -1151.9581483389, 5009.0062600979, -1128.3379727783
2046, -1450.7200080037, 411.76405310167, 703.9669026569
2047, 1298.0098603284, 6718.7430902699, -956.74177650362
2048, 1303.4609261594, 6073.2052322507, -949.30195073125
2049, -946.09238263329, 4299.1373977091, 1305.7812854781
2050, -576.50335624011, 652.1951594431, -1505.9220022456
2051, -594.74076406148, 1890.1971101618, -1498.8130689561
2052, -3.6363771433215, 4183.480840532, -1612.495833627
2053, -1602.3162234651, 3458.3267604962, 180.94605086036
2054, -901.05698153186, 5952.825268793, 1337.2554830447
2055, -1498.5162545238, 6790.9718755064, -595.49025255801
2056, 1452.2338214836, 6526.3351175941, 700.86027996717
2057, 75.883851626985, 1829.4269545384, -1610.7134494303
2058, -525.68541821254, 4763.3094908332, 1524.4054620655
2059, 873.98759465726, 4295.0393149953, 1355.1074962844
2060, -170.23113830382, 3764.375489449, -1603.4891897157
2061, 1582.9815329171, -98.664147106844, -307.17991376459
2062, 921.70222965205, 1255.2190708148, -1323.1164683703
2063, 979.32085592535, 5015.279551616, -1281.0561120419
2064, -1275.6739231191, 6508.4483322494, -986.31150213001
2065, -1107.9865292321, 3077.350416235, 1171.5460771686
2066, -55.093922269658, 2288.2481231474, -1611.5584677641
2067, 491.26815215248, 5868.2586841479, -1535.8438061119
2068, 128.59205475913, 5365.0199416268, 1607.3644440626
2069, -1364.5074858816, 206.84557111955, 859.22924449382
2070, -1602.1348742764, 6832.9647110716, -182.54486290772
2071, -1132.0800174222, 1696.7205497687, -1148.2809197157
2072, 34.609120277748, 5380.6381670797, -1612.128496656
2073, 1025.2648000657, 6465.2478748595, 1244.591393144
2074, -450.70826917403, 1695.3235352523, -1548.2309597658
2075, -1222.769869541, 1797.0838317271, 1051.1840627777
2076, 410.46688112468, 4345.059045264, 1559.3832514059
2077, -77.064568158678, 3972.9613260926, -1610.6573518419
2078, 1611.1997922521, 5270.7717802154, 65.003355936465
2079, -1278.4625439572, 117.14210520289, -982.6941961426
2080, 1527.2135980792, 6640.8100551895, 517.50175859979
2081, 442.25654568331, 5579.5905223679, 1550.6672287978
2082, -547.42525492672, 6201.3477065449, 1516.7342480066
2083, 1318.4710508595, -235.49189077415, 928.34211822957
2084, 976.47185038204, 5227.3427658477, -1283.2290251908
2085, 43.427954299155, 6083.067390179, -1611.915044176
2086, 1556.1080555783, 1280.574430292, 422.74993494583
2087, -1517.8455093691, -445.333593583, -544.33928107748
2088, -1569.4745325843, 792.65395229594, 370.01444598175
2089, -1599.6037762951, 512.07713812951, -203.53602631296
2090, 1577.8448206946, 986.34196128091, 332.55933876943
2091, 1250.7581057359, -432.56715799633, 1017.7363065601
2092, -1603.6240544969, 6398.4012737954, 168.96279272606
2093, -894.96304790889, 3158.8769537843, 1341.3415296555
2094, 1431.1668613413, 6066.3731179131, -742.93283041524
2095, 260.76418492402, 5646.0847564258, -1591.2760097247
2096, -1602.518986581, 2605.6703571912, 179.14133546888
2097, 472.37609830991, 3187.226703217, -1541.7590803387
2098, 1611.0776986833, 6342.4984206768, 67.962159184813
2099, -727.95089137226, 5966.1614529688, 1438.8343945436
2100, 1169.8668757156, 3280.078869501, 1109.7711333379
2101, 1560.1060732239, -374.65439289647, -407.74853714804
2102, 621.32184552206, 2927.4435147932, -1487.9928064893
2103, -355.73698120462, 657.86030084476, -1572.7708002743
2104, 1106.554284413, 1255.0053694344, -1172.9092030444
2105, 1160.6628171427, 5224.4381634975, -1119.3935857784
2106, 1322.7661706023, 5094.9008893952, 922.21189367442
2107, -1602.1770683915, 2208.9978121486, -182.17413960055
2108, 291.17295798515, -205.40367848297, -1585.993668382
2109, -229.57128945924, 1670.099062733, -1596.0743750044
2110, 1306.8802913547, 5434.0585555213, -944.58910669801
2111, 634.78051661191, 5349.630631908, 1482.3014048831
2112, 599.84187741592, 4404.1055011329, 1496.7807573343
2113, -1145.1312674648, 3055.587168533, -1135.2658550575
2114, -1039.7579149076, 4068.4161394029, 1232.5008307846
2115, 96.510925998715, 226.33449439111, -1609.6092329574
2116, 1435.0232124358, 5432.3586671689, -735.45648149477
2117, -452.8091345959, 3710.4063381547, 1547.617827801
2118, 949.55639443182, -648.56432740364, 1303.2711775741
2119, -93.237056356449, 3087.4541562268, 1609.8021378421
2120, 685.18180090134, 5575.1193804761, 1459.68865132
2121, 1174.2507834061, 3653.6835031996, 1105.1315376108
2122, 820.3107873949, 2494.4090856569, -1388.2576016941
2123, -994.07078171592, 7150.697762073, 1269.6371363935
2124, -370.7298085762, 6925.0439147499, 1569.3043824972
2125, -1206.7420022046, -113.76823969062, -1069.5456083432
2126, -1355.9280590192, 5992.3912952011, 872.70527728353
2127, 1278.8478014865, 1251.7310672785, -982.20780356914
2128, 1528.9564956123, 5436.9211039317, -512.32948562019
2129, -1206.5212268373, 2581.3098041095, 1069.7946519277
2130, 137.93140469538, 2506.2383600636, -1606.5899740765
2131, -121.99835926618, 654.58771926699, -1607.8782657435
2132, 1612.1649705157, 6640.2648605362, -33.38141771929
2133, 474.69508255795, -645.57978269271, -1541.0466771995
2134, -248.53379043795, 3491.7587035876, 1593.2317474373
2135, 959.48657965695, 2481.606172593, -1295.9779867329
2136, -1602.8601813626, 6428.6336431113, -176.06221381585
2137, -614.68587442841, 1731.4728464528, 1490.7442618572
2138, 669.2745534458, -424.39121623687, 1467.0501733261
2139, 780.14540075882, 5076.9655706013, 1411.2196481264
2140, 961.61328224958, 4081.6681289545, 1294.4007898956
2141, 1215.6129972483, 6687.7386101207, 1059.4654226269
2142, -1502.0506936781, 707.09475621558, -586.51806523527
2143, 1403.0343453981, 1152.6616105229, 794.78410912255
2144, 1350.1712863953, 883.45560244601, 881.60271723825
2145, -1018.804757456, 2857.1207385807, -1249.8767327565
2146, -22.97525184147, 1620.5881274454, -1612.3362448951
2147, -343.27738920418, 1679.6516000497, 1575.5371734756
2148, 1288.0823497385, 658.72305828289, 970.06597646783
2149, 1601.114170129, 6908.2907004732, -191.37285349116
2150, -280.97425106828, 3288.9755864984, 1587.8318613574
2151, -609.5450134991, 6396.5873056277, 1492.8536630903
2152, 492.6643652253, -648.92785728352, 1535.3965103797
2153, 879.36107327161, 6913.4100140715, 1351.6267669226
2154, -819.55457777719, 6291.0739484267, -1388.6996649337
2155, -1604.2557053188, 505.07471810521, 162.85592504949
2156, 223.37975153298, 3343.2716794785, 1596.9528662664
2157, 1405.1717898716, 105.22143137413, 790.99901672599
2158, 1017.0876931647, 5176.3735668434, 1251.2825399743
2159, 1561.5132089766, 7146.0762445877, -402.32616312943
2160, 1367.0522916466, 986.82322665529, -855.19256226424
2161, -294.32207330902, 1969.5996145899, 1585.4119686082
2162, 169.67573794852, -430.96513753242, 1603.5481706528
2163, -1140.4070617601, 6498.4071383625, -1140.011374393
2164, -102.72472234326, 2071.957701821, 1609.2245699396
2165, 1587.1874590571, 5461.8289575087, -284.6507232453
2166, 1090.8802619566, -431.47528427538, 1187.5007838649
2167, 1588.1487545002, 5495.2856335535, 279.2375421279
2168, -13.195237288401, -651.07779811781, 1612.4459424582
2169, 1594.5618948893, 5238.5070738804, -239.92181711323
2170, 1570.0422324652, 5842.1382650421, -367.6374745591
2171, -11.411865359338, 440.27496164546, -1612.459550419
2172, -823.05549084773, 3396.4974083804, -1386.6276007616
2173, -1569.2663460545, 5490.3908052089, 370.89639637721
2174, 1575.4732793444, 5663.2754928542, -343.61885600855
2175, 1465.2215038941, 985.08607112745, -673.2862665003
2176, -1605.1130864791, 4727.6588123337, 154.1759984937
2177, -1602.5782636985, 6818.9618901685, 178.61024454211
2178, 473.45102184494, 3265.730726292, 1541.4293333517
2179, 1484.2535278068, 5147.2699796816, 630.22238655319
2180, 1522.8092753882, 6052.0468892278, -530.32187936134
2181, 1268.0355556554, 5379.0642730345, 996.12718988404
2182, 1545.4613704621, 5323.4970898266, 460.15087011181
2183, -1604.050823147, 4329.4710946727, 164.86180378472
2184, -502.38203725672, 6587.3778391937, 1532.2432679229
2185, -1575.3643688193, 5889.4230769229, 344.0755451553
2186, 1091.8248166976, 5435.416707817, 1186.6324026258
2187, -330.10466435386, -435.44402860306, 1578.3496505985
2188, 1430.9300102537, 6716.1005654458, -743.38891319617
2189, -700.27965730337, 206.94928165112, 1452.5031535904
2190, 1016.2365261369, 2349.3505522783, -1251.9739073518
2191, 1354.7802252489, 2334.3740482779, -874.50358185999
2192, 1556.2122088782, 937.19425376665, -422.36636959228
2193, 1592.2589367852, 682.4066060198, 254.75788122302
2194, 1593.7260815993, 1049.8813603829, -245.41248208221
2195, -511.12990422402, -650.37147681497, 1529.3473693748
2196, -1356.9250448662, 6285.7237019736, 871.15431707441
2197, 1610.2010090018, 817.10756862283, -86.272317755004
2198, -870.9582509405, 6742.1740796397, 1357.0511614371
2199, -818.2972002706, 3918.0164117146, 1389.4409540875
2200, 669.95215012001, 3176.5535028906, 1466.7408677777
2201, 1237.5620927997, 2232.5733152459, -1033.7420815563
2202, 391.67849797854, 2363.3561650756, 1564.2080588668
2203, 1343.856687492, 6286.3891953856, -891.19857002811
2204, 1380.0845557081, 2632.1975352028, -833.9983387539
2205, 620.20885555117, -432.28274360816, -1488.4570454977
2206, 1470.2837237277, 2756.5752907363, -662.15883058716
2207, 1557.7924869392, 3192.3372345947, -416.50014800775
2208, -724.68406709259, 7161.7698006508, -1440.4825338235
2209, 933.39232220523, 3262.6583810942, 1314.8959451201
2210, -1570.1292246563, -58.686017578109, 367.22636947787
2211, -1605.5651621269, 1568.335168882, 149.3943773447
2212, 1118.1775496924, 4198.7779953034, 1161.8337826101
2213, -1565.3515081513, 4694.7086022765, -387.08616608446
2214, 1494.9365561611, 3061.2570814, -604.44492035608
2215, -1605.2324266652, 5150.3846153846, 152.92838859709
2216, -1578.9534928584, 3991.4021977651, 327.21037175065
2217, 842.26558557248, -435.42343708637, -1375.0484796722
2218, -517.08242922616, 7008.2260381217, -1527.3450572174
2219, -1399.9781507294, -217.90623787816, -800.13598005298
2220, 1133.6344731452, 6720.6995566679, -1146.7572393883
2221, 1577.5325123795, 3524.0582745582, -334.03766524077
2222, -1041.5683645212, -3.8339568254744, 1230.9712213866
2223, 1605.7927324268, 3583.6023440193, 147.03700511922
2224, 98.409999267611, 7150.8154429167, -1609.4942437023
2225, 1603.4903408231, 4007.8999632743, 170.31997830751
2226, 783.64880667996, 6937.1247165607, -1409.2772593095
2227, -178.28860580792, 6728.7791863543, -1602.6133081568
2228, -44.988111755113, 23.500238724401, -1611.8722345547
2229, -1319.0611230991, 2065.4782610247, -927.48722404391
2230, 510.00154708354, 6724.9094426692, -1529.7252635168
2231, 1246.1034306838, 6504.4689493688, -1023.4300791562
2232, -1564.678624526, 5102.6821810376, -389.79719163124
2233, -1211.0958353985, 6412.0861355904, 1064.6130511586
2234, 1610.6509551523, 4307.4080901435, 77.419022019157
2235, -1558.9705389382, 2858.9460110918, 412.03388040397
2236, -1487.6909362849, 3786.4462117743, 622.04091979152
2237, -1567.5544299873, 5928.8533575611, -378.06630718081
2238, 1539.7365415198, 4619.3641618077, 478.95822982247
2239, -1604.1127283694, 1528.9082479638, -164.25833640501
2240, 4.757476175197, 2288.9152069687, 1612.4929176565
2241, -840.72881205128, 6944.834033166, 1375.9837928135
2242, -1557.7268148474, -486.37309218566, 416.71120285904
2243, -1604.2134887027, 2576.6968148843, -163.27127961148
2244, 1326.4037609165, 4137.533831212, 916.97234506714
2245, -1604.0447280544, 2867.0649357579, -164.9210995778
2246, 1347.7980969565, 4458.0907033384, 885.22657064744
2247, -828.28974030685, -216.07613769343, 1383.5073249588
2248, -1577.9227247128, 6727.7412525175, -332.14555757854
2249, -1475.7944249128, 1811.3912123106, -649.76120480149
2250, 236.43339483647, 2260.0904317254, 1595.0725152408
2251, -1071.8819100786, 6706.5608732781, 1204.6674885597
2252, 1166.5224067144, 216.52022610523, -1113.2860553252
2253, -1604.5904247464, 1174.9151691951, 159.52406485757
2254, -1559.6279033876, 2142.9870745396, 409.53859883005
2255, -609.64316500434, 6944.4773778443, 1492.8135831942
2256, -1606.4165022999, 6206.1538461538, 139.94289974227
2257, 769.833498742, 2504.7776077613, 1416.8711377632
2258, -1572.0418598193, 715.40144044114, -358.95033788144
2259, -930.6820111175, 6932.0136382817, -1316.8092791998
2260, -1606.2384280699, 4298.083341689, -141.97233502302
2261, 1067.8199414236, -4.4563113704141, -1208.2787983066
2262, -1432.9504935552, 3966.207722751, 739.46619080734
2263, 521.44000765854, 2491.9404121154, 1525.864184252
2264, -1566.6879012282, 3266.3338069248, 381.64126190846
2265, -1606.25848325, 303.22853594028, -141.74523797954
2266, 1606.6116731166, 3544.0126273956, -137.80100294775
2267, -1606.6825316447, 3672.3076923077, 136.85459197769
2268, 1426.5100392636, 4615.3500133664, 751.83560989819
2269, 1375.9873441733, 27.60473794661, -840.74094585977
2270, -1495.8017329776, 1954.1380954758, 602.27625517923
2271, -1569.7068995606, -110.37297736276, -369.02743075116
2272, -1376.9969236174, 2300.0490490027, -839.06812403547
2273, 960.02784098516, -220.71347729099, -1295.5770919544
2274, -1564.4406088763, 3178.7085876098, -390.75136775675
2275, 1581.9025311322, 4467.0852165997, 312.68899340858
2276, -123.24808391373, 6933.7648345943, -1607.782954635
2277, -1322.3807872085, 2671.5714235354, -922.74801374757
2278, -1606.9912706054, 1983.0769230769, 133.18004800553
2279, -1476.360946571, 2059.3233736054, -648.47296264635
2280, -1402.4329031373, 1953.2406948203, 795.82562578329
2281, 892.0391178881, 2326.1625016826, 1343.2935028336
2282, -1313.9915127362, 2876.536796855, -934.65556999536
2283, -1309.9152805188, 2471.9916566126, -940.35984421184
2284, -1251.8559016092, 4385.3828198994, 1016.3714815445
2285, -1354.1322066591, 4187.2529910604, 875.48919738822
2286, -1555.1485088631, 5517.0885623305, -426.23251642786
2287, 1435.2394840748, 281.40902769412, -735.03434223182
2288, -1565.6024851597, 3883.9436918813, -386.06981311306
2289, 1571.8900108556, -385.408955136, 359.65502189402
2290, 1604.6780255215, -477.01282288654, 158.7406971568
2291, 943.63647566622, 6722.5760988149, -1307.563808778
2292, 1434.9741926054, 2412.4713471209, 735.55212047618
2293, -1607.2904916619, 6206.405540833, -129.51863609923
2294, -1326.9771955732, -181.06211709511, -916.12577307349
2295, -1314.4900914728, 1963.5847083943, 933.95424723414
2296, -1570.6309437561, 3561.5407136245, -365.0745386311
2297, 1419.0820665367, 1939.3344823415, 765.76341236555
2298, 1517.2553109799, -284.12724231873, 546.00881753788
2299, -1147.5653973215, 4384.8896254912, 1132.8052926327
2300, 1103.6735607888, 2343.8602230347, 1175.620243854
2301, 1445.038238317, -182.42233963033, 715.57847318965
2302, 1587.1034173875, 1947.4813058433, 285.11893367403
2303, -1580.7109002392, 2314.1262993601, -318.61221026108
2304, -1606.5396309784, 1136.9692974925, -138.5221347173
2305, 1287.0849103375, 2372.8904759467, 971.38897617221
2306, -845.66307174966, 2863.6248195901, -1372.9567620687
2307, -1605.747462976, 879.12345329757, 147.42190552618
2308, -1595.5663268237, 1844.3584293051, -233.08311787764
2309, -1604.466420431, -723.81661054532, -160.76656141046
2310, -1604.2940210715, -716.6127442095, 162.47802100398
2311, 1351.5476348473, 385.56087266049, 879.49126219096
2312, 39.182097924899, -190.98908506738, -1612.0238373288
2313, -1604.4722439713, 7223.8880573147, 160.70842791651
2314, -1603.97400411, 7218.0709119156, -165.60756488435
2315, -1578.8734917288, 579.73980310298, 327.59618442851
2316, -1116.969456412, 6701.7305918747, -1162.984756675
2317, -1584.3298466602, 204.4094350344, 300.09907480069
2318, -1485.0751343724, 7019.1941388676, -628.26028110938
2319, 1356.414057419, -94.324074381379, 871.96727027329
2320, 325.6563887392, 6938.2445905158, -1579.2738582137
2321, 1502.9045224005, 1845.9849359337, 584.35185566198
2322, -1581.746165677, 6643.5862016317, 313.43215034441
2323, -791.7025766852, -429.69141697916, 1404.7646257178
2324, -1605.5425174491, 4036.6114561531, 149.63755882458
2325, -441.62246659726, 6720.4583506313, 1550.8470669325
2326, -1564.0539837201, -486.97415516424, -392.29604673046
2327, -1585.8768673377, 2307.1461132635, 291.81328227772
2328, 1612.3752694948, 3859.3751138499, -20.885460652225
2329, -1435.2435142094, 6919.5521689172, -735.00577653437
2330, -1560.1040823286, 6987.9335669478, 407.72087716341
2331, -993.31741802855, -682.81177381169, -1270.2266294836
2332, -1568.2929790401, 1002.9666097399, -374.99086217419
2333, -783.40883442498, 3784.8133206258, 1409.406706866
******* E L E M E N T S *************
*ELEMENT, type=T3D2, ELSET=Line1
1, 1, 2
*ELEMENT, type=T3D2, ELSET=Line2
2, 1, 9
3, 9, 10
4, 10, 11
5, 11, 12
6, 12, 13
7, 13, 14
8, 14, 15
9, 15, 16
10, 16, 17
11, 17, 18
12, 18, 19
13, 19, 20
14, 20, 21
15, 21, 22
16, 22, 23
17, 23, 24
18, 24, 25
19, 25, 26
20, 26, 27
21, 27, 28
22, 28, 29
23, 29, 30
24, 30, 31
25, 31, 32
26, 32, 33
27, 33, 34
28, 34, 35
29, 35, 36
30, 36, 37
31, 37, 38
32, 38, 39
33, 39, 40
34, 40, 41
35, 41, 42
36, 42, 43
37, 43, 44
38, 44, 45
39, 45, 46
40, 46, 1
*ELEMENT, type=T3D2, ELSET=Line3
41, 2, 47
42, 47, 48
43, 48, 49
44, 49, 50
45, 50, 51
46, 51, 52
47, 52, 53
48, 53, 54
49, 54, 55
50, 55, 56
51, 56, 57
52, 57, 58
53, 58, 59
54, 59, 60
55, 60, 61
56, 61, 62
57, 62, 63
58, 63, 64
59, 64, 65
60, 65, 66
61, 66, 67
62, 67, 68
63, 68, 69
64, 69, 70
65, 70, 71
66, 71, 72
67, 72, 73
68, 73, 74
69, 74, 75
70, 75, 76
71, 76, 77
72, 77, 78
73, 78, 79
74, 79, 80
75, 80, 81
76, 81, 82
77, 82, 83
78, 83, 84
79, 84, 2
*ELEMENT, type=T3D2, ELSET=Line7
80, 3, 85
81, 85, 86
82, 86, 87
83, 87, 88
84, 88, 89
85, 89, 90
86, 90, 91
87, 91, 92
88, 92, 93
89, 93, 94
90, 94, 95
91, 95, 96
92, 96, 97
93, 97, 98
94, 98, 99
95, 99, 100
96, 100, 101
97, 101, 102
98, 102, 103
99, 103, 104
100, 104, 105
101, 105, 106
102, 106, 107
103, 107, 108
104, 108, 109
105, 109, 110
106, 110, 111
107, 111, 112
108, 112, 113
109, 113, 114
110, 114, 115
111, 115, 116
112, 116, 117
113, 117, 118
114, 118, 119
115, 119, 120
116, 120, 121
117, 121, 122
118, 122, 3
*ELEMENT, type=T3D2, ELSET=Line8
119, 3, 123
120, 123, 124
121, 124, 125
122, 125, 126
123, 126, 127
124, 127, 128
125, 128, 129
126, 129, 130
127, 130, 4
*ELEMENT, type=T3D2, ELSET=Line9
128, 4, 131
129, 131, 132
130, 132, 133
131, 133, 134
132, 134, 135
133, 135, 136
134, 136, 137
135, 137, 138
136, 138, 139
137, 139, 140
138, 140, 141
139, 141, 142
140, 142, 143
141, 143, 144
142, 144, 145
143, 145, 146
144, 146, 147
145, 147, 148
146, 148, 149
147, 149, 150
148, 150, 151
149, 151, 152
150, 152, 153
151, 153, 154
152, 154, 155
153, 155, 156
154, 156, 157
155, 157, 158
156, 158, 159
157, 159, 160
158, 160, 161
159, 161, 162
160, 162, 163
161, 163, 164
162, 164, 165
163, 165, 166
164, 166, 167
165, 167, 168
166, 168, 4
*ELEMENT, type=T3D2, ELSET=Line10
167, 5, 169
168, 169, 6
*ELEMENT, type=T3D2, ELSET=Line11
169, 6, 170
170, 170, 171
171, 171, 172
172, 172, 173
173, 173, 174
174, 174, 175
175, 175, 176
176, 176, 177
177, 177, 178
178, 178, 179
179, 179, 180
180, 180, 181
181, 181, 182
182, 182, 183
183, 183, 184
184, 184, 185
185, 185, 186
186, 186, 187
187, 187, 188
188, 188, 189
189, 189, 190
190, 190, 191
191, 191, 192
192, 192, 193
193, 193, 194
194, 194, 195
195, 195, 196
196, 196, 197
197, 197, 198
198, 198, 199
199, 199, 200
200, 200, 201
201, 201, 202
202, 202, 203
203, 203, 204
204, 204, 205
205, 205, 206
206, 206, 207
207, 207, 6
*ELEMENT, type=T3D2, ELSET=Line12
208, 5, 208
209, 208, 209
210, 209, 210
211, 210, 211
212, 211, 212
213, 212, 213
214, 213, 214
215, 214, 215
216, 215, 216
217, 216, 217
218, 217, 218
219, 218, 219
220, 219, 220
221, 220, 221
222, 221, 222
223, 222, 223
224, 223, 224
225, 224, 225
226, 225, 226
227, 226, 227
228, 227, 228
229, 228, 229
230, 229, 230
231, 230, 231
232, 231, 232
233, 232, 233
234, 233, 234
235, 234, 235
236, 235, 236
237, 236, 237
238, 237, 238
239, 238, 239
240, 239, 240
241, 240, 241
242, 241, 242
243, 242, 243
244, 243, 244
245, 244, 245
246, 245, 5
*ELEMENT, type=T3D2, ELSET=Line13
247, 6, 246
248, 246, 247
249, 247, 248
250, 248, 249
251, 249, 250
252, 250, 251
253, 251, 252
254, 252, 253
255, 253, 254
256, 254, 255
257, 255, 256
258, 256, 257
259, 257, 258
260, 258, 259
261, 259, 260
262, 260, 261
263, 261, 262
264, 262, 263
265, 263, 264
266, 264, 265
267, 265, 266
268, 266, 267
269, 267, 268
270, 268, 269
271, 269, 270
272, 270, 271
273, 271, 272
274, 272, 273
275, 273, 274
276, 274, 275
277, 275, 276
278, 276, 277
279, 277, 278
280, 278, 279
281, 279, 280
282, 280, 281
283, 281, 282
284, 282, 283
285, 283, 3
*ELEMENT, type=T3D2, ELSET=Line14
286, 7, 284
287, 284, 285
288, 285, 286
289, 286, 287
290, 287, 288
291, 288, 289
292, 289, 290
293, 290, 291
294, 291, 292
295, 292, 293
296, 293, 294
297, 294, 295
298, 295, 296
299, 296, 297
300, 297, 298
301, 298, 299
302, 299, 300
303, 300, 301
304, 301, 302
305, 302, 303
306, 303, 304
307, 304, 305
308, 305, 306
309, 306, 307
310, 307, 308
311, 308, 309
312, 309, 310
313, 310, 311
314, 311, 312
315, 312, 313
316, 313, 314
317, 314, 315
318, 315, 316
319, 316, 317
320, 317, 318
321, 318, 319
322, 319, 320
323, 320, 321
324, 321, 7
*ELEMENT, type=T3D2, ELSET=Line15
325, 7, 5
*ELEMENT, type=T3D2, ELSET=Line16
326, 5, 8
*ELEMENT, type=T3D2, ELSET=Line17
327, 8, 322
328, 322, 323
329, 323, 324
330, 324, 325
331, 325, 326
332, 326, 327
333, 327, 328
334, 328, 329
335, 329, 330
336, 330, 331
337, 331, 332
338, 332, 333
339, 333, 334
340, 334, 335
341, 335, 336
342, 336, 337
343, 337, 338
344, 338, 339
345, 339, 340
346, 340, 341
347, 341, 342
348, 342, 343
349, 343, 344
350, 344, 345
351, 345, 346
352, 346, 347
353, 347, 348
354, 348, 349
355, 349, 350
356, 350, 351
357, 351, 352
358, 352, 353
359, 353, 354
360, 354, 355
361, 355, 356
362, 356, 357
363, 357, 358
364, 358, 359
365, 359, 8
*ELEMENT, type=CPS4, ELSET=Surface1
366, 46, 1, 2, 84
367, 2, 1, 9, 47
368, 42, 43, 81, 80
369, 50, 12, 13, 51
370, 54, 16, 17, 55
371, 38, 39, 77, 76
372, 14, 15, 53, 52
373, 78, 40, 41, 79
374, 39, 40, 78, 77
375, 53, 15, 16, 54
376, 9, 10, 48, 47
377, 83, 45, 46, 84
378, 13, 14, 52, 51
379, 42, 80, 79, 41
380, 18, 56, 55, 17
381, 76, 75, 37, 38
382, 74, 36, 37, 75
383, 18, 19, 57, 56
384, 43, 44, 82, 81
385, 49, 11, 12, 50
386, 44, 45, 83, 82
387, 11, 49, 48, 10
388, 73, 35, 36, 74
389, 19, 20, 58, 57
390, 72, 34, 35, 73
391, 20, 21, 59, 58
392, 27, 28, 66, 65
393, 66, 28, 29, 67
394, 26, 27, 65, 64
395, 67, 29, 30, 68
396, 25, 26, 64, 63
397, 31, 69, 68, 30
398, 24, 25, 63, 62
399, 71, 33, 34, 72
400, 21, 22, 60, 59
401, 70, 32, 33, 71
402, 22, 23, 61, 60
403, 32, 70, 69, 31
404, 23, 24, 62, 61
*ELEMENT, type=CPS4, ELSET=Surface3
405, 671, 388, 512, 635
406, 607, 475, 516, 526
407, 668, 502, 616, 387
408, 493, 634, 541, 632
409, 467, 637, 543, 636
410, 381, 523, 496, 509
411, 470, 640, 594, 639
412, 569, 648, 379, 647
413, 572, 646, 384, 645
414, 585, 643, 368, 642
415, 650, 558, 652, 369
416, 371, 616, 502, 658
417, 519, 517, 521, 479
418, 654, 553, 655, 366
419, 659, 523, 663, 485
420, 143, 142, 375, 538
421, 532, 520, 534, 469
422, 630, 493, 632, 525
423, 664, 529, 662, 484
424, 449, 533, 469, 451
425, 637, 638, 544, 543
426, 377, 563, 146, 145
427, 562, 565, 385, 627
428, 457, 521, 475, 459
429, 563, 377, 567, 561
430, 584, 585, 642, 641
431, 538, 375, 626, 536
432, 634, 467, 636, 541
433, 577, 370, 578, 575
434, 571, 572, 645, 644
435, 469, 533, 626, 532
436, 453, 534, 479, 455
437, 565, 615, 579, 385
438, 370, 577, 151, 150
439, 475, 521, 517, 516
440, 557, 558, 650, 649
441, 638, 470, 639, 544
442, 501, 668, 670, 391
443, 479, 534, 520, 519
444, 482, 660, 548, 667
445, 554, 553, 654, 653
446, 576, 581, 378, 628
447, 584, 594, 640, 583
448, 604, 560, 561, 567
449, 603, 592, 601, 602
450, 149, 148, 385, 579
451, 660, 661, 547, 548
452, 398, 506, 507, 486
453, 581, 603, 602, 378
454, 532, 626, 375, 539
455, 533, 535, 536, 626
456, 592, 605, 376, 601
457, 594, 584, 641, 367
458, 503, 468, 465, 505
459, 488, 619, 598, 618
460, 528, 529, 664, 665
461, 575, 578, 487, 574
462, 605, 588, 608, 376
463, 537, 567, 377, 629
464, 588, 589, 614, 608
465, 600, 494, 606, 599
466, 504, 372, 511, 677
467, 395, 393, 168, 167
468, 643, 571, 644, 368
469, 508, 395, 380, 396
470, 504, 526, 515, 372
471, 508, 396, 398, 486
472, 466, 476, 505, 465
473, 512, 388, 133, 132
474, 513, 387, 120, 121
475, 380, 395, 167, 166
476, 381, 509, 86, 87
477, 617, 488, 618, 596
478, 503, 497, 496, 468
479, 590, 617, 596, 631
480, 506, 400, 402, 403
481, 507, 506, 403, 492
482, 522, 381, 87, 88
483, 491, 501, 514, 492
484, 533, 449, 447, 535
485, 492, 403, 490, 491
486, 464, 463, 466, 465
487, 511, 372, 135, 134
488, 388, 511, 134, 133
489, 373, 518, 517, 519
490, 582, 481, 592, 603
491, 500, 612, 361, 651
492, 606, 397, 396, 380
493, 372, 515, 136, 135
494, 463, 462, 460, 461
495, 515, 382, 137, 136
496, 646, 569, 647, 384
497, 371, 524, 117, 118
498, 527, 522, 88, 89
499, 461, 460, 458, 459
500, 164, 163, 365, 599
501, 459, 458, 456, 457
502, 138, 137, 382, 518
503, 526, 504, 466, 607
504, 524, 383, 116, 117
505, 465, 468, 496, 464
506, 457, 456, 454, 455
507, 521, 457, 455, 479
508, 89, 90, 364, 527
509, 535, 471, 537, 536
510, 114, 115, 540, 542
511, 455, 454, 452, 453
512, 543, 544, 545, 363
513, 623, 598, 619, 489
514, 546, 530, 91, 92
515, 383, 540, 115, 116
516, 539, 531, 520, 532
517, 382, 515, 526, 516
518, 629, 538, 536, 537
519, 534, 453, 451, 469
520, 118, 119, 616, 371
521, 565, 562, 473, 564
522, 112, 113, 363, 545
523, 581, 576, 478, 580
524, 545, 593, 111, 112
525, 602, 601, 155, 154
526, 378, 602, 154, 153
527, 518, 373, 139, 138
528, 530, 364, 90, 91
529, 597, 365, 163, 162
530, 434, 436, 477, 556
531, 601, 376, 156, 155
532, 579, 370, 150, 149
533, 495, 568, 430, 432
534, 448, 449, 451, 450
535, 444, 446, 550, 552
536, 453, 452, 450, 451
537, 542, 363, 113, 114
538, 593, 367, 110, 111
539, 449, 448, 446, 447
540, 446, 448, 482, 550
541, 535, 447, 445, 471
542, 555, 480, 553, 554
543, 447, 446, 444, 445
544, 552, 480, 442, 444
545, 445, 444, 442, 443
546, 562, 561, 560, 473
547, 627, 563, 561, 562
548, 439, 473, 560, 441
549, 443, 442, 440, 441
550, 441, 440, 438, 439
551, 439, 438, 436, 437
552, 556, 477, 558, 557
553, 424, 426, 474, 570
554, 556, 495, 432, 434
555, 437, 436, 434, 435
556, 576, 575, 574, 478
557, 435, 434, 432, 433
558, 628, 577, 575, 576
559, 429, 478, 574, 431
560, 487, 433, 431, 574
561, 433, 432, 430, 431
562, 418, 420, 472, 583
563, 431, 430, 428, 429
564, 527, 364, 529, 528
565, 570, 474, 572, 571
566, 429, 428, 426, 427
567, 582, 425, 423, 481
568, 427, 426, 424, 425
569, 93, 94, 549, 362
570, 425, 424, 422, 423
571, 583, 472, 585, 584
572, 423, 422, 420, 421
573, 481, 423, 421, 591
574, 589, 588, 587, 483
575, 564, 437, 435, 566
576, 519, 520, 531, 373
577, 426, 428, 573, 474
578, 417, 483, 587, 419
579, 591, 421, 419, 587
580, 421, 420, 418, 419
581, 373, 531, 140, 139
582, 415, 590, 483, 417
583, 478, 429, 427, 580
584, 161, 160, 595, 386
585, 473, 439, 437, 564
586, 433, 487, 566, 435
587, 480, 555, 440, 442
588, 420, 422, 586, 472
589, 568, 573, 428, 430
590, 419, 418, 416, 417
591, 570, 586, 422, 424
592, 531, 539, 141, 140
593, 417, 416, 414, 415
594, 374, 595, 160, 159
595, 548, 547, 546, 362
596, 555, 559, 438, 440
597, 142, 141, 539, 375
598, 494, 600, 620, 611
599, 603, 581, 580, 582
600, 415, 414, 412, 413
601, 92, 93, 362, 546
602, 166, 165, 606, 380
603, 436, 438, 559, 477
604, 162, 161, 386, 597
605, 425, 582, 580, 427
606, 413, 412, 410, 411
607, 567, 537, 471, 604
608, 441, 560, 604, 443
609, 411, 410, 408, 409
610, 481, 591, 605, 592
611, 489, 620, 600, 623
612, 599, 606, 165, 164
613, 409, 408, 406, 407
614, 516, 517, 518, 382
615, 506, 398, 399, 400
616, 471, 445, 443, 604
617, 588, 605, 591, 587
618, 459, 475, 607, 461
619, 499, 476, 466, 498
620, 407, 406, 404, 405
621, 402, 401, 405, 404
622, 402, 400, 399, 401
623, 466, 463, 461, 607
624, 396, 397, 399, 398
625, 159, 158, 614, 374
626, 648, 557, 649, 379
627, 606, 494, 399, 397
628, 376, 608, 157, 156
629, 401, 399, 494, 611
630, 388, 671, 677, 511
631, 564, 566, 615, 565
632, 411, 488, 617, 413
633, 597, 386, 618, 598
634, 578, 615, 566, 487
635, 370, 579, 615, 578
636, 598, 623, 365, 597
637, 608, 614, 158, 157
638, 407, 489, 619, 409
639, 563, 627, 147, 146
640, 577, 628, 152, 151
641, 538, 629, 144, 143
642, 483, 590, 631, 589
643, 374, 614, 589, 631
644, 403, 402, 630, 490
645, 590, 415, 413, 617
646, 401, 611, 620, 405
647, 387, 616, 119, 120
648, 652, 554, 653, 369
649, 540, 383, 632, 541
650, 596, 618, 386, 595
651, 524, 371, 658, 525
652, 126, 127, 609, 360
653, 124, 390, 610, 125
654, 125, 610, 361, 126
655, 488, 411, 409, 619
656, 127, 128, 389, 609
657, 599, 365, 623, 600
658, 489, 407, 405, 620
659, 125, 126, 360, 613
660, 126, 361, 612, 127
661, 363, 542, 636, 543
662, 404, 406, 634, 493
663, 148, 147, 627, 385
664, 124, 125, 613, 391
665, 127, 612, 392, 128
666, 153, 152, 628, 378
667, 408, 410, 637, 467
668, 655, 551, 657, 366
669, 145, 144, 629, 377
670, 549, 657, 551, 667
671, 367, 593, 639, 594
672, 128, 129, 621, 389
673, 123, 622, 390, 124
674, 595, 374, 631, 596
675, 414, 416, 640, 470
676, 107, 108, 642, 368
677, 492, 514, 666, 507
678, 493, 630, 402, 404
679, 472, 586, 643, 585
680, 128, 392, 625, 129
681, 661, 484, 662, 547
682, 104, 105, 645, 384
683, 474, 573, 646, 572
684, 381, 522, 663, 523
685, 102, 103, 647, 379
686, 568, 495, 648, 569
687, 525, 632, 383, 524
688, 99, 100, 650, 369
689, 477, 559, 652, 558
690, 460, 462, 659, 485
691, 663, 528, 665, 485
692, 505, 651, 678, 503
693, 96, 97, 654, 366
694, 364, 530, 662, 529
695, 480, 552, 655, 553
696, 94, 95, 657, 549
697, 448, 450, 660, 482
698, 454, 456, 664, 484
699, 486, 507, 666, 510
700, 523, 659, 464, 496
701, 467, 634, 406, 408
702, 490, 630, 525, 658
703, 541, 636, 542, 540
704, 613, 514, 501, 391
705, 609, 389, 669, 510
706, 613, 360, 666, 514
707, 410, 412, 638, 637
708, 470, 638, 412, 414
709, 656, 633, 679, 497
710, 544, 639, 593, 545
711, 583, 640, 416, 418
712, 678, 656, 497, 503
713, 367, 641, 109, 110
714, 168, 672, 130, 4
715, 85, 673, 123, 3
716, 122, 3, 123, 674
717, 131, 4, 130, 675
718, 678, 610, 390, 656
719, 486, 510, 669, 508
720, 641, 642, 108, 109
721, 395, 508, 669, 393
722, 571, 643, 586, 570
723, 86, 394, 673, 85
724, 368, 644, 106, 107
725, 132, 131, 675, 512
726, 121, 122, 674, 513
727, 476, 499, 676, 500
728, 644, 645, 105, 106
729, 569, 646, 573, 568
730, 86, 509, 679, 394
731, 387, 513, 670, 668
732, 500, 676, 392, 612
733, 384, 647, 103, 104
734, 557, 648, 495, 556
735, 379, 649, 101, 102
736, 476, 500, 651, 505
737, 649, 650, 100, 101
738, 554, 652, 559, 555
739, 362, 549, 667, 548
740, 369, 653, 98, 99
741, 653, 654, 97, 98
742, 551, 655, 552, 550
743, 366, 657, 95, 96
744, 463, 464, 659, 462
745, 168, 393, 621, 672
746, 528, 663, 522, 527
747, 450, 452, 661, 660
748, 491, 490, 658, 502
749, 484, 661, 452, 454
750, 547, 662, 530, 546
751, 635, 512, 675, 625
752, 485, 665, 458, 460
753, 456, 458, 665, 664
754, 550, 482, 667, 551
755, 674, 624, 670, 513
756, 501, 491, 502, 668
757, 671, 635, 676, 499
758, 510, 666, 360, 609
759, 622, 633, 656, 390
760, 496, 497, 679, 509
761, 466, 504, 677, 498
762, 499, 498, 677, 671
763, 393, 669, 389, 621
764, 129, 130, 672, 621
765, 394, 622, 123, 673
766, 124, 624, 674, 123
767, 129, 625, 675, 130
768, 124, 391, 670, 624
769, 622, 394, 679, 633
770, 625, 392, 676, 635
771, 610, 678, 651, 361
*ELEMENT, type=CPS4, ELSET=Surface4
772, 169, 6, 170, 717
773, 169, 718, 207, 6
774, 169, 717, 245, 5
775, 169, 5, 208, 718
776, 687, 681, 199, 200
777, 683, 177, 178, 680
778, 197, 198, 691, 686
779, 180, 682, 688, 179
780, 681, 691, 198, 199
781, 680, 178, 179, 688
782, 714, 699, 201, 202
783, 690, 685, 203, 204
784, 200, 201, 699, 687
785, 713, 175, 176, 698
786, 689, 173, 174, 684
787, 177, 683, 698, 176
788, 686, 716, 196, 197
789, 682, 180, 181, 715
790, 685, 714, 202, 203
791, 684, 174, 175, 713
792, 705, 701, 193, 194
793, 702, 183, 184, 697
794, 192, 193, 701, 694
795, 185, 692, 697, 184
796, 194, 195, 706, 705
797, 191, 192, 694, 696
798, 204, 205, 711, 690
799, 186, 693, 692, 185
800, 183, 702, 704, 182
801, 173, 689, 712, 172
802, 195, 196, 716, 706
803, 182, 704, 715, 181
804, 693, 186, 187, 707
805, 190, 703, 695, 189
806, 189, 695, 700, 188
807, 191, 708, 703, 190
808, 188, 700, 707, 187
809, 205, 206, 710, 711
810, 172, 712, 709, 171
811, 237, 238, 683, 680
812, 216, 681, 687, 215
813, 235, 236, 688, 682
814, 218, 686, 691, 217
815, 241, 242, 689, 684
816, 212, 685, 690, 211
817, 229, 230, 692, 693
818, 224, 696, 694, 223
819, 698, 683, 238, 239
820, 680, 688, 236, 237
821, 699, 214, 215, 687
822, 681, 216, 217, 691
823, 697, 692, 230, 231
824, 231, 232, 702, 697
825, 701, 222, 223, 694
826, 232, 233, 704, 702
827, 710, 209, 210, 711
828, 709, 712, 243, 244
829, 222, 701, 705, 221
830, 221, 705, 706, 220
831, 211, 690, 711, 210
832, 242, 243, 712, 689
833, 191, 696, 224, 708
834, 226, 227, 700, 695
835, 695, 703, 225, 226
836, 693, 707, 228, 229
837, 227, 228, 707, 700
838, 214, 699, 714, 213
839, 239, 240, 713, 698
840, 224, 225, 703, 708
841, 682, 715, 234, 235
842, 233, 234, 715, 704
843, 686, 218, 219, 716
844, 220, 706, 716, 219
845, 684, 713, 240, 241
846, 685, 212, 213, 714
847, 171, 709, 717, 170
848, 206, 207, 718, 710
849, 244, 245, 717, 709
850, 209, 710, 718, 208
*ELEMENT, type=CPS4, ELSET=Surface5
851, 1711, 1709, 1267, 899
852, 1709, 1710, 2086, 1267
853, 1910, 1207, 2061, 1909
854, 1721, 2053, 719, 2264
855, 1757, 741, 1626, 1625
856, 1600, 1295, 1602, 1601
857, 1611, 1612, 2308, 760
858, 1616, 1623, 2256, 745
859, 1566, 2114, 1678, 2049
860, 1707, 732, 2215, 1706
861, 1579, 1682, 1317, 1605
862, 1730, 1912, 1403, 1733
863, 1524, 2154, 1167, 1635
864, 1594, 1580, 1806, 1173
865, 1625, 1629, 765, 1757
866, 1690, 775, 1692, 1624
867, 1694, 751, 1615, 1613
868, 1593, 1735, 2211, 730
869, 2096, 1742, 2235, 759
870, 1941, 758, 2288, 1644
871, 1371, 1245, 1585, 1603
872, 1256, 1867, 1456, 2121
873, 2101, 1909, 2061, 1561
874, 1439, 1435, 1591, 1750
875, 2148, 1589, 1496, 2144
876, 2265, 1582, 1766, 749
877, 1700, 746, 2293, 1699
878, 2187, 1592, 2195, 766
879, 2144, 1496, 1497, 2143
880, 1666, 1667, 2232, 1602
881, 1682, 1579, 2317, 2210
882, 1723, 742, 2267, 1722
883, 1729, 1728, 1730, 996
884, 1297, 1631, 1085, 1083
885, 2229, 1583, 2272, 1127
886, 1631, 1596, 1864, 1085
887, 1853, 1852, 1851, 1286
888, 2212, 1867, 2244, 1858
889, 1610, 2168, 734, 2162
890, 1669, 2087, 1511, 1814
891, 1673, 1604, 1603, 1351
892, 1725, 1379, 2260, 726
893, 1750, 1591, 1751, 763
894, 1409, 1762, 1608, 1607
895, 1631, 1297, 1674, 1632
896, 1287, 1662, 1409, 1288
897, 1491, 2220, 2047, 2231
898, 1728, 2129, 1912, 1730
899, 2055, 1555, 2248, 1924
900, 1696, 1737, 1026, 2117
901, 2113, 1608, 2145, 1336
902, 1624, 1680, 750, 1690
903, 1753, 2057, 1598, 1754
904, 2157, 1807, 2311, 1499
905, 2270, 2280, 1402, 1472
906, 1704, 756, 2176, 1705
907, 2086, 1710, 2143, 1497
908, 2248, 1698, 2136, 753
909, 1507, 1508, 2217, 2205
910, 1542, 2189, 1120, 1724
911, 1293, 1313, 1457, 1666
912, 1302, 1715, 1590, 1363
913, 1581, 2089, 744, 2258
914, 2229, 1459, 2279, 1583
915, 1640, 1643, 1242, 1361
916, 770, 2138, 1646, 2152
917, 2092, 1955, 2322, 752
918, 1708, 1705, 2176, 727
919, 1526, 2226, 1885, 2291
920, 2280, 2295, 1403, 1402
921, 179, 178, 765, 1759
922, 1310, 2085, 1659, 1342
923, 1173, 1864, 1596, 1594
924, 900, 878, 875, 1673
925, 2032, 2153, 1852, 1854
926, 2269, 1232, 2287, 1910
927, 1685, 1658, 1600, 1426
928, 1754, 1598, 2066, 877
929, 1977, 1473, 2185, 1979
930, 1736, 2270, 1472, 2254
931, 1231, 1695, 1447, 1727
932, 1045, 1648, 2229, 1747
933, 720, 2296, 1688, 1587
934, 1868, 1052, 1655, 1638
935, 1209, 1806, 1580, 2172
936, 2114, 1033, 2199, 1678
937, 1342, 1659, 2041, 1517
938, 997, 1655, 1052, 1011
939, 1647, 2024, 1427, 1871
940, 1603, 1604, 2066, 1371
941, 751, 118, 117, 1634
942, 1384, 1585, 1917, 1649
943, 95, 94, 763, 1751
944, 1687, 2147, 1035, 2137
945, 1436, 2002, 1286, 1851
946, 1327, 1357, 1587, 1688
947, 1418, 2021, 1665, 1687
948, 955, 2058, 1675, 1172
949, 884, 1200, 1825, 1827
950, 2292, 1243, 2305, 1584
951, 2226, 1526, 2230, 1798
952, 1652, 1656, 1416, 1829
953, 764, 2224, 1599, 2276
954, 1286, 1180, 1182, 1853
955, 1663, 2218, 1519, 1520
956, 1626, 741, 2331, 1630
957, 1622, 1620, 1624, 1692
958, 1111, 1092, 1173, 1806
959, 2100, 1446, 2121, 1609
960, 1600, 1658, 2045, 1294
961, 841, 2100, 1609, 2209
962, 1293, 1666, 1602, 1295
963, 1118, 1870, 1517, 2041
964, 1946, 1738, 1380, 1674
965, 1745, 1665, 2021, 1241
966, 253, 1717, 2258, 744
967, 1538, 2285, 1565, 2284
968, 1658, 1498, 1652, 2045
969, 1629, 1758, 1759, 765
970, 1089, 1086, 1085, 1864
971, 1605, 1317, 786, 2069
972, 2195, 1592, 2323, 740
973, 1934, 1094, 2024, 1647
974, 810, 1731, 1732, 808
975, 1653, 1168, 790, 2001
976, 1758, 1760, 737, 1759
977, 2278, 1736, 2254, 725
978, 1371, 2066, 1598, 1372
979, 1097, 1702, 1643, 1957
980, 2330, 777, 2177, 1693
981, 1307, 1675, 1481, 1676
982, 1788, 2217, 1508, 2273
983, 1743, 2264, 719, 1933
984, 735, 1751, 1591, 1633
985, 1733, 1731, 996, 1730
986, 1686, 2036, 1094, 1934
987, 800, 812, 1114, 1745
988, 1262, 1239, 1307, 1679
989, 1426, 1284, 1739, 1685
990, 253, 254, 2304, 1717
991, 1744, 1097, 1957, 1661
992, 827, 2263, 1586, 2257
993, 1512, 2266, 1642, 2223
994, 1682, 1681, 784, 1317
995, 979, 2093, 1695, 1231
996, 2168, 1610, 2187, 766
997, 1829, 1290, 2045, 1652
998, 1233, 1283, 1533, 1701
999, 1605, 2069, 1168, 2046
1000, 1656, 1919, 918, 1746
1001, 2302, 1104, 2321, 1711
1002, 1823, 1828, 1200, 1833
1003, 1809, 2083, 1445, 2091
1004, 2108, 1507, 2205, 1761
1005, 733, 1650, 2232, 1963
1006, 1660, 1309, 1123, 2067
1007, 1850, 1664, 1745, 1114
1008, 2031, 2041, 1659, 1424
1009, 2224, 736, 2320, 1599
1010, 2123, 750, 1680, 1691
1011, 1708, 727, 2183, 1636
1012, 1782, 1796, 854, 1781
1013, 1879, 2032, 1854, 2141
1014, 728, 2166, 1651, 2118
1015, 1848, 1847, 1846, 1266
1016, 1670, 203, 202, 1671
1017, 944, 2158, 1849, 2139
1018, 937, 2268, 1588, 2238
1019, 1504, 1763, 957, 2012
1020, 1633, 1752, 2039, 735
1021, 1654, 781, 754, 782
1022, 1704, 1460, 1707, 1706
1023, 1489, 1850, 1500, 1903
1024, 938, 2179, 1843, 2106
1025, 1540, 2082, 1344, 2099
1026, 996, 813, 815, 1729
1027, 2152, 1646, 2162, 734
1028, 1247, 1823, 1833, 1964
1029, 2207, 1220, 2221, 1645
1030, 1816, 2112, 1438, 2059
1031, 1654, 782, 784, 1681
1032, 1185, 1183, 1266, 1846
1033, 1742, 1401, 1398, 1773
1034, 2118, 1651, 2138, 770
1035, 1685, 1739, 1010, 1024
1036, 1643, 1702, 1129, 1242
1037, 1661, 1944, 1090, 1744
1038, 1634, 2208, 1663, 2259
1039, 1436, 1851, 1752, 1633
1040, 1981, 1534, 2286, 1982
1041, 1639, 2020, 1008, 1974
1042, 1679, 1696, 1264, 1262
1043, 2075, 1069, 806, 1732
1044, 2248, 1555, 1413, 1698
1045, 1636, 1539, 1360, 1708
1046, 1823, 1247, 1901, 1822
1047, 1432, 1707, 1460, 1412
1048, 1947, 1159, 2036, 1686
1049, 1431, 1277, 1216, 1703
1050, 1846, 1844, 1187, 1185
1051, 779, 206, 205, 781
1052, 780, 1669, 172, 171
1053, 1181, 1179, 1419, 1869
1054, 1381, 1171, 803, 1802
1055, 1110, 1772, 972, 974
1056, 781, 205, 204, 754
1057, 1669, 755, 173, 172
1058, 2225, 1501, 2234, 1641
1059, 1767, 1108, 2008, 1668
1060, 1048, 1989, 1829, 1416
1061, 1748, 1500, 1850, 2010
1062, 1129, 1702, 1097, 1093
1063, 2075, 1732, 1731, 1733
1064, 1703, 1704, 1705, 1431
1065, 1115, 1918, 1768, 1936
1066, 817, 1726, 1729, 815
1067, 2133, 737, 1760, 1761
1068, 1771, 2146, 2057, 1236
1069, 877, 871, 869, 1754
1070, 2006, 1036, 1019, 1767
1071, 1770, 1824, 1314, 1769
1072, 1389, 1719, 1721, 1718
1073, 2058, 955, 954, 1763
1074, 1699, 1698, 1413, 1455
1075, 1754, 869, 866, 1753
1076, 1690, 750, 89, 88
1077, 1694, 119, 118, 751
1078, 775, 1690, 88, 87
1079, 776, 120, 119, 1694
1080, 1767, 1040, 1080, 1108
1081, 1317, 784, 785, 786
1082, 1593, 1927, 1487, 1697
1083, 1283, 1233, 1107, 1162
1084, 1211, 1765, 889, 887
1085, 1881, 2080, 1259, 1938
1086, 1548, 2193, 1153, 2197
1087, 1296, 1212, 1102, 1171
1088, 1018, 1779, 1775, 1785
1089, 1805, 1803, 2000, 1414
1090, 1339, 1931, 1415, 1983
1091, 1072, 2018, 1639, 1974
1092, 1002, 1945, 1784, 1872
1093, 1018, 1785, 853, 856
1094, 1534, 1533, 1283, 1349
1095, 2142, 1301, 1300, 1299
1096, 1036, 1003, 993, 1019
1097, 1171, 1102, 802, 803
1098, 1169, 1072, 1071, 1103
1099, 203, 1670, 754, 204
1100, 955, 953, 952, 954
1101, 1230, 2252, 1792, 2261
1102, 1735, 1593, 1382, 1471
1103, 1003, 992, 991, 993
1104, 1162, 1107, 1050, 1098
1105, 953, 951, 950, 952
1106, 1785, 1775, 1246, 1774
1107, 1216, 1095, 1067, 1170
1108, 907, 897, 895, 1738
1109, 1740, 1400, 1398, 1401
1110, 1126, 1096, 1028, 1038
1111, 2154, 1524, 1518, 1870
1112, 1871, 1476, 1469, 1647
1113, 969, 1007, 1010, 1006
1114, 1091, 1744, 1090, 1088
1115, 1658, 1685, 1024, 1498
1116, 997, 978, 977, 989
1117, 1720, 2033, 1653, 2001
1118, 978, 976, 975, 977
1119, 907, 909, 914, 908
1120, 1010, 1739, 1098, 1030
1121, 1800, 738, 92, 91
1122, 1735, 1471, 1544, 1606
1123, 174, 173, 755, 2035
1124, 976, 974, 973, 975
1125, 1069, 1802, 803, 804
1126, 1688, 1361, 1242, 1327
1127, 782, 783, 785, 784
1128, 983, 985, 1017, 1748
1129, 1431, 1360, 1359, 1277
1130, 1116, 1314, 1821, 1820
1131, 1671, 202, 201, 740
1132, 1327, 1242, 1129, 1210
1133, 1712, 1376, 1363, 1590
1134, 1744, 1091, 1093, 1097
1135, 1203, 1299, 1300, 1169
1136, 1757, 765, 178, 177
1137, 1349, 1283, 1162, 1284
1138, 1047, 1048, 1416, 962
1139, 1759, 737, 180, 179
1140, 1088, 1087, 1084, 1086
1141, 1231, 963, 967, 979
1142, 1457, 1313, 1373, 1374
1143, 900, 1287, 1288, 1101
1144, 1636, 1563, 1562, 1539
1145, 1168, 788, 789, 790
1146, 878, 900, 1101, 880
1147, 1749, 763, 94, 93
1148, 1675, 1307, 1239, 1172
1149, 1052, 2071, 1012, 1011
1150, 1613, 1558, 2329, 1694
1151, 1801, 858, 859, 860
1152, 1712, 1464, 1377, 1376
1153, 1824, 1770, 1826, 1825
1154, 854, 1817, 1776, 1781
1155, 773, 1683, 2210, 2027
1156, 1731, 810, 813, 996
1157, 951, 949, 948, 950
1158, 2130, 873, 871, 877
1159, 1170, 1279, 1703, 1216
1160, 1796, 1920, 839, 854
1161, 893, 1380, 1738, 895
1162, 1715, 1302, 1300, 1301
1163, 865, 867, 1753, 866
1164, 1010, 1007, 1369, 1024
1165, 1657, 1484, 1355, 1483
1166, 1451, 1686, 1934, 1467
1167, 1389, 1718, 1390, 1387
1168, 1751, 735, 96, 95
1169, 1489, 1903, 1229, 1355
1170, 920, 1901, 1247, 912
1171, 803, 802, 796, 804
1172, 1879, 1875, 722, 1874
1173, 1797, 736, 112, 111
1174, 2001, 790, 791, 792
1175, 1662, 1287, 1351, 1384
1176, 788, 786, 785, 787
1177, 1483, 1355, 1229, 1354
1178, 1360, 1431, 1705, 1708
1179, 1855, 1175, 1439, 1516
1180, 1269, 1842, 1843, 1841
1181, 943, 1128, 1859, 1857
1182, 2102, 1463, 1689, 919
1183, 1382, 1296, 1171, 1381
1184, 1801, 1018, 856, 858
1185, 1096, 1126, 1734, 1165
1186, 1460, 1279, 1375, 1412
1187, 819, 963, 1726, 817
1188, 1024, 1369, 1652, 1498
1189, 1828, 1821, 1314, 1824
1190, 738, 1749, 93, 92
1191, 764, 1755, 115, 114
1192, 1600, 1294, 1293, 1295
1193, 1704, 1703, 1279, 1460
1194, 2097, 1827, 1825, 1826
1195, 741, 1757, 177, 176
1196, 1487, 1485, 1370, 1697
1197, 1785, 1774, 849, 853
1198, 1903, 1500, 1112, 1119
1199, 974, 972, 971, 973
1200, 1067, 1037, 1003, 1036
1201, 1763, 954, 956, 957
1202, 1773, 1398, 1397, 1395
1203, 866, 864, 863, 865
1204, 1073, 1891, 1282, 1174
1205, 1409, 1408, 1407, 1288
1206, 1471, 1382, 1381, 1383
1207, 869, 868, 864, 866
1208, 1277, 1251, 1095, 1216
1209, 1293, 1292, 1373, 1313
1210, 2096, 1741, 1401, 1742
1211, 1246, 1775, 1777, 1776
1212, 1075, 1046, 1747, 1076
1213, 721, 1888, 1886, 1887
1214, 1581, 1315, 1316, 1582
1215, 1011, 998, 978, 997
1216, 1378, 1379, 1725, 1374
1217, 1446, 1813, 1252, 1254
1218, 858, 856, 855, 857
1219, 1187, 1844, 1842, 1269
1220, 1689, 1463, 1330, 1462
1221, 1091, 1088, 1086, 1089
1222, 1787, 731, 184, 183
1223, 1302, 1363, 1364, 1362
1224, 1095, 1068, 1037, 1067
1225, 992, 965, 990, 991
1226, 2130, 875, 874, 873
1227, 1992, 1125, 1080, 1124
1228, 1172, 1106, 953, 955
1229, 907, 906, 905, 897
1230, 1086, 1084, 1083, 1085
1231, 1045, 1034, 1012, 2071
1232, 862, 860, 859, 861
1233, 1539, 1538, 1359, 1360
1234, 1363, 1376, 1377, 1364
1235, 856, 853, 852, 855
1236, 864, 862, 861, 863
1237, 1721, 1719, 1723, 1722
1238, 1747, 1046, 1034, 1045
1239, 1769, 1314, 1116, 1225
1240, 1392, 1390, 1718, 1530
1241, 103, 102, 1880, 1882
1242, 2057, 1753, 867, 1236
1243, 2052, 1380, 893, 1765
1244, 1357, 1327, 1210, 1328
1245, 1836, 1272, 1193, 1838
1246, 1884, 769, 110, 109
1247, 1413, 1274, 1701, 1455
1248, 1793, 1908, 1907, 772
1249, 1701, 1274, 1234, 1233
1250, 1780, 1777, 1775, 1779
1251, 1816, 945, 946, 947
1252, 767, 1787, 183, 182
1253, 1575, 1379, 1378, 1465
1254, 769, 1797, 111, 110
1255, 1878, 1877, 1876, 1875
1256, 1387, 1165, 1734, 1389
1257, 1387, 1386, 1096, 1165
1258, 1093, 1091, 1089, 1092
1259, 1999, 1947, 1449, 1818
1260, 1673, 1351, 1287, 900
1261, 2085, 1310, 1223, 1309
1262, 909, 962, 1746, 914
1263, 1164, 1126, 1038, 1163
1264, 1129, 1093, 1092, 1111
1265, 1746, 918, 915, 914
1266, 1816, 1128, 943, 945
1267, 772, 1889, 1789, 1793
1268, 1016, 995, 994, 1015
1269, 794, 1720, 2001, 792
1270, 1028, 1016, 1015, 1025
1271, 1820, 1044, 1051, 1116
1272, 1210, 1129, 1111, 1208
1273, 1552, 1569, 1831, 1832
1274, 1676, 1481, 1799, 2049
1275, 1201, 1090, 1944, 1202
1276, 1889, 731, 1788, 1789
1277, 1078, 1077, 1075, 1076
1278, 1774, 1246, 845, 847
1279, 1038, 1028, 1025, 1033
1280, 952, 950, 1861, 1902
1281, 1017, 1053, 1113, 1112
1282, 1817, 854, 839, 843
1283, 1820, 1819, 1022, 1044
1284, 1551, 1357, 1328, 1358
1285, 1117, 1079, 1077, 1078
1286, 1449, 1338, 1204, 1818
1287, 1655, 997, 989, 2020
1288, 1101, 1893, 881, 880
1289, 1200, 1828, 1824, 1825
1290, 1893, 898, 883, 881
1291, 1835, 1834, 1195, 1272
1292, 1112, 1113, 1228, 1119
1293, 1870, 1518, 1343, 1517
1294, 1390, 1388, 1386, 1387
1295, 1887, 1886, 1885, 1884
1296, 1919, 969, 968, 918
1297, 1887, 1884, 109, 108
1298, 943, 1857, 1013, 941
1299, 1794, 1909, 2101, 1908
1300, 1767, 1019, 1020, 1040
1301, 1808, 192, 191, 771
1302, 972, 1771, 904, 917
1303, 1813, 1812, 926, 1252
1304, 1585, 1384, 1351, 1603
1305, 1676, 1677, 1679, 1307
1306, 2090, 1497, 1496, 1348
1307, 728, 193, 192, 1808
1308, 1889, 772, 186, 185
1309, 867, 904, 1771, 1236
1310, 1765, 893, 891, 889
1311, 949, 947, 946, 948
1312, 2121, 1446, 1254, 1256
1313, 974, 976, 1943, 1110
1314, 1226, 1330, 1769, 1225
1315, 1229, 1352, 1860, 1354
1316, 1822, 1901, 988, 1819
1317, 975, 973, 1002, 1786
1318, 1296, 1382, 1593, 1697
1319, 1271, 1915, 1149, 1147
1320, 1392, 1391, 1388, 1390
1321, 1328, 1210, 1208, 1804
1322, 950, 948, 959, 1861
1323, 802, 794, 795, 796
1324, 1476, 1542, 1543, 1477
1325, 1727, 1726, 963, 1231
1326, 1795, 1211, 887, 885
1327, 1527, 1393, 1391, 1392
1328, 1023, 1016, 1028, 1976
1329, 2246, 1013, 1857, 1858
1330, 1811, 1810, 1809, 771
1331, 1517, 1343, 1312, 1342
1332, 1549, 1282, 1891, 1550
1333, 840, 1995, 2178, 2156
1334, 2229, 1127, 1076, 1747
1335, 1830, 1569, 1568, 1570
1336, 1828, 1823, 1822, 1821
1337, 1348, 1496, 1589, 1347
1338, 1745, 1241, 798, 800
1339, 940, 941, 1013, 939
1340, 1405, 1513, 1645, 1512
1341, 1228, 1229, 1903, 1119
1342, 1098, 1050, 1049, 1030
1343, 962, 909, 1946, 1047
1344, 1842, 1844, 1846, 1845
1345, 1873, 1874, 100, 99
1346, 1840, 1189, 1187, 1269
1347, 1472, 1402, 1399, 1400
1348, 1728, 1729, 1726, 1727
1349, 1250, 1385, 1541, 1414
1350, 1415, 1929, 1145, 1143
1351, 1570, 1572, 1574, 1573
1352, 1225, 1116, 1051, 1132
1353, 1462, 1330, 1226, 1331
1354, 1776, 1817, 845, 1246
1355, 1893, 1101, 1288, 1407
1356, 2189, 1542, 1476, 1871
1357, 992, 2015, 1504, 2012
1358, 1292, 1293, 1294, 1291
1359, 1837, 1835, 1272, 1836
1360, 1400, 1399, 1397, 1398
1361, 906, 1863, 1055, 905
1362, 1088, 1090, 1201, 1087
1363, 1811, 190, 189, 1890
1364, 860, 862, 1940, 1411
1365, 1819, 1820, 1821, 1822
1366, 1907, 1911, 188, 187
1367, 1770, 1769, 1330, 1463
1368, 857, 855, 911, 1897
1369, 945, 943, 942, 944
1370, 1635, 1525, 1520, 1524
1371, 1902, 956, 954, 952
1372, 721, 1887, 108, 107
1373, 943, 941, 940, 942
1374, 991, 990, 1064, 1921
1375, 768, 1873, 99, 98
1376, 771, 191, 190, 1811
1377, 1269, 1841, 1839, 1840
1378, 772, 1907, 187, 186
1379, 1490, 1489, 1355, 1484
1380, 1900, 1104, 844, 1899
1381, 102, 101, 722, 1880
1382, 2218, 1663, 2208, 739
1383, 1869, 1266, 1183, 1181
1384, 1782, 1513, 1405, 1796
1385, 87, 86, 1922, 775
1386, 120, 776, 1923, 121
1387, 2147, 1657, 2161, 1035
1388, 795, 798, 1241, 1892
1389, 871, 870, 868, 869
1390, 1901, 920, 987, 988
1391, 1467, 1469, 1475, 1468
1392, 1272, 1195, 1194, 1193
1393, 1490, 1665, 1745, 1664
1394, 1449, 1451, 1466, 1450
1395, 1083, 1084, 1989, 1048
1396, 1674, 1297, 1047, 1946
1397, 1252, 926, 1130, 1131
1398, 1292, 1944, 1661, 1373
1399, 1623, 1617, 1618, 1955
1400, 1405, 1350, 1131, 1130
1401, 1994, 1419, 1179, 1177
1402, 1656, 1746, 962, 1416
1403, 1819, 988, 1021, 1022
1404, 1469, 1476, 1477, 1475
1405, 1338, 1449, 1450, 1448
1406, 1696, 1679, 1677, 1737
1407, 1974, 1008, 1031, 1032
1408, 2243, 1830, 2303, 724
1409, 1191, 1840, 1839, 1838
1410, 1451, 1467, 1468, 1466
1411, 1267, 1133, 851, 899
1412, 1838, 1193, 1192, 1191
1413, 1291, 1290, 1201, 1202
1414, 1799, 1948, 1251, 1420
1415, 1796, 1405, 1130, 1920
1416, 1069, 804, 805, 806
1417, 1850, 1489, 1490, 1664
1418, 794, 802, 1102, 1720
1419, 1140, 1406, 1872, 1784
1420, 1812, 836, 838, 926
1421, 1783, 1782, 1781, 1778
1422, 1254, 1255, 1866, 1256
1423, 1840, 1191, 1190, 1189
1424, 1264, 1696, 2117, 1461
1425, 1874, 722, 101, 100
1426, 1882, 747, 104, 103
1427, 1911, 723, 189, 188
1428, 1875, 1876, 1880, 722
1429, 1601, 1684, 1426, 1600
1430, 1865, 1253, 1252, 1131
1431, 1014, 933, 934, 935
1432, 1732, 806, 807, 808
1433, 1044, 1022, 1042, 1043
1434, 1777, 1778, 1781, 1776
1435, 1296, 1697, 1370, 1212
1436, 1380, 2052, 1632, 1674
1437, 926, 838, 1920, 1130
1438, 1883, 1882, 1880, 1881
1439, 107, 106, 1894, 721
1440, 1575, 2288, 758, 1913
1441, 1017, 1112, 1500, 1748
1442, 1865, 1332, 1255, 1253
1443, 1252, 1253, 1255, 1254
1444, 895, 894, 891, 893
1445, 873, 872, 870, 871
1446, 878, 876, 874, 875
1447, 880, 879, 876, 878
1448, 1904, 1341, 927, 924
1449, 1406, 1140, 1218, 1219
1450, 1155, 1347, 1807, 1158
1451, 1369, 1007, 969, 1919
1452, 1906, 1904, 922, 1986
1453, 1860, 1352, 1353, 1482
1454, 853, 849, 851, 852
1455, 731, 1889, 185, 184
1456, 1623, 1616, 1495, 1617
1457, 1774, 847, 848, 849
1458, 1197, 1196, 1194, 1195
1459, 1898, 1897, 911, 1896
1460, 1332, 1333, 1866, 1255
1461, 1515, 1318, 1966, 1521
1462, 1773, 1527, 2235, 1742
1463, 1332, 1641, 1502, 1333
1464, 897, 896, 894, 895
1465, 834, 1812, 1813, 1956
1466, 931, 932, 934, 933
1467, 1804, 1208, 1209, 1493
1468, 792, 793, 795, 794
1469, 1333, 1502, 1588, 1528
1470, 1857, 1859, 2212, 1858
1471, 1817, 843, 844, 845
1472, 868, 1940, 862, 864
1473, 1341, 1904, 1906, 1905
1474, 1908, 1793, 1791, 1794
1475, 904, 867, 865, 903
1476, 1149, 1151, 1152, 1150
1477, 1368, 1627, 1936, 1768
1478, 1914, 1053, 1027, 1054
1479, 1309, 1223, 1221, 1123
1480, 1053, 1017, 1000, 1027
1481, 1677, 1676, 2049, 1678
1482, 1470, 1969, 1325, 1323
1483, 1044, 1043, 1220, 1051
1484, 965, 957, 956, 964
1485, 1133, 1895, 852, 851
1486, 1784, 1136, 1138, 1140
1487, 1478, 2194, 911, 1895
1488, 1342, 1312, 1311, 1310
1489, 1225, 1132, 1227, 1226
1490, 1799, 1481, 1480, 1948
1491, 1054, 1161, 1249, 1166
1492, 1647, 1469, 1467, 1934
1493, 963, 819, 1971, 967
1494, 1143, 1141, 1983, 1415
1495, 1895, 1133, 1428, 1478
1496, 899, 851, 849, 848
1497, 843, 839, 837, 842
1498, 1187, 1189, 1190, 1188
1499, 929, 930, 932, 931
1500, 1461, 1320, 1265, 1264
1501, 1166, 1249, 1366, 1250
1502, 847, 845, 844, 846
1503, 1345, 1276, 1268, 1198
1504, 1899, 844, 843, 842
1505, 912, 1247, 1964, 901
1506, 1620, 1622, 1955, 1618
1507, 1245, 1160, 1917, 1585
1508, 917, 904, 903, 916
1509, 1569, 1552, 1567, 1568
1510, 1920, 838, 837, 839
1511, 1155, 1158, 1217, 1154
1512, 935, 934, 960, 936
1513, 2317, 1579, 1577, 1578
1514, 1030, 1029, 1006, 1010
1515, 1316, 1452, 1766, 1582
1516, 1136, 1784, 1945, 1134
1517, 947, 949, 2022, 1009
1518, 1318, 1240, 1235, 1199
1519, 1527, 1773, 1395, 1393
1520, 1022, 1021, 1199, 1042
1521, 1185, 1187, 1188, 1186
1522, 925, 928, 930, 929
1523, 972, 917, 970, 971
1524, 1053, 1914, 1962, 1113
1525, 1898, 1978, 857, 1897
1526, 1462, 1331, 1557, 1556
1527, 1790, 1791, 1793, 1789
1528, 1547, 1430, 1429, 1546
1529, 1739, 1284, 1162, 1098
1530, 1229, 1228, 1353, 1352
1531, 838, 836, 835, 837
1532, 1554, 1366, 1249, 1440
1533, 1147, 1149, 1150, 1148
1534, 1271, 1147, 1146, 1145
1535, 1894, 1996, 1888, 721
1536, 1358, 1328, 1804, 1954
1537, 1812, 834, 835, 836
1538, 1919, 1656, 1652, 1369
1539, 855, 852, 1895, 911
1540, 1291, 1202, 1944, 1292
1541, 1710, 1709, 1554, 1440
1542, 1586, 1482, 1353, 1536
1543, 795, 1892, 2005, 796
1544, 1878, 2013, 2056, 1877
1545, 988, 987, 1966, 1021
1546, 825, 823, 1965, 966
1547, 1017, 985, 986, 1000
1548, 1158, 1334, 1303, 1217
1549, 1183, 1185, 1186, 1184
1550, 1191, 1192, 1259, 1190
1551, 1243, 835, 834, 833
1552, 998, 1943, 976, 978
1553, 1414, 2000, 1166, 1250
1554, 1686, 1451, 1449, 1947
1555, 1738, 1946, 909, 907
1556, 2077, 2052, 1765, 1211
1557, 1956, 832, 833, 834
1558, 1362, 2018, 1300, 1302
1559, 1222, 1305, 1491, 1417
1560, 928, 925, 924, 927
1561, 1011, 1012, 1423, 998
1562, 1356, 1325, 1969, 1488
1563, 898, 1795, 885, 883
1564, 1081, 1540, 1921, 1064
1565, 1054, 1105, 1213, 1161
1566, 1904, 924, 923, 922
1567, 1914, 2000, 1803, 1962
1568, 1961, 1324, 1326, 1438
1569, 1443, 1268, 1276, 1404
1570, 1430, 1261, 1237, 1429
1571, 1560, 1319, 1442, 1559
1572, 912, 913, 921, 920
1573, 1995, 840, 822, 824
1574, 842, 837, 835, 1953
1575, 1153, 1154, 1942, 1152
1576, 901, 902, 913, 912
1577, 1349, 1284, 1426, 1684
1578, 1874, 1873, 2032, 1879
1579, 1341, 1535, 1967, 927
1580, 1261, 1205, 1062, 1237
1581, 1071, 1072, 1974, 1032
1582, 890, 892, 902, 901
1583, 1181, 1183, 1184, 1182
1584, 1048, 1047, 1297, 1083
1585, 1217, 1303, 1442, 1319
1586, 892, 890, 889, 891
1587, 1448, 1444, 1337, 1338
1588, 841, 830, 831, 832
1589, 1439, 1175, 1278, 1435
1590, 907, 908, 1916, 906
1591, 823, 821, 2007, 1965
1592, 1251, 1948, 1068, 1095
1593, 1524, 1520, 1519, 1518
1594, 1806, 1209, 1208, 1111
1595, 1374, 1373, 1661, 1378
1596, 1699, 1455, 1701, 1700
1597, 920, 921, 1998, 987
1598, 1864, 1173, 1092, 1089
1599, 1669, 1814, 1815, 755
1600, 1161, 1937, 1440, 1249
1601, 2284, 1565, 1566, 2299
1602, 850, 831, 830, 829
1603, 1143, 1145, 1146, 1144
1604, 1179, 1181, 1182, 1180
1605, 832, 831, 1958, 833
1606, 890, 888, 887, 889
1607, 905, 1055, 1056, 1039
1608, 1198, 1268, 1935, 1196
1609, 1551, 1358, 1567, 1552
1610, 927, 1967, 961, 928
1611, 987, 1998, 1521, 1966
1612, 902, 892, 1959, 1329
1613, 1786, 1950, 977, 975
1614, 861, 1939, 1968, 863
1615, 1021, 1966, 1318, 1199
1616, 1006, 1004, 968, 969
1617, 1340, 1057, 1056, 1055
1618, 979, 967, 1257, 994
1619, 1270, 1100, 1204, 1206
1620, 1046, 1075, 1160, 1074
1621, 884, 886, 1833, 1200
1622, 894, 1959, 892, 891
1623, 1262, 1264, 1265, 1263
1624, 1279, 1170, 2006, 1375
1625, 1572, 1570, 1568, 1571
1626, 1983, 1135, 1066, 1339
1627, 1818, 1204, 1100, 1099
1628, 1338, 1337, 1206, 1204
1629, 1205, 1060, 1061, 1062
1630, 922, 923, 1998, 921
1631, 1141, 1143, 1144, 1142
1632, 1039, 1056, 1224, 1987
1633, 858, 857, 1978, 859
1634, 931, 933, 1014, 1970
1635, 1177, 1179, 1180, 1178
1636, 1000, 986, 1099, 1001
1637, 1121, 1061, 1060, 1059
1638, 885, 887, 888, 886
1639, 1386, 1976, 1028, 1096
1640, 1499, 1206, 1337, 1972
1641, 873, 874, 919, 872
1642, 2229, 1648, 1458, 1459
1643, 2172, 1607, 1493, 1209
1644, 1156, 826, 827, 828
1645, 881, 883, 884, 882
1646, 1027, 1000, 1001, 1975
1647, 1172, 1239, 1248, 1106
1648, 1137, 1141, 1142, 1139
1649, 1471, 1383, 1545, 1544
1650, 897, 905, 1039, 896
1651, 1277, 1359, 1420, 1251
1652, 973, 971, 1945, 1002
1653, 883, 885, 886, 884
1654, 1154, 1217, 1319, 1942
1655, 1970, 2038, 929, 931
1656, 880, 881, 882, 879
1657, 1305, 1222, 1221, 1304
1658, 1266, 1869, 2120, 1848
1659, 817, 818, 820, 819
1660, 1356, 1326, 1324, 1325
1661, 1940, 868, 870, 1109
1662, 1627, 1368, 1625, 1626
1663, 861, 859, 1978, 910
1664, 1479, 1925, 1321, 1320
1665, 815, 816, 818, 817
1666, 1123, 1221, 1222, 1122
1667, 1239, 1262, 1263, 1248
1668, 1364, 1868, 1638, 1362
1669, 1768, 1280, 1367, 1368
1670, 863, 1968, 903, 865
1671, 1921, 1952, 993, 991
1672, 1054, 1027, 1975, 1105
1673, 1960, 1058, 1059, 1060
1674, 813, 814, 816, 815
1675, 808, 809, 811, 810
1676, 810, 811, 814, 813
1677, 1113, 1962, 1353, 1228
1678, 1068, 1948, 1480, 1306
1679, 1628, 1630, 2331, 2035
1680, 1310, 1311, 1973, 1223
1681, 1850, 1114, 981, 2010
1682, 1312, 1522, 1523, 1311
1683, 1139, 1138, 1136, 1137
1684, 1319, 1560, 1988, 1942
1685, 1224, 1056, 1057, 1058
1686, 2255, 2124, 1749, 738
1687, 1976, 1386, 1388, 1764
1688, 1580, 1594, 1595, 1410
1689, 800, 798, 797, 799
1690, 829, 830, 1984, 828
1691, 1640, 1465, 1957, 1643
1692, 824, 826, 1156, 1995
1693, 1437, 1960, 1060, 1205
1694, 1082, 1177, 1178, 1176
1695, 1201, 1989, 1084, 1087
1696, 1058, 1057, 1856, 1059
1697, 1082, 1176, 1278, 1175
1698, 826, 824, 823, 825
1699, 1260, 1372, 1532, 1531
1700, 1329, 1986, 913, 902
1701, 1148, 1150, 1988, 1207
1702, 888, 890, 901, 1964
1703, 1470, 1323, 1322, 1321
1704, 1325, 1324, 1322, 1323
1705, 735, 2039, 97, 96
1706, 1213, 1105, 1975, 1514
1707, 1508, 1507, 1298, 1425
1708, 1122, 1121, 2067, 1123
1709, 1320, 1321, 1322, 1265
1710, 824, 822, 821, 823
1711, 790, 789, 1120, 791
1712, 1324, 1961, 2009, 1322
1713, 1219, 1218, 1425, 1298
1714, 1989, 1201, 1290, 1829
1715, 1137, 1136, 1134, 1135
1716, 921, 913, 1986, 922
1717, 1633, 1591, 1435, 1436
1718, 1942, 1988, 1150, 1152
1719, 1486, 1485, 2088, 1576
1720, 1616, 1474, 1494, 1495
1721, 812, 800, 799, 801
1722, 1444, 1445, 1972, 1337
1723, 822, 820, 818, 821
1724, 1964, 1833, 886, 888
1725, 1064, 1065, 1082, 1081
1726, 1082, 1175, 1855, 1081
1727, 1594, 1596, 1597, 1595
1728, 806, 805, 1418, 807
1729, 1596, 1631, 1632, 1597
1730, 1032, 1070, 1918, 1071
1731, 1245, 1371, 1372, 1260
1732, 1174, 1282, 1289, 1281
1733, 1536, 1353, 1962, 1803
1734, 1079, 1649, 1917, 1077
1735, 985, 983, 982, 984
1736, 1377, 1458, 1868, 1364
1737, 1280, 1768, 1918, 1070
1738, 1606, 761, 2211, 1735
1739, 1856, 2095, 1660, 2067
1740, 1036, 2006, 1170, 1067
1741, 1114, 812, 980, 981
1742, 1135, 1983, 1141, 1137
1743, 798, 795, 793, 797
1744, 1465, 1378, 1661, 1957
1745, 1160, 1245, 1260, 1244
1746, 1121, 1122, 1985, 1061
1747, 917, 916, 1066, 970
1748, 1987, 1993, 896, 1039
1749, 2020, 1639, 1638, 1655
1750, 970, 1066, 1135, 1134
1751, 1393, 1395, 1396, 1394
1752, 957, 965, 992, 2012
1753, 1046, 1074, 2003, 1034
1754, 1140, 1138, 1990, 1218
1755, 1278, 1176, 1178, 2002
1756, 782, 754, 1670, 783
1757, 1034, 2003, 1423, 1012
1758, 1015, 994, 1257, 1980
1759, 914, 915, 1916, 908
1760, 989, 977, 1950, 999
1761, 990, 1063, 1065, 1064
1762, 1947, 1999, 984, 1159
1763, 983, 981, 980, 982
1764, 1767, 1668, 1375, 2006
1765, 971, 970, 1134, 1945
1766, 1077, 1917, 1160, 1075
1767, 267, 1941, 720, 266
1768, 1040, 1041, 1124, 1080
1769, 1223, 1973, 1304, 1221
1770, 2047, 1888, 1996, 2188
1771, 1138, 1139, 1230, 1990
1772, 1417, 1985, 1122, 1222
1773, 263, 1933, 719, 264
1774, 1529, 1005, 1424, 1509
1775, 265, 1932, 757, 264
1776, 951, 953, 1106, 2011
1777, 1546, 2180, 1197, 2170
1778, 1054, 1166, 2000, 1914
1779, 1290, 1291, 1294, 2045
1780, 2206, 1227, 2214, 1783
1781, 796, 2005, 805, 804
1782, 1019, 993, 1952, 1020
1783, 1402, 1403, 1912, 1399
1784, 1072, 1169, 1300, 2018
1785, 992, 1003, 1037, 2015
1786, 985, 984, 1999, 986
1787, 1362, 1638, 1639, 2018
1788, 812, 801, 1094, 980
1789, 266, 720, 1932, 265
1790, 1103, 1071, 1918, 1115
1791, 896, 1993, 1959, 894
1792, 262, 759, 1933, 263
1793, 1435, 1278, 2002, 1436
1794, 1818, 1099, 986, 1999
1795, 1432, 1412, 2008, 1433
1796, 999, 1008, 2020, 989
1797, 965, 964, 1063, 990
1798, 1802, 2023, 1383, 1381
1799, 269, 1913, 758, 268
1800, 1720, 1102, 1212, 2033
1801, 1629, 1625, 1368, 1367
1802, 268, 758, 1941, 267
1803, 1238, 1186, 1188, 2013
1804, 1559, 1561, 2061, 1560
1805, 923, 2016, 1521, 1998
1806, 792, 791, 2017, 793
1807, 1391, 1991, 1764, 1388
1808, 1180, 1286, 2002, 1178
1809, 925, 929, 2038, 2016
1810, 2011, 2022, 949, 951
1811, 1001, 2014, 1514, 1975
1812, 1681, 1683, 2242, 1654
1813, 1167, 1050, 1107, 1951
1814, 1068, 1306, 2015, 1037
1815, 924, 925, 2016, 923
1816, 1289, 2004, 1367, 1281
1817, 1125, 2126, 1108, 1080
1818, 1393, 1394, 1991, 1391
1819, 1099, 1100, 2014, 1001
1820, 1408, 1410, 2037, 1407
1821, 1177, 1082, 1065, 1994
1822, 1063, 1335, 1994, 1065
1823, 1492, 2034, 1985, 1417
1824, 898, 1893, 1407, 2037
1825, 1315, 1203, 2042, 1316
1826, 2021, 1418, 805, 2005
1827, 1748, 2010, 981, 983
1828, 1553, 2198, 1273, 1308
1829, 1061, 1985, 2034, 1062
1830, 1218, 1990, 2040, 1425
1831, 1174, 1281, 1367, 1280
1832, 1986, 1329, 2044, 1906
1833, 2191, 1557, 2204, 1780
1834, 1519, 1756, 2276, 2227
1835, 1695, 2093, 1023, 2065
1836, 1073, 1174, 1280, 1070
1837, 1055, 1863, 2072, 1340
1838, 1160, 1244, 2003, 1074
1839, 1285, 1214, 1215, 1273
1840, 1344, 1215, 1214, 1157
1841, 2005, 1892, 1241, 2021
1842, 1032, 1031, 1073, 1070
1843, 1289, 2228, 2312, 2004
1844, 984, 982, 2036, 1159
1845, 916, 903, 1968, 2019
1846, 1485, 1486, 1653, 1370
1847, 1322, 2009, 1263, 1265
1848, 1758, 1629, 1367, 2004
1849, 272, 1949, 726, 271
1850, 1029, 2031, 1004, 1006
1851, 821, 818, 816, 2007
1852, 1627, 1626, 1630, 1628
1853, 1169, 1103, 2042, 1203
1854, 814, 1258, 2007, 816
1855, 1799, 2299, 1566, 2049
1856, 1734, 2262, 1564, 2236
1857, 98, 97, 2039, 768
1858, 1361, 1644, 2288, 1640
1859, 2041, 2031, 1029, 1118
1860, 1992, 1124, 1157, 1214
1861, 1211, 1795, 2060, 2077
1862, 1339, 1066, 916, 2019
1863, 771, 1809, 2091, 1808
1864, 1274, 1413, 1421, 1275
1865, 273, 762, 1949, 272
1866, 1413, 1555, 2055, 1421
1867, 1212, 1370, 1653, 2033
1868, 1248, 1263, 2009, 1506
1869, 1515, 1521, 2016, 2038
1870, 1081, 1855, 2082, 1540
1871, 1902, 2068, 964, 956
1872, 1030, 1049, 1118, 1029
1873, 994, 995, 2093, 979
1874, 1628, 2035, 755, 1815
1875, 1106, 1248, 1506, 2011
1876, 797, 1427, 2024, 799
1877, 277, 276, 1977, 1979
1878, 793, 2017, 1427, 797
1879, 2080, 2056, 1190, 1259
1880, 1480, 1504, 2015, 1306
1881, 1452, 1453, 1511, 1510
1882, 277, 1981, 1982, 276
1883, 274, 1963, 762, 273
1884, 982, 980, 1094, 2036
1885, 1474, 1433, 2008, 1494
1886, 1375, 1668, 2008, 1412
1887, 1005, 1004, 2031, 1424
1888, 276, 275, 732, 1977
1889, 757, 1832, 1831, 2245
1890, 1880, 1876, 2080, 1881
1891, 278, 746, 1981, 277
1892, 1993, 2044, 1329, 1959
1893, 275, 733, 1963, 274
1894, 276, 1982, 733, 275
1895, 1853, 1182, 1184, 2073
1896, 884, 1827, 2097, 882
1897, 918, 968, 2043, 915
1898, 1062, 2034, 2048, 1237
1899, 799, 2024, 1094, 801
1900, 1802, 1069, 2075, 2023
1901, 1316, 1454, 1453, 1452
1902, 1396, 1434, 1991, 1394
1903, 1433, 1473, 2173, 1432
1904, 2330, 1922, 2313, 777
1905, 1335, 1063, 964, 2068
1906, 1233, 1234, 1951, 1107
1907, 1795, 898, 2037, 2060
1908, 1004, 1005, 2043, 968
1909, 1995, 1156, 2200, 2178
1910, 783, 1672, 1365, 785
1911, 1057, 1340, 2095, 1856
1912, 1924, 778, 2314, 1923
1913, 832, 1956, 2100, 841
1914, 1671, 1672, 783, 1670
1915, 2171, 1406, 1219, 2115
1916, 2102, 1826, 1770, 1463
1917, 958, 2181, 1845, 2186
1918, 1875, 1879, 2141, 1878
1919, 1854, 2073, 1238, 2141
1920, 972, 1772, 2146, 1771
1921, 1523, 2320, 1798, 2230
1922, 1852, 1853, 2073, 1854
1923, 1423, 2003, 1244, 2051
1924, 264, 719, 2053, 265
1925, 1614, 1422, 1558, 1613
1926, 193, 728, 2118, 194
1927, 747, 2149, 1537, 2159
1928, 947, 1009, 2112, 1816
1929, 1576, 1577, 2046, 1486
1930, 1763, 1504, 1480, 2058
1931, 1601, 1602, 2232, 1650
1932, 2201, 2191, 1018, 1801
1933, 1607, 1608, 2113, 1493
1934, 1531, 2051, 1244, 1260
1935, 2214, 2207, 1782, 1783
1936, 1203, 1315, 2142, 1299
1937, 1891, 1073, 1031, 2050
1938, 2022, 2076, 2112, 1009
1939, 1558, 1422, 1275, 1421
1940, 1680, 1624, 1620, 1621
1941, 1816, 2059, 1859, 1128
1942, 2119, 840, 2156, 1926
1943, 2013, 1188, 1190, 2056
1944, 1008, 999, 2050, 1031
1945, 1665, 1490, 2147, 1687
1946, 1168, 1653, 1486, 2046
1947, 1372, 1598, 2057, 1532
1948, 939, 938, 2106, 940
1949, 1309, 1660, 1509, 2085
1950, 750, 2123, 90, 89
1951, 2122, 1689, 1462, 2135
1952, 1410, 1595, 2060, 2037
1953, 1618, 1619, 1621, 1620
1954, 1481, 1675, 2058, 1480
1955, 1196, 1935, 2098, 1194
1956, 1192, 2098, 1938, 1259
1957, 1704, 1706, 2215, 756
1958, 1447, 1695, 2065, 1434
1959, 1976, 1764, 2065, 1023
1960, 195, 770, 2152, 196
1961, 1124, 1041, 2054, 1157
1962, 828, 1984, 2200, 1156
1963, 1052, 1868, 1458, 2071
1964, 1905, 1906, 2044, 2063
1965, 1158, 1807, 2157, 1334
1966, 1993, 1987, 2063, 2044
1967, 1040, 1020, 2054, 1041
1968, 1579, 1605, 2046, 1577
1969, 1059, 1856, 2067, 1121
1970, 1931, 1339, 2019, 2062
1971, 2223, 1642, 2328, 1503
1972, 1943, 2074, 2109, 1110
1973, 737, 2133, 181, 180
1974, 1849, 1848, 2120, 2111
1975, 786, 788, 1168, 2069
1976, 1607, 2172, 1408, 1409
1977, 906, 1916, 2072, 1863
1978, 1207, 1988, 1560, 2061
1979, 197, 734, 2168, 198
1980, 1430, 1547, 2128, 2116
1981, 2019, 1968, 1939, 2062
1982, 1005, 1529, 2072, 2043
1983, 1261, 1430, 2116, 2110
1984, 2269, 1792, 2252, 1232
1985, 2161, 1657, 1483, 2164
1986, 1996, 1894, 2159, 1537
1987, 1439, 1750, 2124, 2325
1988, 1045, 2071, 1458, 1648
1989, 1186, 1238, 2073, 1184
1990, 945, 944, 2139, 946
1991, 998, 1423, 2074, 1943
1992, 1608, 1762, 2306, 2145
1993, 1743, 1933, 759, 2235
1994, 1276, 1345, 2203, 1346
1995, 106, 105, 2159, 1894
1996, 1960, 1437, 2105, 2084
1997, 1727, 1447, 2129, 1728
1998, 199, 766, 2195, 200
1999, 1862, 2068, 1902, 1861
2000, 1237, 2048, 2094, 1429
2001, 1689, 2122, 872, 919
2002, 1590, 1713, 2304, 729
2003, 1519, 2218, 1755, 1756
2004, 1565, 1163, 2114, 1566
2005, 249, 2029, 774, 248
2006, 1531, 2074, 1423, 2051
2007, 1383, 2023, 2075, 1545
2008, 249, 248, 773, 2027
2009, 250, 249, 2027, 748
2010, 115, 739, 2208, 116
2011, 1117, 1336, 2145, 1079
2012, 915, 2043, 2072, 1916
2013, 1415, 1931, 2104, 1930
2014, 250, 749, 2029, 249
2015, 840, 2119, 820, 822
2016, 1145, 1929, 2160, 1271
2017, 1873, 768, 2153, 2032
2018, 1349, 1684, 2286, 1534
2019, 1595, 1597, 2077, 2060
2020, 1987, 1224, 2084, 2063
2021, 932, 2078, 960, 934
2022, 1718, 1721, 2264, 1530
2023, 2056, 2080, 1876, 1877
2024, 2011, 1506, 2076, 2022
2025, 1612, 1464, 1714, 2308
2026, 1424, 1659, 2085, 1509
2027, 1466, 1646, 2138, 1450
2028, 1525, 2316, 1615, 2259
2029, 2052, 2077, 1597, 1632
2030, 2125, 2079, 1115, 1936
2031, 1961, 2076, 1506, 2009
2032, 1931, 2062, 1939, 2104
2033, 1133, 1267, 2086, 1428
2034, 1434, 1396, 2129, 1447
2035, 1569, 1830, 2243, 1831
2036, 1687, 2137, 807, 1418
2037, 731, 1787, 2217, 1788
2038, 1552, 1832, 2274, 1551
2039, 811, 809, 2137, 1035
2040, 1440, 1937, 2143, 1710
2041, 1058, 1960, 2084, 1224
2042, 1928, 2088, 1485, 1487
2043, 1340, 2072, 1529, 2095
2044, 1399, 1912, 2129, 1397
2045, 1347, 1155, 2193, 1348
2046, 114, 113, 2224, 764
2047, 1606, 1736, 2278, 761
2048, 1497, 2090, 1428, 2086
2049, 2150, 2134, 1980, 1257
2050, 1479, 1926, 2156, 1925
2051, 1274, 1275, 2064, 1234
2052, 937, 936, 2179, 938
2053, 2250, 1860, 1482, 2202
2054, 752, 280, 279, 2092
2055, 1884, 1885, 2226, 769
2056, 1419, 1994, 1335, 2081
2057, 830, 841, 2209, 1984
2058, 1723, 1564, 1563, 2216
2059, 2165, 1837, 2078, 2169
2060, 1478, 1428, 2090, 1548
2061, 1576, 2088, 743, 2315
2062, 928, 961, 2169, 930
2063, 1157, 2054, 2099, 1344
2064, 875, 2130, 1604, 1673
2065, 2075, 1733, 1403, 2295
2066, 1614, 2064, 1275, 1422
2067, 2204, 2206, 1777, 1780
2068, 1764, 1991, 1434, 2065
2069, 1110, 2109, 2146, 1772
2070, 1365, 2247, 1724, 2222
2071, 253, 744, 2089, 252
2072, 2164, 1258, 814, 2161
2073, 1016, 1023, 2093, 995
2074, 2275, 2234, 1970, 1014
2075, 248, 247, 2025, 773
2076, 1981, 2237, 1533, 1534
2077, 1550, 1891, 2050, 2103
2078, 248, 774, 2026, 247
2079, 1761, 1760, 2312, 2108
2080, 760, 259, 260, 2107
2081, 2013, 1878, 2141, 1238
2082, 1475, 1610, 2162, 1468
2083, 1326, 2140, 2059, 1438
2084, 2160, 2175, 1915, 1271
2085, 261, 2096, 759, 262
2086, 1214, 1285, 2233, 1992
2087, 1103, 1115, 2079, 2042
2088, 1100, 1270, 2148, 2014
2089, 1336, 1117, 2277, 2282
2090, 1911, 1907, 1908, 2101
2091, 273, 272, 2176, 756
2092, 1911, 2101, 1561, 723
2093, 2167, 1839, 1841, 2182
2094, 882, 2097, 876, 879
2095, 2206, 2204, 1226, 1227
2096, 1509, 1660, 2095, 1529
2097, 86, 85, 2313, 1922
2098, 1935, 2132, 1938, 2098
2099, 2134, 2150, 1926, 1479
2100, 1316, 2042, 2079, 1454
2101, 1637, 2183, 270, 269
2102, 1125, 1992, 2233, 2196
2103, 1405, 1512, 2223, 1350
2104, 1537, 1404, 2188, 1996
2105, 121, 1923, 2314, 122
2106, 250, 2028, 2155, 251
2107, 1193, 1194, 2098, 1192
2108, 1862, 2081, 1335, 2068
2109, 2063, 2084, 2105, 1905
2110, 1332, 1865, 2223, 1503
2111, 1149, 1915, 2192, 1151
2112, 2207, 2214, 1051, 1220
2113, 2317, 1578, 2155, 2028
2114, 1446, 2100, 1956, 1813
2115, 999, 1950, 2103, 2050
2116, 919, 874, 876, 2102
2117, 280, 2136, 2293, 279
2118, 1152, 1151, 2197, 1153
2119, 1535, 1341, 1905, 2105
2120, 1199, 1235, 2221, 1042
2121, 1384, 1649, 2306, 1662
2122, 1826, 2102, 876, 2097
2123, 942, 940, 2106, 958
2124, 1612, 2249, 1377, 1464
2125, 1535, 2105, 1437, 2110
2126, 1870, 1118, 1049, 2154
2127, 1848, 1849, 2186, 1847
2128, 2131, 2103, 1950, 1786
2129, 1020, 1952, 2099, 2054
2130, 1540, 2099, 1952, 1921
2131, 936, 937, 2238, 935
2132, 176, 175, 2331, 741
2133, 1433, 1474, 2185, 1473
2134, 1507, 2108, 1441, 1298
2135, 1195, 1834, 2170, 1197
2136, 861, 910, 2104, 1939
2137, 281, 282, 778, 2070
2138, 1033, 2114, 1163, 1038
2139, 1320, 1461, 2134, 1479
2140, 1215, 1344, 2082, 2151
2141, 1256, 1866, 2244, 1867
2142, 1543, 1592, 2187, 1477
2143, 1205, 1261, 2110, 1437
2144, 1409, 1662, 2306, 1762
2145, 1443, 2149, 1883, 2132
2146, 2074, 1531, 1532, 2109
2147, 1494, 2008, 1108, 2126
2148, 1570, 1573, 2303, 1830
2149, 1635, 1167, 1951, 2163
2150, 258, 257, 2211, 761
2151, 1298, 1441, 2115, 1219
2152, 1861, 959, 2111, 1862
2153, 1564, 1723, 1719, 2236
2154, 1268, 1443, 2132, 1935
2155, 1836, 2167, 2078, 1837
2156, 1954, 1804, 1493, 2113
2157, 1831, 2243, 261, 262
2158, 1888, 2047, 2220, 1886
2159, 1758, 2004, 2312, 1760
2160, 2081, 2120, 1869, 1419
2161, 763, 1749, 2124, 1750
2162, 1831, 262, 263, 2245
2163, 2290, 2289, 1811, 1890
2164, 1714, 2239, 256, 257
2165, 785, 1365, 2222, 787
2166, 1851, 1852, 2153, 1752
2167, 275, 274, 2215, 732
2168, 1584, 1900, 1899, 2292
2169, 2076, 1961, 1438, 2112
2170, 1724, 1120, 789, 2222
2171, 1015, 1980, 2117, 1026
2172, 91, 90, 2123, 1800
2173, 2182, 960, 2078, 2167
2174, 1609, 2121, 1456, 1356
2175, 2110, 2116, 1967, 1535
2176, 280, 752, 2177, 281
2177, 265, 2053, 2267, 266
2178, 770, 195, 194, 2118
2179, 1930, 2104, 910, 2127
2180, 1518, 1519, 2227, 1343
2181, 1109, 870, 872, 2122
2182, 828, 827, 2257, 829
2183, 1395, 1397, 2129, 1396
2184, 1198, 2180, 2094, 1345
2185, 252, 2089, 2265, 251
2186, 1909, 1794, 2269, 1910
2187, 1270, 2311, 1589, 2148
2188, 1928, 2253, 255, 254
2189, 1846, 1847, 2186, 1845
2190, 1849, 2111, 959, 2139
2191, 781, 1654, 2242, 779
2192, 1406, 2171, 2131, 1872
2193, 1701, 1533, 2237, 1700
2194, 182, 181, 2133, 767
2195, 732, 1707, 1432, 2173
2196, 1711, 899, 848, 2302
2197, 1444, 2166, 2091, 1445
2198, 819, 820, 2119, 1971
2199, 844, 1104, 2302, 846
2200, 1898, 2127, 910, 1978
2201, 1473, 1977, 732, 2173
2202, 2116, 2128, 961, 1967
2203, 1139, 1142, 2252, 1230
2204, 1872, 2131, 1786, 1002
2205, 1311, 1523, 2230, 1973
2206, 835, 1243, 2292, 1953
2207, 1815, 2294, 2125, 1628
2208, 1495, 1997, 2196, 1617
2209, 1910, 2287, 1148, 1207
2210, 1881, 1938, 2132, 1883
2211, 2321, 2297, 1366, 1554
2212, 1900, 1584, 1385, 2297
2213, 808, 807, 2137, 809
2214, 948, 946, 2139, 959
2215, 1495, 1494, 2126, 1997
2216, 1651, 1448, 1450, 2138
2217, 1780, 1779, 1018, 2191
2218, 1628, 2125, 1936, 1627
2219, 271, 726, 2260, 270
2220, 1637, 269, 268, 2324
2221, 2283, 1571, 1568, 2277
2222, 1144, 1146, 2287, 1232
2223, 1318, 1501, 2328, 1240
2224, 2290, 723, 1561, 1559
2225, 1871, 1427, 2017, 2189
2226, 1348, 2193, 1548, 2090
2227, 1882, 1883, 2149, 747
2228, 1356, 1456, 2140, 1326
2229, 743, 252, 251, 2155
2230, 1714, 257, 258, 2308
2231, 1657, 2147, 1490, 1484
2232, 1928, 254, 253, 2307
2233, 967, 1971, 2150, 1257
2234, 1604, 2130, 877, 2066
2235, 1318, 1515, 2234, 1501
2236, 1161, 1213, 2143, 1937
2237, 1954, 2113, 1336, 2282
2238, 260, 259, 2278, 725
2239, 1601, 1650, 2286, 1684
2240, 1723, 2216, 2324, 742
2241, 1514, 2144, 2143, 1213
2242, 281, 753, 2136, 280
2243, 277, 745, 2256, 278
2244, 1429, 2094, 2180, 1546
2245, 1575, 1913, 2260, 1379
2246, 1404, 1537, 2149, 1443
2247, 2122, 2135, 2190, 1109
2248, 1971, 2119, 1926, 2150
2249, 1611, 1574, 2279, 1612
2250, 1814, 2219, 2294, 1815
2251, 734, 197, 196, 2152
2252, 1721, 1722, 2267, 2053
2253, 2048, 2203, 1345, 2094
2254, 1814, 1511, 1453, 2219
2255, 1645, 1513, 1782, 2207
2256, 1321, 1925, 2156, 1470
2257, 171, 170, 2309, 780
2258, 1273, 1215, 2151, 1308
2259, 1855, 1516, 2151, 2082
2260, 206, 779, 2310, 207
2261, 2144, 1514, 2014, 2148
2262, 944, 942, 958, 2158
2263, 747, 2159, 105, 104
2264, 1415, 1930, 2160, 1929
2265, 2126, 1125, 2196, 1997
2266, 1050, 1167, 2154, 1049
2267, 777, 282, 281, 2177
2268, 1035, 2161, 814, 811
2269, 1282, 1549, 2228, 1289
2270, 1808, 2091, 2166, 728
2271, 2289, 2290, 1559, 1442
2272, 1843, 2181, 958, 2106
2273, 2103, 2131, 2171, 1550
2274, 271, 270, 2183, 727
2275, 1646, 1466, 1468, 2162
2276, 2081, 1862, 2111, 2120
2277, 762, 1667, 2213, 1949
2278, 1752, 2153, 768, 2039
2279, 1898, 2160, 1930, 2127
2280, 751, 1634, 2259, 1615
2281, 1354, 1505, 2164, 1483
2282, 727, 2176, 272, 271
2283, 745, 2185, 1474, 1616
2284, 1681, 1682, 2210, 1683
2285, 2109, 1532, 2057, 2146
2286, 1698, 1699, 2293, 2136
2287, 1448, 1651, 2166, 1444
2288, 1410, 1408, 2172, 1580
2289, 1838, 1839, 2167, 1836
2290, 1692, 775, 1922, 2330
2291, 1516, 2184, 1308, 2151
2292, 2115, 1549, 1550, 2171
2293, 1196, 1197, 2180, 1198
2294, 2078, 932, 930, 2169
2295, 1563, 1636, 2183, 1637
2296, 766, 199, 198, 2168
2297, 1843, 1842, 1845, 2181
2298, 2156, 2178, 1969, 1470
2299, 2160, 1898, 1896, 2175
2300, 2191, 2201, 1556, 1557
2301, 1461, 2117, 1980, 2134
2302, 1347, 1589, 2311, 1807
2303, 1666, 1457, 2213, 1667
2304, 1109, 2190, 1411, 1940
2305, 1581, 1582, 2265, 2089
2306, 1915, 2175, 1896, 2192
2307, 1556, 2201, 1411, 2190
2308, 1404, 1276, 1346, 2188
2309, 860, 1411, 2201, 1801
2310, 1374, 1725, 2213, 1457
2311, 1154, 1153, 2193, 1155
2312, 911, 2194, 2192, 1896
2313, 1610, 1475, 1477, 2187
2314, 2059, 2140, 2212, 1859
2315, 115, 1755, 2218, 739
2316, 2301, 2298, 1303, 1334
2317, 1678, 2199, 1737, 1677
2318, 277, 1979, 2185, 745
2319, 791, 1120, 2189, 2017
2320, 740, 201, 200, 2195
2321, 720, 1587, 2274, 1932
2322, 1417, 1491, 2231, 1492
2323, 774, 2029, 2271, 2030
2324, 1590, 729, 2239, 1712
2325, 1835, 2174, 2170, 1834
2326, 2205, 2217, 1787, 767
2327, 1511, 2030, 2271, 1510
2328, 1025, 2333, 2199, 1033
2329, 1273, 2198, 2251, 1285
2330, 1234, 2064, 2163, 1951
2331, 2096, 261, 260, 1741
2332, 2178, 2200, 1488, 1969
2333, 2064, 1614, 2316, 2163
2334, 1557, 1331, 1226, 2204
2335, 1725, 726, 1949, 2213
2336, 1984, 2209, 1488, 2200
2337, 2277, 1117, 1078, 2283
2338, 730, 2211, 257, 256
2339, 1354, 1860, 2250, 1505
2340, 1783, 1778, 1777, 2206
2341, 207, 2310, 246, 6
2342, 1618, 1617, 2196, 1619
2343, 170, 6, 246, 2309
2344, 122, 2314, 283, 3
2345, 756, 2215, 274, 273
2346, 85, 3, 283, 2313
2347, 1441, 2228, 1549, 2115
2348, 1955, 2092, 2256, 1623
2349, 1634, 117, 116, 2208
2350, 1126, 1164, 2262, 1734
2351, 1547, 2174, 2165, 2128
2352, 1356, 1488, 2209, 1609
2353, 1546, 2170, 2174, 1547
2354, 1972, 2319, 2157, 1499
2355, 1227, 1132, 1051, 2214
2356, 825, 966, 2202, 2263
2357, 1798, 1797, 769, 2226
2358, 788, 787, 2222, 789
2359, 1671, 740, 2323, 1672
2360, 2034, 1492, 2203, 2048
2361, 1220, 1043, 1042, 2221
2362, 1131, 1350, 2223, 1865
2363, 1332, 1503, 2225, 1641
2364, 1462, 1556, 2190, 2135
2365, 736, 2224, 113, 112
2366, 1392, 1743, 2235, 1527
2367, 2251, 2198, 2241, 1691
2368, 2163, 2316, 1525, 1635
2369, 1464, 1712, 2239, 1714
2370, 1734, 2236, 1719, 1389
2371, 1522, 1312, 1343, 2227
2372, 1832, 757, 1932, 2274
2373, 2169, 961, 2128, 2165
2374, 1305, 2291, 2220, 1491
2375, 752, 2322, 1693, 2177
2376, 1928, 2307, 743, 2088
2377, 1076, 1127, 2283, 1078
2378, 1593, 730, 2253, 1927
2379, 1502, 2275, 2238, 1588
2380, 1163, 1565, 2285, 1164
2381, 1526, 1304, 1973, 2230
2382, 1487, 1927, 2253, 1928
2383, 2038, 1970, 2234, 1515
2384, 1955, 1622, 1693, 2322
2385, 939, 1013, 2246, 2268
2386, 1667, 762, 1963, 2232
2387, 1258, 2240, 1965, 2007
2388, 2188, 1346, 2231, 2047
2389, 1803, 1805, 2281, 1536
2390, 1333, 1528, 2244, 1866
2391, 1858, 2244, 1528, 2246
2392, 1505, 2250, 1965, 2240
2393, 1841, 1843, 2179, 2182
2394, 2221, 2266, 1512, 1645
2395, 1563, 1637, 2324, 2216
2396, 1542, 1724, 2247, 1543
2397, 1452, 1510, 2271, 1766
2398, 1644, 2296, 720, 1941
2399, 1400, 1740, 2254, 1472
2400, 2196, 2233, 1621, 1619
2401, 1755, 764, 2276, 1756
2402, 260, 261, 2243, 724
2403, 1346, 2203, 1492, 2231
2404, 264, 757, 2245, 263
2405, 255, 256, 2239, 729
2406, 1700, 2237, 1981, 746
2407, 1414, 1541, 2300, 1805
2408, 1458, 1377, 2249, 1459
2409, 1837, 2165, 2174, 1835
2410, 2310, 779, 2242, 2025
2411, 2301, 1334, 2157, 2319
2412, 1520, 1525, 2259, 1663
2413, 1789, 1788, 2273, 1790
2414, 1797, 1798, 2320, 736
2415, 1385, 1584, 2305, 1541
2416, 1511, 2087, 2326, 2030
2417, 1849, 2158, 958, 2186
2418, 1079, 2145, 2306, 1649
2419, 260, 724, 2303, 2107
2420, 936, 960, 2182, 2179
2421, 2202, 966, 1965, 2250
2422, 1392, 1530, 2264, 1743
2423, 1285, 2251, 1621, 2233
2424, 1867, 2212, 2140, 1456
2425, 2092, 279, 278, 2256
2426, 1232, 2252, 1142, 1144
2427, 1709, 1711, 2321, 1554
2428, 2319, 2083, 1809, 2301
2429, 1761, 2205, 767, 2133
2430, 938, 939, 2268, 937
2431, 1736, 1606, 1544, 2270
2432, 2192, 2194, 2197, 1151
2433, 1913, 269, 270, 2260
2434, 1357, 1551, 2274, 1587
2435, 1791, 1790, 2261, 1792
2436, 256, 255, 2253, 730
2437, 749, 250, 251, 2265
2438, 742, 267, 266, 2267
2439, 1258, 2164, 1505, 2240
2440, 1792, 2269, 1794, 1791
2441, 1691, 1680, 1621, 2251
2442, 2221, 1235, 1642, 2266
2443, 1563, 1564, 2262, 1562
2444, 1301, 1716, 2332, 1715
2445, 826, 825, 2263, 827
2446, 738, 1800, 2241, 2255
2447, 1683, 773, 2025, 2242
2448, 1583, 1572, 1571, 2272
2449, 2309, 2026, 2326, 780
2450, 2234, 2275, 1502, 1641
2451, 1361, 1688, 2296, 1644
2452, 1478, 1548, 2197, 2194
2453, 1572, 1583, 2279, 1574
2454, 281, 2070, 2248, 753
2455, 761, 2278, 259, 258
2456, 2227, 2276, 1599, 1522
2457, 1465, 1640, 2288, 1575
2458, 1577, 1576, 2315, 1578
2459, 1990, 1230, 2261, 2040
2460, 189, 723, 2290, 1890
2461, 1164, 2285, 1562, 2262
2462, 2270, 1544, 1545, 2280
2463, 842, 1953, 2292, 1899
2464, 1365, 1672, 2323, 2247
2465, 1425, 2040, 2273, 1508
2466, 1538, 2284, 1420, 1359
2467, 1539, 1562, 2285, 1538
2468, 2304, 1713, 2332, 1717
2469, 1800, 2123, 1691, 2241
2470, 1147, 1148, 2287, 1146
2471, 1401, 1741, 2327, 1740
2472, 1358, 1954, 2282, 1567
2473, 2027, 2210, 2317, 748
2474, 1622, 1692, 2330, 1693
2475, 746, 278, 279, 2293
2476, 1590, 1715, 2332, 1713
2477, 1805, 2300, 850, 2281
2478, 1574, 1611, 2303, 1573
2479, 1304, 1526, 2291, 1305
2480, 1568, 1567, 2282, 2277
2481, 2040, 2261, 1790, 2273
2482, 2258, 1717, 2332, 1716
2483, 1250, 1366, 2297, 1385
2484, 1809, 1810, 2298, 2301
2485, 831, 850, 2300, 1958
2486, 847, 846, 2302, 848
2487, 776, 2318, 1924, 1923
2488, 729, 2304, 254, 255
2489, 1650, 733, 1982, 2286
2490, 1766, 2271, 2029, 749
2491, 1315, 1581, 2258, 2142
2492, 1553, 2255, 2241, 2198
2493, 833, 1958, 2305, 1243
2494, 1541, 2305, 1958, 2300
2495, 1799, 1420, 2284, 2299
2496, 1206, 1499, 2311, 1270
2497, 760, 2107, 2303, 1611
2498, 2297, 2321, 1104, 1900
2499, 778, 1924, 2248, 2070
2500, 2035, 2331, 175, 174
2501, 259, 760, 2308, 258
2502, 1669, 780, 2326, 2087
2503, 252, 743, 2307, 253
2504, 1522, 1599, 2320, 1523
2505, 1613, 1615, 2316, 1614
2506, 1235, 1240, 2328, 1642
2507, 267, 742, 2324, 268
2508, 1482, 1586, 2263, 2202
2509, 260, 725, 2327, 1741
2510, 2247, 2323, 1592, 1543
2511, 1015, 1026, 2333, 1025
2512, 2280, 1545, 2075, 2295
2513, 1301, 2142, 2258, 1716
2514, 1536, 2281, 2257, 1586
2515, 725, 2254, 1740, 2327
2516, 247, 2026, 2309, 246
2517, 247, 246, 2310, 2025
2518, 250, 748, 2317, 2028
2519, 2079, 2125, 2294, 1454
2520, 2255, 1553, 2325, 2124
2521, 1453, 1454, 2294, 2219
2522, 282, 777, 2313, 283
2523, 282, 283, 2314, 778
2524, 1516, 1439, 2325, 2184
2525, 1445, 2083, 2319, 1972
2526, 1886, 2220, 2291, 1885
2527, 2228, 1441, 2108, 2312
2528, 1501, 2225, 1503, 2328
2529, 1421, 2055, 2329, 1558
2530, 2030, 2326, 2026, 774
2531, 1026, 1737, 2199, 2333
2532, 935, 2238, 2275, 1014
2533, 1308, 2184, 2325, 1553
2534, 743, 2155, 1578, 2315
2535, 1528, 1588, 2268, 2246
2536, 1612, 2279, 1459, 2249
2537, 829, 2257, 2281, 850
2538, 1127, 2272, 1571, 2283
2539, 1303, 2298, 2289, 1442
2540, 1924, 2318, 2329, 2055
2541, 1811, 2289, 2298, 1810
2542, 1694, 2329, 2318, 776
*ELEMENT, type=CPS4, ELSET=Surface6
2543, 321, 7, 5, 245
2544, 5, 7, 284, 208
2545, 317, 318, 242, 241
2546, 211, 287, 288, 212
2547, 313, 314, 238, 237
2548, 215, 291, 292, 216
2549, 314, 315, 239, 238
2550, 214, 290, 291, 215
2551, 289, 290, 214, 213
2552, 316, 240, 239, 315
2553, 237, 236, 312, 313
2554, 293, 217, 216, 292
2555, 284, 285, 209, 208
2556, 244, 320, 321, 245
2557, 288, 289, 213, 212
2558, 317, 241, 240, 316
2559, 293, 294, 218, 217
2560, 235, 311, 312, 236
2561, 318, 319, 243, 242
2562, 210, 286, 287, 211
2563, 319, 320, 244, 243
2564, 209, 285, 286, 210
2565, 294, 295, 219, 218
2566, 234, 310, 311, 235
2567, 226, 302, 303, 227
2568, 301, 302, 226, 225
2569, 227, 303, 304, 228
2570, 300, 301, 225, 224
2571, 305, 229, 228, 304
2572, 295, 296, 220, 219
2573, 233, 309, 310, 234
2574, 299, 300, 224, 223
2575, 229, 305, 306, 230
2576, 296, 297, 221, 220
2577, 232, 308, 309, 233
2578, 297, 298, 222, 221
2579, 231, 307, 308, 232
2580, 298, 299, 223, 222
2581, 307, 231, 230, 306
*ELEMENT, type=CPS4, ELSET=Surface7
2582, 245, 5, 8, 359
2583, 325, 211, 212, 326
2584, 241, 242, 356, 355
2585, 329, 215, 216, 330
2586, 237, 238, 352, 351
2587, 353, 239, 240, 354
2588, 213, 214, 328, 327
2589, 329, 328, 214, 215
2590, 353, 352, 238, 239
2591, 241, 355, 354, 240
2592, 212, 213, 327, 326
2593, 349, 235, 236, 350
2594, 217, 218, 332, 331
2595, 208, 209, 323, 322
2596, 358, 244, 245, 359
2597, 330, 216, 217, 331
2598, 236, 237, 351, 350
2599, 324, 210, 211, 325
2600, 242, 243, 357, 356
2601, 243, 244, 358, 357
2602, 210, 324, 323, 209
2603, 208, 322, 8, 5
2604, 348, 234, 235, 349
2605, 218, 219, 333, 332
2606, 347, 233, 234, 348
2607, 219, 220, 334, 333
2608, 226, 227, 341, 340
2609, 228, 342, 341, 227
2610, 225, 226, 340, 339
2611, 342, 228, 229, 343
2612, 224, 225, 339, 338
2613, 346, 232, 233, 347
2614, 220, 221, 335, 334
2615, 343, 229, 230, 344
2616, 223, 224, 338, 337
2617, 345, 231, 232, 346
2618, 221, 222, 336, 335
2619, 231, 345, 344, 230
2620, 222, 223, 337, 336
*ELSET,ELSET=skir_sless_uprin
128, 129, 130, 131, 132, 133, 134, 135, 136, 137, 
138, 139, 140, 141, 142, 143, 144, 145, 146, 147, 
148, 149, 150, 151, 152, 153, 154, 155, 156, 157, 
158, 159, 160, 161, 162, 163, 164, 165, 166, 
*ELSET,ELSET=skir_sless_lorin
80, 81, 82, 83, 84, 85, 86, 87, 88, 89, 
90, 91, 92, 93, 94, 95, 96, 97, 98, 99, 
100, 101, 102, 103, 104, 105, 106, 107, 108, 109, 
110, 111, 112, 113, 114, 115, 116, 117, 118, 
*ELSET,ELSET=skir_sless_heigh
119, 120, 121, 122, 123, 124, 125, 126, 127, 
*ELSET,ELSET=skir_carbo_body_heigh
247, 248, 249, 250, 251, 252, 253, 254, 255, 256, 
257, 258, 259, 260, 261, 262, 263, 264, 265, 266, 
267, 268, 269, 270, 271, 272, 273, 274, 275, 276, 
277, 278, 279, 280, 281, 282, 283, 284, 285, 
*ELSET,ELSET=skir_carbo_undc_heigh
167, 168, 
*ELSET,ELSET=skir_carbo_lorin
208, 209, 210, 211, 212, 213, 214, 215, 216, 217, 
218, 219, 220, 221, 222, 223, 224, 225, 226, 227, 
228, 229, 230, 231, 232, 233, 234, 235, 236, 237, 
238, 239, 240, 241, 242, 243, 244, 245, 246, 
*ELSET,ELSET=skir_carbo_ctrin
169, 170, 171, 172, 173, 174, 175, 176, 177, 178, 
179, 180, 181, 182, 183, 184, 185, 186, 187, 188, 
189, 190, 191, 192, 193, 194, 195, 196, 197, 198, 
199, 200, 201, 202, 203, 204, 205, 206, 207, 
*ELSET,ELSET=uppe_plate_inrin
2, 3, 4, 5, 6, 7, 8, 9, 10, 11, 
12, 13, 14, 15, 16, 17, 18, 19, 20, 21, 
22, 23, 24, 25, 26, 27, 28, 29, 30, 31, 
32, 33, 34, 35, 36, 37, 38, 39, 40, 
*ELSET,ELSET=uppe_plate_ourin
41, 42, 43, 44, 45, 46, 47, 48, 49, 50, 
51, 52, 53, 54, 55, 56, 57, 58, 59, 60, 
61, 62, 63, 64, 65, 66, 67, 68, 69, 70, 
71, 72, 73, 74, 75, 76, 77, 78, 79, 
*ELSET,ELSET=base_plate_radin
325, 
*ELSET,ELSET=base_plate_radou
326, 
*ELSET,ELSET=uppe_plate_rad
1, 
*ELSET,ELSET=base_plate_inrin
286, 287, 288, 289, 290, 291, 292, 293, 294, 295, 
296, 297, 298, 299, 300, 301, 302, 303, 304, 305, 
306, 307, 308, 309, 310, 311, 312, 313, 314, 315, 
316, 317, 318, 319, 320, 321, 322, 323, 324, 
*ELSET,ELSET=base_plate_ourin
327, 328, 329, 330, 331, 332, 333, 334, 335, 336, 
337, 338, 339, 340, 341, 342, 343, 344, 345, 346, 
347, 348, 349, 350, 351, 352, 353, 354, 355, 356, 
357, 358, 359, 360, 361, 362, 363, 364, 365, 
*ELSET,ELSET=skir_carbo_body
851, 852, 853, 854, 855, 856, 857, 858, 859, 860, 
861, 862, 863, 864, 865, 866, 867, 868, 869, 870, 
871, 872, 873, 874, 875, 876, 877, 878, 879, 880, 
881, 882, 883, 884, 885, 886, 887, 888, 889, 890, 
891, 892, 893, 894, 895, 896, 897, 898, 899, 900, 
901, 902, 903, 904, 905, 906, 907, 908, 909, 910, 
911, 912, 913, 914, 915, 916, 917, 918, 919, 920, 
921, 922, 923, 924, 925, 926, 927, 928, 929, 930, 
931, 932, 933, 934, 935, 936, 937, 938, 939, 940, 
941, 942, 943, 944, 945, 946, 947, 948, 949, 950, 
951, 952, 953, 954, 955, 956, 957, 958, 959, 960, 
961, 962, 963, 964, 965, 966, 967, 968, 969, 970, 
971, 972, 973, 974, 975, 976, 977, 978, 979, 980, 
981, 982, 983, 984, 985, 986, 987, 988, 989, 990, 
991, 992, 993, 994, 995, 996, 997, 998, 999, 1000, 
1001, 1002, 1003, 1004, 1005, 1006, 1007, 1008, 1009, 1010, 
1011, 1012, 1013, 1014, 1015, 1016, 1017, 1018, 1019, 1020, 
1021, 1022, 1023, 1024, 1025, 1026, 1027, 1028, 1029, 1030, 
1031, 1032, 1033, 1034, 1035, 1036, 1037, 1038, 1039, 1040, 
1041, 1042, 1043, 1044, 1045, 1046, 1047, 1048, 1049, 1050, 
1051, 1052, 1053, 1054, 1055, 1056, 1057, 1058, 1059, 1060, 
1061, 1062, 1063, 1064, 1065, 1066, 1067, 1068, 1069, 1070, 
1071, 1072, 1073, 1074, 1075, 1076, 1077, 1078, 1079, 1080, 
1081, 1082, 1083, 1084, 1085, 1086, 1087, 1088, 1089, 1090, 
1091, 1092, 1093, 1094, 1095, 1096, 1097, 1098, 1099, 1100, 
1101, 1102, 1103, 1104, 1105, 1106, 1107, 1108, 1109, 1110, 
1111, 1112, 1113, 1114, 1115, 1116, 1117, 1118, 1119, 1120, 
1121, 1122, 1123, 1124, 1125, 1126, 1127, 1128, 1129, 1130, 
1131, 1132, 1133, 1134, 1135, 1136, 1137, 1138, 1139, 1140, 
1141, 1142, 1143, 1144, 1145, 1146, 1147, 1148, 1149, 1150, 
1151, 1152, 1153, 1154, 1155, 1156, 1157, 1158, 1159, 1160, 
1161, 1162, 1163, 1164, 1165, 1166, 1167, 1168, 1169, 1170, 
1171, 1172, 1173, 1174, 1175, 1176, 1177, 1178, 1179, 1180, 
1181, 1182, 1183, 1184, 1185, 1186, 1187, 1188, 1189, 1190, 
1191, 1192, 1193, 1194, 1195, 1196, 1197, 1198, 1199, 1200, 
1201, 1202, 1203, 1204, 1205, 1206, 1207, 1208, 1209, 1210, 
1211, 1212, 1213, 1214, 1215, 1216, 1217, 1218, 1219, 1220, 
1221, 1222, 1223, 1224, 1225, 1226, 1227, 1228, 1229, 1230, 
1231, 1232, 1233, 1234, 1235, 1236, 1237, 1238, 1239, 1240, 
1241, 1242, 1243, 1244, 1245, 1246, 1247, 1248, 1249, 1250, 
1251, 1252, 1253, 1254, 1255, 1256, 1257, 1258, 1259, 1260, 
1261, 1262, 1263, 1264, 1265, 1266, 1267, 1268, 1269, 1270, 
1271, 1272, 1273, 1274, 1275, 1276, 1277, 1278, 1279, 1280, 
1281, 1282, 1283, 1284, 1285, 1286, 1287, 1288, 1289, 1290, 
1291, 1292, 1293, 1294, 1295, 1296, 1297, 1298, 1299, 1300, 
1301, 1302, 1303, 1304, 1305, 1306, 1307, 1308, 1309, 1310, 
1311, 1312, 1313, 1314, 1315, 1316, 1317, 1318, 1319, 1320, 
1321, 1322, 1323, 1324, 1325, 1326, 1327, 1328, 1329, 1330, 
1331, 1332, 1333, 1334, 1335, 1336, 1337, 1338, 1339, 1340, 
1341, 1342, 1343, 1344, 1345, 1346, 1347, 1348, 1349, 1350, 
1351, 1352, 1353, 1354, 1355, 1356, 1357, 1358, 1359, 1360, 
1361, 1362, 1363, 1364, 1365, 1366, 1367, 1368, 1369, 1370, 
1371, 1372, 1373, 1374, 1375, 1376, 1377, 1378, 1379, 1380, 
1381, 1382, 1383, 1384, 1385, 1386, 1387, 1388, 1389, 1390, 
1391, 1392, 1393, 1394, 1395, 1396, 1397, 1398, 1399, 1400, 
1401, 1402, 1403, 1404, 1405, 1406, 1407, 1408, 1409, 1410, 
1411, 1412, 1413, 1414, 1415, 1416, 1417, 1418, 1419, 1420, 
1421, 1422, 1423, 1424, 1425, 1426, 1427, 1428, 1429, 1430, 
1431, 1432, 1433, 1434, 1435, 1436, 1437, 1438, 1439, 1440, 
1441, 1442, 1443, 1444, 1445, 1446, 1447, 1448, 1449, 1450, 
1451, 1452, 1453, 1454, 1455, 1456, 1457, 1458, 1459, 1460, 
1461, 1462, 1463, 1464, 1465, 1466, 1467, 1468, 1469, 1470, 
1471, 1472, 1473, 1474, 1475, 1476, 1477, 1478, 1479, 1480, 
1481, 1482, 1483, 1484, 1485, 1486, 1487, 1488, 1489, 1490, 
1491, 1492, 1493, 1494, 1495, 1496, 1497, 1498, 1499, 1500, 
1501, 1502, 1503, 1504, 1505, 1506, 1507, 1508, 1509, 1510, 
1511, 1512, 1513, 1514, 1515, 1516, 1517, 1518, 1519, 1520, 
1521, 1522, 1523, 1524, 1525, 1526, 1527, 1528, 1529, 1530, 
1531, 1532, 1533, 1534, 1535, 1536, 1537, 1538, 1539, 1540, 
1541, 1542, 1543, 1544, 1545, 1546, 1547, 1548, 1549, 1550, 
1551, 1552, 1553, 1554, 1555, 1556, 1557, 1558, 1559, 1560, 
1561, 1562, 1563, 1564, 1565, 1566, 1567, 1568, 1569, 1570, 
1571, 1572, 1573, 1574, 1575, 1576, 1577, 1578, 1579, 1580, 
1581, 1582, 1583, 1584, 1585, 1586, 1587, 1588, 1589, 1590, 
1591, 1592, 1593, 1594, 1595, 1596, 1597, 1598, 1599, 1600, 
1601, 1602, 1603, 1604, 1605, 1606, 1607, 1608, 1609, 1610, 
1611, 1612, 1613, 1614, 1615, 1616, 1617, 1618, 1619, 1620, 
1621, 1622, 1623, 1624, 1625, 1626, 1627, 1628, 1629, 1630, 
1631, 1632, 1633, 1634, 1635, 1636, 1637, 1638, 1639, 1640, 
1641, 1642, 1643, 1644, 1645, 1646, 1647, 1648, 1649, 1650, 
1651, 1652, 1653, 1654, 1655, 1656, 1657, 1658, 1659, 1660, 
1661, 1662, 1663, 1664, 1665, 1666, 1667, 1668, 1669, 1670, 
1671, 1672, 1673, 1674, 1675, 1676, 1677, 1678, 1679, 1680, 
1681, 1682, 1683, 1684, 1685, 1686, 1687, 1688, 1689, 1690, 
1691, 1692, 1693, 1694, 1695, 1696, 1697, 1698, 1699, 1700, 
1701, 1702, 1703, 1704, 1705, 1706, 1707, 1708, 1709, 1710, 
1711, 1712, 1713, 1714, 1715, 1716, 1717, 1718, 1719, 1720, 
1721, 1722, 1723, 1724, 1725, 1726, 1727, 1728, 1729, 1730, 
1731, 1732, 1733, 1734, 1735, 1736, 1737, 1738, 1739, 1740, 
1741, 1742, 1743, 1744, 1745, 1746, 1747, 1748, 1749, 1750, 
1751, 1752, 1753, 1754, 1755, 1756, 1757, 1758, 1759, 1760, 
1761, 1762, 1763, 1764, 1765, 1766, 1767, 1768, 1769, 1770, 
1771, 1772, 1773, 1774, 1775, 1776, 1777, 1778, 1779, 1780, 
1781, 1782, 1783, 1784, 1785, 1786, 1787, 1788, 1789, 1790, 
1791, 1792, 1793, 1794, 1795, 1796, 1797, 1798, 1799, 1800, 
1801, 1802, 1803, 1804, 1805, 1806, 1807, 1808, 1809, 1810, 
1811, 1812, 1813, 1814, 1815, 1816, 1817, 1818, 1819, 1820, 
1821, 1822, 1823, 1824, 1825, 1826, 1827, 1828, 1829, 1830, 
1831, 1832, 1833, 1834, 1835, 1836, 1837, 1838, 1839, 1840, 
1841, 1842, 1843, 1844, 1845, 1846, 1847, 1848, 1849, 1850, 
1851, 1852, 1853, 1854, 1855, 1856, 1857, 1858, 1859, 1860, 
1861, 1862, 1863, 1864, 1865, 1866, 1867, 1868, 1869, 1870, 
1871, 1872, 1873, 1874, 1875, 1876, 1877, 1878, 1879, 1880, 
1881, 1882, 1883, 1884, 1885, 1886, 1887, 1888, 1889, 1890, 
1891, 1892, 1893, 1894, 1895, 1896, 1897, 1898, 1899, 1900, 
1901, 1902, 1903, 1904, 1905, 1906, 1907, 1908, 1909, 1910, 
1911, 1912, 1913, 1914, 1915, 1916, 1917, 1918, 1919, 1920, 
1921, 1922, 1923, 1924, 1925, 1926, 1927, 1928, 1929, 1930, 
1931, 1932, 1933, 1934, 1935, 1936, 1937, 1938, 1939, 1940, 
1941, 1942, 1943, 1944, 1945, 1946, 1947, 1948, 1949, 1950, 
1951, 1952, 1953, 1954, 1955, 1956, 1957, 1958, 1959, 1960, 
1961, 1962, 1963, 1964, 1965, 1966, 1967, 1968, 1969, 1970, 
1971, 1972, 1973, 1974, 1975, 1976, 1977, 1978, 1979, 1980, 
1981, 1982, 1983, 1984, 1985, 1986, 1987, 1988, 1989, 1990, 
1991, 1992, 1993, 1994, 1995, 1996, 1997, 1998, 1999, 2000, 
2001, 2002, 2003, 2004, 2005, 2006, 2007, 2008, 2009, 2010, 
2011, 2012, 2013, 2014, 2015, 2016, 2017, 2018, 2019, 2020, 
2021, 2022, 2023, 2024, 2025, 2026, 2027, 2028, 2029, 2030, 
2031, 2032, 2033, 2034, 2035, 2036, 2037, 2038, 2039, 2040, 
2041, 2042, 2043, 2044, 2045, 2046, 2047, 2048, 2049, 2050, 
2051, 2052, 2053, 2054, 2055, 2056, 2057, 2058, 2059, 2060, 
2061, 2062, 2063, 2064, 2065, 2066, 2067, 2068, 2069, 2070, 
2071, 2072, 2073, 2074, 2075, 2076, 2077, 2078, 2079, 2080, 
2081, 2082, 2083, 2084, 2085, 2086, 2087, 2088, 2089, 2090, 
2091, 2092, 2093, 2094, 2095, 2096, 2097, 2098, 2099, 2100, 
2101, 2102, 2103, 2104, 2105, 2106, 2107, 2108, 2109, 2110, 
2111, 2112, 2113, 2114, 2115, 2116, 2117, 2118, 2119, 2120, 
2121, 2122, 2123, 2124, 2125, 2126, 2127, 2128, 2129, 2130, 
2131, 2132, 2133, 2134, 2135, 2136, 2137, 2138, 2139, 2140, 
2141, 2142, 2143, 2144, 2145, 2146, 2147, 2148, 2149, 2150, 
2151, 2152, 2153, 2154, 2155, 2156, 2157, 2158, 2159, 2160, 
2161, 2162, 2163, 2164, 2165, 2166, 2167, 2168, 2169, 2170, 
2171, 2172, 2173, 2174, 2175, 2176, 2177, 2178, 2179, 2180, 
2181, 2182, 2183, 2184, 2185, 2186, 2187, 2188, 2189, 2190, 
2191, 2192, 2193, 2194, 2195, 2196, 2197, 2198, 2199, 2200, 
2201, 2202, 2203, 2204, 2205, 2206, 2207, 2208, 2209, 2210, 
2211, 2212, 2213, 2214, 2215, 2216, 2217, 2218, 2219, 2220, 
2221, 2222, 2223, 2224, 2225, 2226, 2227, 2228, 2229, 2230, 
2231, 2232, 2233, 2234, 2235, 2236, 2237, 2238, 2239, 2240, 
2241, 2242, 2243, 2244, 2245, 2246, 2247, 2248, 2249, 2250, 
2251, 2252, 2253, 2254, 2255, 2256, 2257, 2258, 2259, 2260, 
2261, 2262, 2263, 2264, 2265, 2266, 2267, 2268, 2269, 2270, 
2271, 2272, 2273, 2274, 2275, 2276, 2277, 2278, 2279, 2280, 
2281, 2282, 2283, 2284, 2285, 2286, 2287, 2288, 2289, 2290, 
2291, 2292, 2293, 2294, 2295, 2296, 2297, 2298, 2299, 2300, 
2301, 2302, 2303, 2304, 2305, 2306, 2307, 2308, 2309, 2310, 
2311, 2312, 2313, 2314, 2315, 2316, 2317, 2318, 2319, 2320, 
2321, 2322, 2323, 2324, 2325, 2326, 2327, 2328, 2329, 2330, 
2331, 2332, 2333, 2334, 2335, 2336, 2337, 2338, 2339, 2340, 
2341, 2342, 2343, 2344, 2345, 2346, 2347, 2348, 2349, 2350, 
2351, 2352, 2353, 2354, 2355, 2356, 2357, 2358, 2359, 2360, 
2361, 2362, 2363, 2364, 2365, 2366, 2367, 2368, 2369, 2370, 
2371, 2372, 2373, 2374, 2375, 2376, 2377, 2378, 2379, 2380, 
2381, 2382, 2383, 2384, 2385, 2386, 2387, 2388, 2389, 2390, 
2391, 2392, 2393, 2394, 2395, 2396, 2397, 2398, 2399, 2400, 
2401, 2402, 2403, 2404, 2405, 2406, 2407, 2408, 2409, 2410, 
2411, 2412, 2413, 2414, 2415, 2416, 2417, 2418, 2419, 2420, 
2421, 2422, 2423, 2424, 2425, 2426, 2427, 2428, 2429, 2430, 
2431, 2432, 2433, 2434, 2435, 2436, 2437, 2438, 2439, 2440, 
2441, 2442, 2443, 2444, 2445, 2446, 2447, 2448, 2449, 2450, 
2451, 2452, 2453, 2454, 2455, 2456, 2457, 2458, 2459, 2460, 
2461, 2462, 2463, 2464, 2465, 2466, 2467, 2468, 2469, 2470, 
2471, 2472, 2473, 2474, 2475, 2476, 2477, 2478, 2479, 2480, 
2481, 2482, 2483, 2484, 2485, 2486, 2487, 2488, 2489, 2490, 
2491, 2492, 2493, 2494, 2495, 2496, 2497, 2498, 2499, 2500, 
2501, 2502, 2503, 2504, 2505, 2506, 2507, 2508, 2509, 2510, 
2511, 2512, 2513, 2514, 2515, 2516, 2517, 2518, 2519, 2520, 
2521, 2522, 2523, 2524, 2525, 2526, 2527, 2528, 2529, 2530, 
2531, 2532, 2533, 2534, 2535, 2536, 2537, 2538, 2539, 2540, 
2541, 2542, 
*ELSET,ELSET=skir_carbo_undc
772, 773, 774, 775, 776, 777, 778, 779, 780, 781, 
782, 783, 784, 785, 786, 787, 788, 789, 790, 791, 
792, 793, 794, 795, 796, 797, 798, 799, 800, 801, 
802, 803, 804, 805, 806, 807, 808, 809, 810, 811, 
812, 813, 814, 815, 816, 817, 818, 819, 820, 821, 
822, 823, 824, 825, 826, 827, 828, 829, 830, 831, 
832, 833, 834, 835, 836, 837, 838, 839, 840, 841, 
842, 843, 844, 845, 846, 847, 848, 849, 850, 
*ELSET,ELSET=base_plate_cutin
2543, 2544, 2545, 2546, 2547, 2548, 2549, 2550, 2551, 2552, 
2553, 2554, 2555, 2556, 2557, 2558, 2559, 2560, 2561, 2562, 
2563, 2564, 2565, 2566, 2567, 2568, 2569, 2570, 2571, 2572, 
2573, 2574, 2575, 2576, 2577, 2578, 2579, 2580, 2581, 
*ELSET,ELSET=base_plate_cutou
2582, 2583, 2584, 2585, 2586, 2587, 2588, 2589, 2590, 2591, 
2592, 2593, 2594, 2595, 2596, 2597, 2598, 2599, 2600, 2601, 
2602, 2603, 2604, 2605, 2606, 2607, 2608, 2609, 2610, 2611, 
2612, 2613, 2614, 2615, 2616, 2617, 2618, 2619, 2620, 
*ELSET,ELSET=uppe_plate
366, 367, 368, 369, 370, 371, 372, 373, 374, 375, 
376, 377, 378, 379, 380, 381, 382, 383, 384, 385, 
386, 387, 388, 389, 390, 391, 392, 393, 394, 395, 
396, 397, 398, 399, 400, 401, 402, 403, 404, 
*ELSET,ELSET=skir_sless
405, 406, 407, 408, 409, 410, 411, 412, 413, 414, 
415, 416, 417, 418, 419, 420, 421, 422, 423, 424, 
425, 426, 427, 428, 429, 430, 431, 432, 433, 434, 
435, 436, 437, 438, 439, 440, 441, 442, 443, 444, 
445, 446, 447, 448, 449, 450, 451, 452, 453, 454, 
455, 456, 457, 458, 459, 460, 461, 462, 463, 464, 
465, 466, 467, 468, 469, 470, 471, 472, 473, 474, 
475, 476, 477, 478, 479, 480, 481, 482, 483, 484, 
485, 486, 487, 488, 489, 490, 491, 492, 493, 494, 
495, 496, 497, 498, 499, 500, 501, 502, 503, 504, 
505, 506, 507, 508, 509, 510, 511, 512, 513, 514, 
515, 516, 517, 518, 519, 520, 521, 522, 523, 524, 
525, 526, 527, 528, 529, 530, 531, 532, 533, 534, 
535, 536, 537, 538, 539, 540, 541, 542, 543, 544, 
545, 546, 547, 548, 549, 550, 551, 552, 553, 554, 
555, 556, 557, 558, 559, 560, 561, 562, 563, 564, 
565, 566, 567, 568, 569, 570, 571, 572, 573, 574, 
575, 576, 577, 578, 579, 580, 581, 582, 583, 584, 
585, 586, 587, 588, 589, 590, 591, 592, 593, 594, 
595, 596, 597, 598, 599, 600, 601, 602, 603, 604, 
605, 606, 607, 608, 609, 610, 611, 612, 613, 614, 
615, 616, 617, 618, 619, 620, 621, 622, 623, 624, 
625, 626, 627, 628, 629, 630, 631, 632, 633, 634, 
635, 636, 637, 638, 639, 640, 641, 642, 643, 644, 
645, 646, 647, 648, 649, 650, 651, 652, 653, 654, 
655, 656, 657, 658, 659, 660, 661, 662, 663, 664, 
665, 666, 667, 668, 669, 670, 671, 672, 673, 674, 
675, 676, 677, 678, 679, 680, 681, 682, 683, 684, 
685, 686, 687, 688, 689, 690, 691, 692, 693, 694, 
695, 696, 697, 698, 699, 700, 701, 702, 703, 704, 
705, 706, 707, 708, 709, 710, 711, 712, 713, 714, 
715, 716, 717, 718, 719, 720, 721, 722, 723, 724, 
725, 726, 727, 728, 729, 730, 731, 732, 733, 734, 
735, 736, 737, 738, 739, 740, 741, 742, 743, 744, 
745, 746, 747, 748, 749, 750, 751, 752, 753, 754, 
755, 756, 757, 758, 759, 760, 761, 762, 763, 764, 
765, 766, 767, 768, 769, 770, 771, 
*NSET,NSET=skir_sless_uprin
4, 131, 132, 133, 134, 135, 136, 137, 138, 139, 
140, 141, 142, 143, 144, 145, 146, 147, 148, 149, 
150, 151, 152, 153, 154, 155, 156, 157, 158, 159, 
160, 161, 162, 163, 164, 165, 166, 167, 168, 
*NSET,NSET=skir_sless_lorin
3, 85, 86, 87, 88, 89, 90, 91, 92, 93, 
94, 95, 96, 97, 98, 99, 100, 101, 102, 103, 
104, 105, 106, 107, 108, 109, 110, 111, 112, 113, 
114, 115, 116, 117, 118, 119, 120, 121, 122, 
*NSET,NSET=skir_sless_heigh
3, 4, 123, 124, 125, 126, 127, 128, 129, 130, 
*NSET,NSET=skir_carbo_body_heigh
3, 6, 246, 247, 248, 249, 250, 251, 252, 253, 
254, 255, 256, 257, 258, 259, 260, 261, 262, 263, 
264, 265, 266, 267, 268, 269, 270, 271, 272, 273, 
274, 275, 276, 277, 278, 279, 280, 281, 282, 283, 
*NSET,NSET=skir_carbo_undc_heigh
5, 6, 169, 
*NSET,NSET=skir_carbo_lorin
5, 208, 209, 210, 211, 212, 213, 214, 215, 216, 
217, 218, 219, 220, 221, 222, 223, 224, 225, 226, 
227, 228, 229, 230, 231, 232, 233, 234, 235, 236, 
237, 238, 239, 240, 241, 242, 243, 244, 245, 
*NSET,NSET=skir_carbo_ctrin
6, 170, 171, 172, 173, 174, 175, 176, 177, 178, 
179, 180, 181, 182, 183, 184, 185, 186, 187, 188, 
189, 190, 191, 192, 193, 194, 195, 196, 197, 198, 
199, 200, 201, 202, 203, 204, 205, 206, 207, 
*NSET,NSET=uppe_plate_inrin
1, 9, 10, 11, 12, 13, 14, 15, 16, 17, 
18, 19, 20, 21, 22, 23, 24, 25, 26, 27, 
28, 29, 30, 31, 32, 33, 34, 35, 36, 37, 
38, 39, 40, 41, 42, 43, 44, 45, 46, 
*NSET,NSET=uppe_plate_ourin
2, 47, 48, 49, 50, 51, 52, 53, 54, 55, 
56, 57, 58, 59, 60, 61, 62, 63, 64, 65, 
66, 67, 68, 69, 70, 71, 72, 73, 74, 75, 
76, 77, 78, 79, 80, 81, 82, 83, 84, 
*NSET,NSET=base_plate_radin
5, 7, 
*NSET,NSET=base_plate_radou
5, 8, 
*NSET,NSET=uppe_plate_rad
1, 2, 
*NSET,NSET=base_plate_inrin
7, 284, 285, 286, 287, 288, 289, 290, 291, 292, 
293, 294, 295, 296, 297, 298, 299, 300, 301, 302, 
303, 304, 305, 306, 307, 308, 309, 310, 311, 312, 
313, 314, 315, 316, 317, 318, 319, 320, 321, 
*NSET,NSET=base_plate_ourin
8, 322, 323, 324, 325, 326, 327, 328, 329, 330, 
331, 332, 333, 334, 335, 336, 337, 338, 339, 340, 
341, 342, 343, 344, 345, 346, 347, 348, 349, 350, 
351, 352, 353, 354, 355, 356, 357, 358, 359, 
*NSET,NSET=skir_carbo_body
3, 6, 85, 86, 87, 88, 89, 90, 91, 92, 
93, 94, 95, 96, 97, 98, 99, 100, 101, 102, 
103, 104, 105, 106, 107, 108, 109, 110, 111, 112, 
113, 114, 115, 116, 117, 118, 119, 120, 121, 122, 
170, 171, 172, 173, 174, 175, 176, 177, 178, 179, 
180, 181, 182, 183, 184, 185, 186, 187, 188, 189, 
190, 191, 192, 193, 194, 195, 196, 197, 198, 199, 
200, 201, 202, 203, 204, 205, 206, 207, 246, 247, 
248, 249, 250, 251, 252, 253, 254, 255, 256, 257, 
258, 259, 260, 261, 262, 263, 264, 265, 266, 267, 
268, 269, 270, 271, 272, 273, 274, 275, 276, 277, 
278, 279, 280, 281, 282, 283, 719, 720, 721, 722, 
723, 724, 725, 726, 727, 728, 729, 730, 731, 732, 
733, 734, 735, 736, 737, 738, 739, 740, 741, 742, 
743, 744, 745, 746, 747, 748, 749, 750, 751, 752, 
753, 754, 755, 756, 757, 758, 759, 760, 761, 762, 
763, 764, 765, 766, 767, 768, 769, 770, 771, 772, 
773, 774, 775, 776, 777, 778, 779, 780, 781, 782, 
783, 784, 785, 786, 787, 788, 789, 790, 791, 792, 
793, 794, 795, 796, 797, 798, 799, 800, 801, 802, 
803, 804, 805, 806, 807, 808, 809, 810, 811, 812, 
813, 814, 815, 816, 817, 818, 819, 820, 821, 822, 
823, 824, 825, 826, 827, 828, 829, 830, 831, 832, 
833, 834, 835, 836, 837, 838, 839, 840, 841, 842, 
843, 844, 845, 846, 847, 848, 849, 850, 851, 852, 
853, 854, 855, 856, 857, 858, 859, 860, 861, 862, 
863, 864, 865, 866, 867, 868, 869, 870, 871, 872, 
873, 874, 875, 876, 877, 878, 879, 880, 881, 882, 
883, 884, 885, 886, 887, 888, 889, 890, 891, 892, 
893, 894, 895, 896, 897, 898, 899, 900, 901, 902, 
903, 904, 905, 906, 907, 908, 909, 910, 911, 912, 
913, 914, 915, 916, 917, 918, 919, 920, 921, 922, 
923, 924, 925, 926, 927, 928, 929, 930, 931, 932, 
933, 934, 935, 936, 937, 938, 939, 940, 941, 942, 
943, 944, 945, 946, 947, 948, 949, 950, 951, 952, 
953, 954, 955, 956, 957, 958, 959, 960, 961, 962, 
963, 964, 965, 966, 967, 968, 969, 970, 971, 972, 
973, 974, 975, 976, 977, 978, 979, 980, 981, 982, 
983, 984, 985, 986, 987, 988, 989, 990, 991, 992, 
993, 994, 995, 996, 997, 998, 999, 1000, 1001, 1002, 
1003, 1004, 1005, 1006, 1007, 1008, 1009, 1010, 1011, 1012, 
1013, 1014, 1015, 1016, 1017, 1018, 1019, 1020, 1021, 1022, 
1023, 1024, 1025, 1026, 1027, 1028, 1029, 1030, 1031, 1032, 
1033, 1034, 1035, 1036, 1037, 1038, 1039, 1040, 1041, 1042, 
1043, 1044, 1045, 1046, 1047, 1048, 1049, 1050, 1051, 1052, 
1053, 1054, 1055, 1056, 1057, 1058, 1059, 1060, 1061, 1062, 
1063, 1064, 1065, 1066, 1067, 1068, 1069, 1070, 1071, 1072, 
1073, 1074, 1075, 1076, 1077, 1078, 1079, 1080, 1081, 1082, 
1083, 1084, 1085, 1086, 1087, 1088, 1089, 1090, 1091, 1092, 
1093, 1094, 1095, 1096, 1097, 1098, 1099, 1100, 1101, 1102, 
1103, 1104, 1105, 1106, 1107, 1108, 1109, 1110, 1111, 1112, 
1113, 1114, 1115, 1116, 1117, 1118, 1119, 1120, 1121, 1122, 
1123, 1124, 1125, 1126, 1127, 1128, 1129, 1130, 1131, 1132, 
1133, 1134, 1135, 1136, 1137, 1138, 1139, 1140, 1141, 1142, 
1143, 1144, 1145, 1146, 1147, 1148, 1149, 1150, 1151, 1152, 
1153, 1154, 1155, 1156, 1157, 1158, 1159, 1160, 1161, 1162, 
1163, 1164, 1165, 1166, 1167, 1168, 1169, 1170, 1171, 1172, 
1173, 1174, 1175, 1176, 1177, 1178, 1179, 1180, 1181, 1182, 
1183, 1184, 1185, 1186, 1187, 1188, 1189, 1190, 1191, 1192, 
1193, 1194, 1195, 1196, 1197, 1198, 1199, 1200, 1201, 1202, 
1203, 1204, 1205, 1206, 1207, 1208, 1209, 1210, 1211, 1212, 
1213, 1214, 1215, 1216, 1217, 1218, 1219, 1220, 1221, 1222, 
1223, 1224, 1225, 1226, 1227, 1228, 1229, 1230, 1231, 1232, 
1233, 1234, 1235, 1236, 1237, 1238, 1239, 1240, 1241, 1242, 
1243, 1244, 1245, 1246, 1247, 1248, 1249, 1250, 1251, 1252, 
1253, 1254, 1255, 1256, 1257, 1258, 1259, 1260, 1261, 1262, 
1263, 1264, 1265, 1266, 1267, 1268, 1269, 1270, 1271, 1272, 
1273, 1274, 1275, 1276, 1277, 1278, 1279, 1280, 1281, 1282, 
1283, 1284, 1285, 1286, 1287, 1288, 1289, 1290, 1291, 1292, 
1293, 1294, 1295, 1296, 1297, 1298, 1299, 1300, 1301, 1302, 
1303, 1304, 1305, 1306, 1307, 1308, 1309, 1310, 1311, 1312, 
1313, 1314, 1315, 1316, 1317, 1318, 1319, 1320, 1321, 1322, 
1323, 1324, 1325, 1326, 1327, 1328, 1329, 1330, 1331, 1332, 
1333, 1334, 1335, 1336, 1337, 1338, 1339, 1340, 1341, 1342, 
1343, 1344, 1345, 1346, 1347, 1348, 1349, 1350, 1351, 1352, 
1353, 1354, 1355, 1356, 1357, 1358, 1359, 1360, 1361, 1362, 
1363, 1364, 1365, 1366, 1367, 1368, 1369, 1370, 1371, 1372, 
1373, 1374, 1375, 1376, 1377, 1378, 1379, 1380, 1381, 1382, 
1383, 1384, 1385, 1386, 1387, 1388, 1389, 1390, 1391, 1392, 
1393, 1394, 1395, 1396, 1397, 1398, 1399, 1400, 1401, 1402, 
1403, 1404, 1405, 1406, 1407, 1408, 1409, 1410, 1411, 1412, 
1413, 1414, 1415, 1416, 1417, 1418, 1419, 1420, 1421, 1422, 
1423, 1424, 1425, 1426, 1427, 1428, 1429, 1430, 1431, 1432, 
1433, 1434, 1435, 1436, 1437, 1438, 1439, 1440, 1441, 1442, 
1443, 1444, 1445, 1446, 1447, 1448, 1449, 1450, 1451, 1452, 
1453, 1454, 1455, 1456, 1457, 1458, 1459, 1460, 1461, 1462, 
1463, 1464, 1465, 1466, 1467, 1468, 1469, 1470, 1471, 1472, 
1473, 1474, 1475, 1476, 1477, 1478, 1479, 1480, 1481, 1482, 
1483, 1484, 1485, 1486, 1487, 1488, 1489, 1490, 1491, 1492, 
1493, 1494, 1495, 1496, 1497, 1498, 1499, 1500, 1501, 1502, 
1503, 1504, 1505, 1506, 1507, 1508, 1509, 1510, 1511, 1512, 
1513, 1514, 1515, 1516, 1517, 1518, 1519, 1520, 1521, 1522, 
1523, 1524, 1525, 1526, 1527, 1528, 1529, 1530, 1531, 1532, 
1533, 1534, 1535, 1536, 1537, 1538, 1539, 1540, 1541, 1542, 
1543, 1544, 1545, 1546, 1547, 1548, 1549, 1550, 1551, 1552, 
1553, 1554, 1555, 1556, 1557, 1558, 1559, 1560, 1561, 1562, 
1563, 1564, 1565, 1566, 1567, 1568, 1569, 1570, 1571, 1572, 
1573, 1574, 1575, 1576, 1577, 1578, 1579, 1580, 1581, 1582, 
1583, 1584, 1585, 1586, 1587, 1588, 1589, 1590, 1591, 1592, 
1593, 1594, 1595, 1596, 1597, 1598, 1599, 1600, 1601, 1602, 
1603, 1604, 1605, 1606, 1607, 1608, 1609, 1610, 1611, 1612, 
1613, 1614, 1615, 1616, 1617, 1618, 1619, 1620, 1621, 1622, 
1623, 1624, 1625, 1626, 1627, 1628, 1629, 1630, 1631, 1632, 
1633, 1634, 1635, 1636, 1637, 1638, 1639, 1640, 1641, 1642, 
1643, 1644, 1645, 1646, 1647, 1648, 1649, 1650, 1651, 1652, 
1653, 1654, 1655, 1656, 1657, 1658, 1659, 1660, 1661, 1662, 
1663, 1664, 1665, 1666, 1667, 1668, 1669, 1670, 1671, 1672, 
1673, 1674, 1675, 1676, 1677, 1678, 1679, 1680, 1681, 1682, 
1683, 1684, 1685, 1686, 1687, 1688, 1689, 1690, 1691, 1692, 
1693, 1694, 1695, 1696, 1697, 1698, 1699, 1700, 1701, 1702, 
1703, 1704, 1705, 1706, 1707, 1708, 1709, 1710, 1711, 1712, 
1713, 1714, 1715, 1716, 1717, 1718, 1719, 1720, 1721, 1722, 
1723, 1724, 1725, 1726, 1727, 1728, 1729, 1730, 1731, 1732, 
1733, 1734, 1735, 1736, 1737, 1738, 1739, 1740, 1741, 1742, 
1743, 1744, 1745, 1746, 1747, 1748, 1749, 1750, 1751, 1752, 
1753, 1754, 1755, 1756, 1757, 1758, 1759, 1760, 1761, 1762, 
1763, 1764, 1765, 1766, 1767, 1768, 1769, 1770, 1771, 1772, 
1773, 1774, 1775, 1776, 1777, 1778, 1779, 1780, 1781, 1782, 
1783, 1784, 1785, 1786, 1787, 1788, 1789, 1790, 1791, 1792, 
1793, 1794, 1795, 1796, 1797, 1798, 1799, 1800, 1801, 1802, 
1803, 1804, 1805, 1806, 1807, 1808, 1809, 1810, 1811, 1812, 
1813, 1814, 1815, 1816, 1817, 1818, 1819, 1820, 1821, 1822, 
1823, 1824, 1825, 1826, 1827, 1828, 1829, 1830, 1831, 1832, 
1833, 1834, 1835, 1836, 1837, 1838, 1839, 1840, 1841, 1842, 
1843, 1844, 1845, 1846, 1847, 1848, 1849, 1850, 1851, 1852, 
1853, 1854, 1855, 1856, 1857, 1858, 1859, 1860, 1861, 1862, 
1863, 1864, 1865, 1866, 1867, 1868, 1869, 1870, 1871, 1872, 
1873, 1874, 1875, 1876, 1877, 1878, 1879, 1880, 1881, 1882, 
1883, 1884, 1885, 1886, 1887, 1888, 1889, 1890, 1891, 1892, 
1893, 1894, 1895, 1896, 1897, 1898, 1899, 1900, 1901, 1902, 
1903, 1904, 1905, 1906, 1907, 1908, 1909, 1910, 1911, 1912, 
1913, 1914, 1915, 1916, 1917, 1918, 1919, 1920, 1921, 1922, 
1923, 1924, 1925, 1926, 1927, 1928, 1929, 1930, 1931, 1932, 
1933, 1934, 1935, 1936, 1937, 1938, 1939, 1940, 1941, 1942, 
1943, 1944, 1945, 1946, 1947, 1948, 1949, 1950, 1951, 1952, 
1953, 1954, 1955, 1956, 1957, 1958, 1959, 1960, 1961, 1962, 
1963, 1964, 1965, 1966, 1967, 1968, 1969, 1970, 1971, 1972, 
1973, 1974, 1975, 1976, 1977, 1978, 1979, 1980, 1981, 1982, 
1983, 1984, 1985, 1986, 1987, 1988, 1989, 1990, 1991, 1992, 
1993, 1994, 1995, 1996, 1997, 1998, 1999, 2000, 2001, 2002, 
2003, 2004, 2005, 2006, 2007, 2008, 2009, 2010, 2011, 2012, 
2013, 2014, 2015, 2016, 2017, 2018, 2019, 2020, 2021, 2022, 
2023, 2024, 2025, 2026, 2027, 2028, 2029, 2030, 2031, 2032, 
2033, 2034, 2035, 2036, 2037, 2038, 2039, 2040, 2041, 2042, 
2043, 2044, 2045, 2046, 2047, 2048, 2049, 2050, 2051, 2052, 
2053, 2054, 2055, 2056, 2057, 2058, 2059, 2060, 2061, 2062, 
2063, 2064, 2065, 2066, 2067, 2068, 2069, 2070, 2071, 2072, 
2073, 2074, 2075, 2076, 2077, 2078, 2079, 2080, 2081, 2082, 
2083, 2084, 2085, 2086, 2087, 2088, 2089, 2090, 2091, 2092, 
2093, 2094, 2095, 2096, 2097, 2098, 2099, 2100, 2101, 2102, 
2103, 2104, 2105, 2106, 2107, 2108, 2109, 2110, 2111, 2112, 
2113, 2114, 2115, 2116, 2117, 2118, 2119, 2120, 2121, 2122, 
2123, 2124, 2125, 2126, 2127, 2128, 2129, 2130, 2131, 2132, 
2133, 2134, 2135, 2136, 2137, 2138, 2139, 2140, 2141, 2142, 
2143, 2144, 2145, 2146, 2147, 2148, 2149, 2150, 2151, 2152, 
2153, 2154, 2155, 2156, 2157, 2158, 2159, 2160, 2161, 2162, 
2163, 2164, 2165, 2166, 2167, 2168, 2169, 2170, 2171, 2172, 
2173, 2174, 2175, 2176, 2177, 2178, 2179, 2180, 2181, 2182, 
2183, 2184, 2185, 2186, 2187, 2188, 2189, 2190, 2191, 2192, 
2193, 2194, 2195, 2196, 2197, 2198, 2199, 2200, 2201, 2202, 
2203, 2204, 2205, 2206, 2207, 2208, 2209, 2210, 2211, 2212, 
2213, 2214, 2215, 2216, 2217, 2218, 2219, 2220, 2221, 2222, 
2223, 2224, 2225, 2226, 2227, 2228, 2229, 2230, 2231, 2232, 
2233, 2234, 2235, 2236, 2237, 2238, 2239, 2240, 2241, 2242, 
2243, 2244, 2245, 2246, 2247, 2248, 2249, 2250, 2251, 2252, 
2253, 2254, 2255, 2256, 2257, 2258, 2259, 2260, 2261, 2262, 
2263, 2264, 2265, 2266, 2267, 2268, 2269, 2270, 2271, 2272, 
2273, 2274, 2275, 2276, 2277, 2278, 2279, 2280, 2281, 2282, 
2283, 2284, 2285, 2286, 2287, 2288, 2289, 2290, 2291, 2292, 
2293, 2294, 2295, 2296, 2297, 2298, 2299, 2300, 2301, 2302, 
2303, 2304, 2305, 2306, 2307, 2308, 2309, 2310, 2311, 2312, 
2313, 2314, 2315, 2316, 2317, 2318, 2319, 2320, 2321, 2322, 
2323, 2324, 2325, 2326, 2327, 2328, 2329, 2330, 2331, 2332, 
2333, 
*NSET,NSET=skir_carbo_undc
5, 6, 169, 170, 171, 172, 173, 174, 175, 176, 
177, 178, 179, 180, 181, 182, 183, 184, 185, 186, 
187, 188, 189, 190, 191, 192, 193, 194, 195, 196, 
197, 198, 199, 200, 201, 202, 203, 204, 205, 206, 
207, 208, 209, 210, 211, 212, 213, 214, 215, 216, 
217, 218, 219, 220, 221, 222, 223, 224, 225, 226, 
227, 228, 229, 230, 231, 232, 233, 234, 235, 236, 
237, 238, 239, 240, 241, 242, 243, 244, 245, 680, 
681, 682, 683, 684, 685, 686, 687, 688, 689, 690, 
691, 692, 693, 694, 695, 696, 697, 698, 699, 700, 
701, 702, 703, 704, 705, 706, 707, 708, 709, 710, 
711, 712, 713, 714, 715, 716, 717, 718, 
*NSET,NSET=base_plate_cutin
5, 7, 208, 209, 210, 211, 212, 213, 214, 215, 
216, 217, 218, 219, 220, 221, 222, 223, 224, 225, 
226, 227, 228, 229, 230, 231, 232, 233, 234, 235, 
236, 237, 238, 239, 240, 241, 242, 243, 244, 245, 
284, 285, 286, 287, 288, 289, 290, 291, 292, 293, 
294, 295, 296, 297, 298, 299, 300, 301, 302, 303, 
304, 305, 306, 307, 308, 309, 310, 311, 312, 313, 
314, 315, 316, 317, 318, 319, 320, 321, 
*NSET,NSET=base_plate_cutou
5, 8, 208, 209, 210, 211, 212, 213, 214, 215, 
216, 217, 218, 219, 220, 221, 222, 223, 224, 225, 
226, 227, 228, 229, 230, 231, 232, 233, 234, 235, 
236, 237, 238, 239, 240, 241, 242, 243, 244, 245, 
322, 323, 324, 325, 326, 327, 328, 329, 330, 331, 
332, 333, 334, 335, 336, 337, 338, 339, 340, 341, 
342, 343, 344, 345, 346, 347, 348, 349, 350, 351, 
352, 353, 354, 355, 356, 357, 358, 359, 
*NSET,NSET=uppe_plate
1, 2, 9, 10, 11, 12, 13, 14, 15, 16, 
17, 18, 19, 20, 21, 22, 23, 24, 25, 26, 
27, 28, 29, 30, 31, 32, 33, 34, 35, 36, 
37, 38, 39, 40, 41, 42, 43, 44, 45, 46, 
47, 48, 49, 50, 51, 52, 53, 54, 55, 56, 
57, 58, 59, 60, 61, 62, 63, 64, 65, 66, 
67, 68, 69, 70, 71, 72, 73, 74, 75, 76, 
77, 78, 79, 80, 81, 82, 83, 84, 
*NSET,NSET=skir_sless
3, 4, 85, 86, 87, 88, 89, 90, 91, 92, 
93, 94, 95, 96, 97, 98, 99, 100, 101, 102, 
103, 104, 105, 106, 107, 108, 109, 110, 111, 112, 
113, 114, 115, 116, 117, 118, 119, 120, 121, 122, 
123, 124, 125, 126, 127, 128, 129, 130, 131, 132, 
133, 134, 135, 136, 137, 138, 139, 140, 141, 142, 
143, 144, 145, 146, 147, 148, 149, 150, 151, 152, 
153, 154, 155, 156, 157, 158, 159, 160, 161, 162, 
163, 164, 165, 166, 167, 168, 360, 361, 362, 363, 
364, 365, 366, 367, 368, 369, 370, 371, 372, 373, 
374, 375, 376, 377, 378, 379, 380, 381, 382, 383, 
384, 385, 386, 387, 388, 389, 390, 391, 392, 393, 
394, 395, 396, 397, 398, 399, 400, 401, 402, 403, 
404, 405, 406, 407, 408, 409, 410, 411, 412, 413, 
414, 415, 416, 417, 418, 419, 420, 421, 422, 423, 
424, 425, 426, 427, 428, 429, 430, 431, 432, 433, 
434, 435, 436, 437, 438, 439, 440, 441, 442, 443, 
444, 445, 446, 447, 448, 449, 450, 451, 452, 453, 
454, 455, 456, 457, 458, 459, 460, 461, 462, 463, 
464, 465, 466, 467, 468, 469, 470, 471, 472, 473, 
474, 475, 476, 477, 478, 479, 480, 481, 482, 483, 
484, 485, 486, 487, 488, 489, 490, 491, 492, 493, 
494, 495, 496, 497, 498, 499, 500, 501, 502, 503, 
504, 505, 506, 507, 508, 509, 510, 511, 512, 513, 
514, 515, 516, 517, 518, 519, 520, 521, 522, 523, 
524, 525, 526, 527, 528, 529, 530, 531, 532, 533, 
534, 535, 536, 537, 538, 539, 540, 541, 542, 543, 
544, 545, 546, 547, 548, 549, 550, 551, 552, 553, 
554, 555, 556, 557, 558, 559, 560, 561, 562, 563, 
564, 565, 566, 567, 568, 569, 570, 571, 572, 573, 
574, 575, 576, 577, 578, 579, 580, 581, 582, 583, 
584, 585, 586, 587, 588, 589, 590, 591, 592, 593, 
594, 595, 596, 597, 598, 599, 600, 601, 602, 603, 
604, 605, 606, 607, 608, 609, 610, 611, 612, 613, 
614, 615, 616, 617, 618, 619, 620, 621, 622, 623, 
624, 625, 626, 627, 628, 629, 630, 631, 632, 633, 
634, 635, 636, 637, 638, 639, 640, 641, 642, 643, 
644, 645, 646, 647, 648, 649, 650, 651, 652, 653, 
654, 655, 656, 657, 658, 659, 660, 661, 662, 663, 
664, 665, 666, 667, 668, 669, 670, 671, 672, 673, 
674, 675, 676, 677, 678, 679, 
