**Heading  gmsh_hls.inp using 4e-4 geometric tolerance
*NODE
1, 1258.6500705121, -867.5, 1258.6500705121
2, 1258.6500705121, -1282.5, 1258.6500705121
3, 1143.7452185692, -1282.5, 1143.7452185692
4, 1143.7452185692, -867.5, 1143.7452185692
5, 1700, 3405, 5.7343276269961e-13
6, 1500, 3405, 5.6343561451655e-13
7, -1660, -615, -1.0123304584782e-13
8, -1660, 45, -1.8205973459155e-13
9, -1540, 45, -9.4166206486207e-14
10, 278.45334777161, -867.5, 1758.0852462594
11, 278.45334777161, -1282.5, 1758.0852462594
12, 253.03274720257, -1282.5, 1597.5858909126
13, 253.03274720257, -867.5, 1597.5858909126
14, -7.7715611723761e-13, -867.5, 1780
15, -7.7715611723761e-13, -1282.5, 1780
16, -8.0491169285324e-13, -1282.5, 1617.5
17, -8.0491169285324e-13, -867.5, 1617.5
18, -278.45334777161, -867.5, 1758.0852462594
19, -278.45334777161, -1282.5, 1758.0852462594
20, -253.03274720258, -1282.5, 1597.5858909126
21, -253.03274720258, -867.5, 1597.5858909126
22, -550.05024998741, -867.5, 1692.8805990054
23, -550.05024998741, -1282.5, 1692.8805990054
24, -499.83498840148, -1282.5, 1538.3339151074
25, -499.83498840148, -867.5, 1538.3339151074
26, -808.1030895364, -867.5, 1585.9916130553
27, -808.1030895364, -1282.5, 1585.9916130553
28, -734.32963332872, -1282.5, 1441.2030528747
29, -734.32963332872, -867.5, 1441.2030528747
30, -1046.2577490806, -867.5, 1440.0502499874
31, -1046.2577490806, -1282.5, 1440.0502499874
32, -950.74264558308, -1282.5, 1308.5849884015
33, -950.74264558308, -867.5, 1308.5849884015
34, -1258.6500705121, -867.5, 1258.650070512
35, -1258.6500705121, -1282.5, 1258.650070512
36, -1143.7452185692, -1282.5, 1143.7452185692
37, -1143.7452185692, -867.5, 1143.7452185692
38, -1440.0502499874, -867.5, 1046.2577490806
39, -1440.0502499874, -1282.5, 1046.2577490806
40, -1308.5849884015, -1282.5, 950.74264558307
41, -1308.5849884015, -867.5, 950.74264558307
42, -1585.9916130553, -867.5, 808.10308953639
43, -1585.9916130553, -1282.5, 808.10308953639
44, -1441.2030528747, -1282.5, 734.32963332872
45, -1441.2030528747, -867.5, 734.32963332872
46, -1692.8805990054, -867.5, 550.05024998741
47, -1692.8805990054, -1282.5, 550.05024998741
48, -1538.3339151074, -1282.5, 499.83498840148
49, -1538.3339151074, -867.5, 499.83498840148
50, -1758.0852462594, -867.5, 278.45334777161
51, -1758.0852462594, -1282.5, 278.45334777161
52, -1597.5858909126, -1282.5, 253.03274720257
53, -1597.5858909126, -867.5, 253.03274720257
54, -1758.0852462594, -867.5, -278.45334777161
55, -1758.0852462594, -1282.5, -278.45334777161
56, -1597.5858909126, -1282.5, -253.03274720258
57, -1597.5858909126, -867.5, -253.03274720258
58, -1692.8805990054, -867.5, -550.05024998741
59, -1692.8805990054, -1282.5, -550.05024998741
60, -1538.3339151074, -1282.5, -499.83498840148
61, -1538.3339151074, -867.5, -499.83498840148
62, -1585.9916130553, -867.5, -808.1030895364
63, -1585.9916130553, -1282.5, -808.1030895364
64, -1441.2030528747, -1282.5, -734.32963332872
65, -1441.2030528747, -867.5, -734.32963332872
66, -1440.0502499874, -867.5, -1046.2577490806
67, -1440.0502499874, -1282.5, -1046.2577490806
68, -1308.5849884015, -1282.5, -950.74264558308
69, -1308.5849884015, -867.5, -950.74264558308
70, -1258.650070512, -867.5, -1258.6500705121
71, -1258.650070512, -1282.5, -1258.6500705121
72, -1143.7452185692, -1282.5, -1143.7452185692
73, -1143.7452185692, -867.5, -1143.7452185692
74, -1046.2577490806, -867.5, -1440.0502499874
75, -1046.2577490806, -1282.5, -1440.0502499874
76, -950.74264558308, -1282.5, -1308.5849884015
77, -950.74264558308, -867.5, -1308.5849884015
78, -808.10308953639, -867.5, -1585.9916130553
79, -808.10308953639, -1282.5, -1585.9916130553
80, -734.32963332872, -1282.5, -1441.2030528747
81, -734.32963332872, -867.5, -1441.2030528747
82, -550.05024998741, -867.5, -1692.8805990054
83, -550.05024998741, -1282.5, -1692.8805990054
84, -499.83498840148, -1282.5, -1538.3339151074
85, -499.83498840148, -867.5, -1538.3339151074
86, -278.45334777161, -867.5, -1758.0852462594
87, -278.45334777161, -1282.5, -1758.0852462594
88, -253.03274720257, -1282.5, -1597.5858909126
89, -253.03274720257, -867.5, -1597.5858909126
90, 278.45334777161, -867.5, -1758.0852462594
91, 278.45334777161, -1282.5, -1758.0852462594
92, 253.03274720258, -1282.5, -1597.5858909126
93, 253.03274720258, -867.5, -1597.5858909126
94, 550.05024998741, -867.5, -1692.8805990054
95, 550.05024998741, -1282.5, -1692.8805990054
96, 499.83498840148, -1282.5, -1538.3339151074
97, 499.83498840148, -867.5, -1538.3339151074
98, 808.1030895364, -867.5, -1585.9916130553
99, 808.1030895364, -1282.5, -1585.9916130553
100, 734.32963332872, -1282.5, -1441.2030528747
101, 734.32963332872, -867.5, -1441.2030528747
102, 1046.2577490806, -867.5, -1440.0502499874
103, 1046.2577490806, -1282.5, -1440.0502499874
104, 950.74264558308, -1282.5, -1308.5849884015
105, 950.74264558308, -867.5, -1308.5849884015
106, 1258.6500705121, -867.5, -1258.650070512
107, 1258.6500705121, -1282.5, -1258.650070512
108, 1143.7452185692, -1282.5, -1143.7452185692
109, 1143.7452185692, -867.5, -1143.7452185692
110, 1440.0502499874, -867.5, -1046.2577490806
111, 1440.0502499874, -1282.5, -1046.2577490806
112, 1308.5849884015, -1282.5, -950.74264558308
113, 1308.5849884015, -867.5, -950.74264558308
114, 1585.9916130553, -867.5, -808.10308953639
115, 1585.9916130553, -1282.5, -808.10308953639
116, 1441.2030528747, -1282.5, -734.32963332872
117, 1441.2030528747, -867.5, -734.32963332872
118, 1692.8805990054, -867.5, -550.05024998741
119, 1692.8805990054, -1282.5, -550.05024998741
120, 1538.3339151074, -1282.5, -499.83498840148
121, 1538.3339151074, -867.5, -499.83498840148
122, 1758.0852462594, -867.5, -278.45334777161
123, 1758.0852462594, -1282.5, -278.45334777161
124, 1597.5858909126, -1282.5, -253.03274720257
125, 1597.5858909126, -867.5, -253.03274720257
126, 1758.0852462594, -867.5, 278.45334777161
127, 1758.0852462594, -1282.5, 278.45334777161
128, 1597.5858909126, -1282.5, 253.03274720257
129, 1597.5858909126, -867.5, 253.03274720257
130, 1692.8805990054, -867.5, 550.05024998741
131, 1692.8805990054, -1282.5, 550.05024998741
132, 1538.3339151074, -1282.5, 499.83498840148
133, 1538.3339151074, -867.5, 499.83498840148
134, 1585.9916130553, -867.5, 808.10308953639
135, 1585.9916130553, -1282.5, 808.10308953639
136, 1441.2030528747, -1282.5, 734.32963332872
137, 1441.2030528747, -867.5, 734.32963332872
138, 1440.0502499874, -867.5, 1046.2577490806
139, 1440.0502499874, -1282.5, 1046.2577490806
140, 1308.5849884015, -1282.5, 950.74264558308
141, 1308.5849884015, -867.5, 950.74264558308
142, 1046.2577490806, -867.5, 1440.0502499874
143, 1046.2577490806, -1282.5, 1440.0502499874
144, 950.74264558308, -1282.5, 1308.5849884015
145, 950.74264558308, -867.5, 1308.5849884015
146, 808.10308953639, -867.5, 1585.9916130553
147, 808.10308953639, -1282.5, 1585.9916130553
148, 734.32963332872, -1282.5, 1441.2030528747
149, 734.32963332872, -867.5, 1441.2030528747
150, 550.05024998741, -867.5, 1692.8805990054
151, 550.05024998741, -1282.5, 1692.8805990054
152, 499.83498840148, -1282.5, 1538.3339151074
153, 499.83498840148, -867.5, 1538.3339151074
154, 5.8331910890075e-12, 7385, 1617.5
155, 6.2293643285316e-12, 7385, -1617.5
156, 6.2293643285316e-12, 9385, 1617.5
157, 6.2293643285316e-12, -867.5, -1617.5
158, -1617.5, -867.5, -2.5662631322971e-28
159, 1617.5, 2705, 3.779199175824e-13
160, 275, 5810, 1593.9514578556
161, 275, 5360, 1593.9514578556
162, -275, 5810, 1593.9514578556
163, -275, 5360, 1593.9514578556
164, 275, 410, 1593.9514578556
165, 275, -40, 1593.9514578556
166, -275, 410, 1593.9514578556
167, -275, -40, 1593.9514578556
168, -1617.5, 45, 9.1171514782218e-13
169, -1617.5, -1282.5, -3.7939279160473e-28
170, 1617.5, -867.5, 5.22916923008e-13
171, 1400, -1282.5, 4.4408920985006e-13
172, 275, 5810, 1500
173, 275, 5360, 1500
174, 275, 5360, 1700
175, 275, 5810, 1700
176, -275, 5360, 1500
177, -275, 5360, 1700
178, -275, 5810, 1500
179, -275, 5810, 1700
180, 275, -40, 1700
181, -275, -40, 1700
182, 275, -40, 1500
183, -275, -40, 1500
184, 275, 410, 1500
185, 275, 410, 1700
186, -275, 410, 1700
187, -275, 410, 1500
188, 1780, -867.5, 4.5869652072256e-13
189, 5.5511151231258e-13, -867.5, -1780
190, -1780, -867.5, -6.6613381477509e-13
191, 1617.5, -1282.5, 4.9960036108132e-13
192, 1780, -1282.5, 4.4408920985006e-13
193, 5.5511151231258e-13, -1282.5, -1780
194, 5.8286708792821e-13, -1282.5, -1617.5
195, -1780, -1282.5, -6.6613381477509e-13
196, 1258.6500705121, -1075, 1258.6500705121
197, 1201.1976445407, -1282.5, 1201.1976445407
198, 1143.7452185692, -1075, 1143.7452185692
199, 1201.1976445407, -867.5, 1201.1976445407
200, 1700, 3338.1559480312, 205.72483830237
201, 1700, 3163.1559480312, 332.8697807033
202, 1700, 2946.8440519688, 332.8697807033
203, 1700, 2771.8440519688, 205.72483830237
204, 1700, 2705, 6.1629540066977e-13
205, 1700, 2771.8440519688, -205.72483830237
206, 1700, 2946.8440519688, -332.8697807033
207, 1700, 3163.1559480312, -332.8697807033
208, 1700, 3338.1559480312, -205.72483830236
209, 1700, 3387.8697807033, 108.15594803123
210, 1700, 3260.7248383024, 283.15594803123
211, 1700, 3055, 350
212, 1700, 2849.2751616976, 283.15594803123
213, 1700, 2722.1302192967, 108.15594803123
214, 1700, 2722.1302192967, -108.15594803123
215, 1700, 2849.2751616976, -283.15594803123
216, 1700, 3055, -350
217, 1700, 3260.7248383024, -283.15594803123
218, 1700, 3387.8697807033, -108.15594803123
219, 1600, 3405, 6.1129682657824e-13
220, 1650, 3405, 6.13796113624e-13
221, 1550, 3405, 6.0879753953247e-13
222, 1500, 3338.1559480312, 205.72483830237
223, 1500, 3163.1559480312, 332.8697807033
224, 1500, 2946.8440519688, 332.8697807033
225, 1500, 2771.8440519688, 205.72483830237
226, 1500, 2705, 6.062982524867e-13
227, 1500, 2771.8440519688, -205.72483830237
228, 1500, 2946.8440519688, -332.8697807033
229, 1500, 3163.1559480312, -332.8697807033
230, 1500, 3338.1559480312, -205.72483830236
231, 1500, 3387.8697807033, 108.15594803123
232, 1500, 3260.7248383024, 283.15594803123
233, 1500, 3055, 350
234, 1500, 2849.2751616976, 283.15594803123
235, 1500, 2722.1302192967, 108.15594803123
236, 1500, 2722.1302192967, -108.15594803123
237, 1500, 2849.2751616976, -283.15594803123
238, 1500, 3055, -350
239, 1500, 3260.7248383024, -283.15594803123
240, 1500, 3387.8697807033, -108.15594803123
241, -1660, -51.654762208439, -233.34523779156
242, -1660, -285, -330
243, -1660, -518.34523779156, -233.34523779156
244, -1660, 19.880245728725, -126.28553268048
245, -1660, -158.71446731952, -304.88024572872
246, -1660, -411.28553268048, -304.88024572873
247, -1660, -589.88024572872, -126.28553268048
248, -1600, 45, -9.7699626167014e-14
249, -1630, 45, -9.9466336007418e-14
250, -1570, 45, -9.5932916326611e-14
251, -1540, -51.654762208439, 233.34523779156
252, -1540, -285, 330
253, -1540, -518.34523779156, 233.34523779156
254, -1540, -615, 2.291038165894e-12
255, -1540, -518.34523779156, -233.34523779156
256, -1540, -285, -330
257, -1540, -51.65476220844, -233.34523779156
258, -1540, 19.880245728725, 126.28553268048
259, -1540, -158.71446731952, 304.88024572872
260, -1540, -411.28553268048, 304.88024572873
261, -1540, -589.88024572872, 126.28553268048
262, -1540, -589.88024572873, -126.28553268048
263, -1540, -411.28553268048, -304.88024572872
264, -1540, -158.71446731952, -304.88024572873
265, -1540, 19.880245728725, -126.28553268048
266, -1660, -518.34523779156, 233.34523779156
267, -1660, -285, 330
268, -1660, -51.65476220844, 233.34523779156
269, -1660, -589.88024572872, 126.28553268048
270, -1660, -411.28553268048, 304.88024572872
271, -1660, -158.71446731952, 304.88024572872
272, -1660, 19.880245728724, 126.28553268048
273, 278.45334777161, -1075, 1758.0852462594
274, 265.74304748709, -1282.5, 1677.835568586
275, 253.03274720257, -1075, 1597.5858909126
276, 265.74304748709, -867.5, 1677.835568586
277, -7.7715611723761e-13, -1075, 1780
278, -8.3212545618531e-13, -1282.5, 1698.75
279, -8.0491169285324e-13, -1075, 1617.5
280, -8.3212545618531e-13, -867.5, 1698.75
281, -278.45334777161, -1075, 1758.0852462594
282, -265.74304748709, -1282.5, 1677.835568586
283, -253.03274720258, -1075, 1597.5858909126
284, -265.74304748709, -867.5, 1677.835568586
285, -550.05024998741, -1075, 1692.8805990054
286, -524.94261919444, -1282.5, 1615.6072570564
287, -499.83498840148, -1075, 1538.3339151074
288, -524.94261919444, -867.5, 1615.6072570564
289, -808.1030895364, -1075, 1585.9916130553
290, -771.21636143256, -1282.5, 1513.597332965
291, -734.32963332872, -1075, 1441.2030528747
292, -771.21636143256, -867.5, 1513.597332965
293, -1046.2577490806, -1075, 1440.0502499874
294, -998.50019733184, -1282.5, 1374.3176191944
295, -950.74264558308, -1075, 1308.5849884015
296, -998.50019733184, -867.5, 1374.3176191944
297, -1258.6500705121, -1075, 1258.650070512
298, -1201.1976445406, -1282.5, 1201.1976445406
299, -1143.7452185692, -1075, 1143.7452185692
300, -1201.1976445406, -867.5, 1201.1976445406
301, -1440.0502499874, -1075, 1046.2577490806
302, -1374.3176191944, -1282.5, 998.50019733184
303, -1308.5849884015, -1075, 950.74264558307
304, -1374.3176191944, -867.5, 998.50019733184
305, -1585.9916130553, -1075, 808.10308953639
306, -1513.597332965, -1282.5, 771.21636143256
307, -1441.2030528747, -1075, 734.32963332872
308, -1513.597332965, -867.5, 771.21636143256
309, -1692.8805990054, -1075, 550.05024998741
310, -1615.6072570564, -1282.5, 524.94261919444
311, -1538.3339151074, -1075, 499.83498840148
312, -1615.6072570564, -867.5, 524.94261919444
313, -1758.0852462594, -1075, 278.45334777161
314, -1677.835568586, -1282.5, 265.74304748709
315, -1597.5858909126, -1075, 253.03274720257
316, -1677.835568586, -867.5, 265.74304748709
317, -1758.0852462594, -1075, -278.45334777161
318, -1677.835568586, -1282.5, -265.74304748709
319, -1597.5858909126, -1075, -253.03274720258
320, -1677.835568586, -867.5, -265.74304748709
321, -1692.8805990054, -1075, -550.05024998741
322, -1615.6072570564, -1282.5, -524.94261919444
323, -1538.3339151074, -1075, -499.83498840148
324, -1615.6072570564, -867.5, -524.94261919444
325, -1585.9916130553, -1075, -808.1030895364
326, -1513.597332965, -1282.5, -771.21636143256
327, -1441.2030528747, -1075, -734.32963332872
328, -1513.597332965, -867.5, -771.21636143256
329, -1440.0502499874, -1075, -1046.2577490806
330, -1374.3176191944, -1282.5, -998.50019733184
331, -1308.5849884015, -1075, -950.74264558308
332, -1374.3176191944, -867.5, -998.50019733184
333, -1258.650070512, -1075, -1258.6500705121
334, -1201.1976445406, -1282.5, -1201.1976445406
335, -1143.7452185692, -1075, -1143.7452185692
336, -1201.1976445406, -867.5, -1201.1976445406
337, -1046.2577490806, -1075, -1440.0502499874
338, -998.50019733184, -1282.5, -1374.3176191944
339, -950.74264558308, -1075, -1308.5849884015
340, -998.50019733184, -867.5, -1374.3176191944
341, -808.10308953639, -1075, -1585.9916130553
342, -771.21636143256, -1282.5, -1513.597332965
343, -734.32963332872, -1075, -1441.2030528747
344, -771.21636143256, -867.5, -1513.597332965
345, -550.05024998741, -1075, -1692.8805990054
346, -524.94261919444, -1282.5, -1615.6072570564
347, -499.83498840148, -1075, -1538.3339151074
348, -524.94261919444, -867.5, -1615.6072570564
349, -278.45334777161, -1075, -1758.0852462594
350, -265.74304748709, -1282.5, -1677.835568586
351, -253.03274720257, -1075, -1597.5858909126
352, -265.74304748709, -867.5, -1677.835568586
353, 278.45334777161, -1075, -1758.0852462594
354, 265.74304748709, -1282.5, -1677.835568586
355, 253.03274720258, -1075, -1597.5858909126
356, 265.74304748709, -867.5, -1677.835568586
357, 550.05024998741, -1075, -1692.8805990054
358, 524.94261919444, -1282.5, -1615.6072570564
359, 499.83498840148, -1075, -1538.3339151074
360, 524.94261919444, -867.5, -1615.6072570564
361, 808.1030895364, -1075, -1585.9916130553
362, 771.21636143256, -1282.5, -1513.597332965
363, 734.32963332872, -1075, -1441.2030528747
364, 771.21636143256, -867.5, -1513.597332965
365, 1046.2577490806, -1075, -1440.0502499874
366, 998.50019733184, -1282.5, -1374.3176191944
367, 950.74264558308, -1075, -1308.5849884015
368, 998.50019733184, -867.5, -1374.3176191944
369, 1258.6500705121, -1075, -1258.650070512
370, 1201.1976445406, -1282.5, -1201.1976445406
371, 1143.7452185692, -1075, -1143.7452185692
372, 1201.1976445406, -867.5, -1201.1976445406
373, 1440.0502499874, -1075, -1046.2577490806
374, 1374.3176191944, -1282.5, -998.50019733184
375, 1308.5849884015, -1075, -950.74264558308
376, 1374.3176191944, -867.5, -998.50019733184
377, 1585.9916130553, -1075, -808.10308953639
378, 1513.597332965, -1282.5, -771.21636143256
379, 1441.2030528747, -1075, -734.32963332872
380, 1513.597332965, -867.5, -771.21636143256
381, 1692.8805990054, -1075, -550.05024998741
382, 1615.6072570564, -1282.5, -524.94261919444
383, 1538.3339151074, -1075, -499.83498840148
384, 1615.6072570564, -867.5, -524.94261919444
385, 1758.0852462594, -1075, -278.45334777161
386, 1677.835568586, -1282.5, -265.74304748709
387, 1597.5858909126, -1075, -253.03274720257
388, 1677.835568586, -867.5, -265.74304748709
389, 1758.0852462594, -1075, 278.45334777161
390, 1677.835568586, -1282.5, 265.74304748709
391, 1597.5858909126, -1075, 253.03274720257
392, 1677.835568586, -867.5, 265.74304748709
393, 1692.8805990054, -1075, 550.05024998741
394, 1615.6072570564, -1282.5, 524.94261919444
395, 1538.3339151074, -1075, 499.83498840148
396, 1615.6072570564, -867.5, 524.94261919444
397, 1585.9916130553, -1075, 808.10308953639
398, 1513.597332965, -1282.5, 771.21636143256
399, 1441.2030528747, -1075, 734.32963332872
400, 1513.597332965, -867.5, 771.21636143256
401, 1440.0502499874, -1075, 1046.2577490806
402, 1374.3176191944, -1282.5, 998.50019733184
403, 1308.5849884015, -1075, 950.74264558308
404, 1374.3176191944, -867.5, 998.50019733184
405, 1046.2577490806, -1075, 1440.0502499874
406, 998.50019733184, -1282.5, 1374.3176191944
407, 950.74264558308, -1075, 1308.5849884015
408, 998.50019733184, -867.5, 1374.3176191944
409, 808.10308953639, -1075, 1585.9916130553
410, 771.21636143256, -1282.5, 1513.597332965
411, 734.32963332872, -1075, 1441.2030528747
412, 771.21636143256, -867.5, 1513.597332965
413, 550.05024998741, -1075, 1692.8805990054
414, 524.94261919444, -1282.5, 1615.6072570564
415, 499.83498840148, -1075, 1538.3339151074
416, 524.94261919444, -867.5, 1615.6072570564
417, -253.03274720257, 7385, 1597.5858909126
418, -499.83498840147, 7385, 1538.3339151074
419, -734.32963332871, 7385, 1441.2030528747
420, -950.74264558307, 7385, 1308.5849884015
421, -1143.7452185692, 7385, 1143.7452185692
422, -1308.5849884015, 7385, 950.74264558308
423, -1441.2030528747, 7385, 734.32963332872
424, -1538.3339151074, 7385, 499.83498840148
425, -1597.5858909126, 7385, 253.03274720257
426, -1617.5, 7385, -2.5761272580868e-12
427, -1597.5858909126, 7385, -253.03274720258
428, -1538.3339151074, 7385, -499.83498840148
429, -1441.2030528747, 7385, -734.32963332872
430, -1308.5849884015, 7385, -950.74264558308
431, -1143.7452185692, 7385, -1143.7452185692
432, -950.74264558306, 7385, -1308.5849884015
433, -734.3296333287, 7385, -1441.2030528747
434, -499.83498840147, 7385, -1538.3339151074
435, -253.03274720257, 7385, -1597.5858909126
436, -126.90758733978, 7385, 1612.5137873133
437, -377.59787603692, 7385, 1572.8083462432
438, -618.99045185053, 7385, 1494.375143837
439, -845.14142842804, 7385, 1379.1454658427
440, -1050.4822181741, 7385, 1229.9566493581
441, -1229.956649358, 7385, 1050.4822181741
442, -1379.1454658427, 7385, 845.14142842805
443, -1494.375143837, 7385, 618.99045185053
444, -1572.8083462432, 7385, 377.59787603693
445, -1612.5137873133, 7385, 126.90758733979
446, -1612.5137873133, 7385, -126.90758733979
447, -1572.8083462432, 7385, -377.59787603693
448, -1494.375143837, 7385, -618.99045185054
449, -1379.1454658427, 7385, -845.14142842805
450, -1229.956649358, 7385, -1050.4822181741
451, -1050.4822181741, 7385, -1229.9566493581
452, -845.14142842803, 7385, -1379.1454658427
453, -618.99045185052, 7385, -1494.375143837
454, -377.59787603692, 7385, -1572.8083462432
455, -126.90758733978, 7385, -1612.5137873133
456, 253.03274720258, 7385, -1597.5858909126
457, 499.83498840148, 7385, -1538.3339151074
458, 734.32963332872, 7385, -1441.2030528747
459, 950.74264558308, 7385, -1308.5849884015
460, 1143.7452185692, 7385, -1143.7452185692
461, 1308.5849884015, 7385, -950.74264558308
462, 1441.2030528747, 7385, -734.32963332872
463, 1538.3339151074, 7385, -499.83498840148
464, 1597.5858909126, 7385, -253.03274720257
465, 1617.5, 7385, 1.6967424324501e-12
466, 1597.5858909126, 7385, 253.03274720258
467, 1538.3339151074, 7385, 499.83498840148
468, 1441.2030528747, 7385, 734.32963332872
469, 1308.5849884015, 7385, 950.74264558308
470, 1143.7452185692, 7385, 1143.7452185692
471, 950.74264558308, 7385, 1308.5849884015
472, 734.32963332872, 7385, 1441.2030528747
473, 499.83498840148, 7385, 1538.3339151074
474, 253.03274720258, 7385, 1597.5858909126
475, 126.9075873398, 7385, -1612.5137873133
476, 377.59787603693, 7385, -1572.8083462432
477, 618.99045185054, 7385, -1494.375143837
478, 845.14142842805, 7385, -1379.1454658427
479, 1050.4822181741, 7385, -1229.9566493581
480, 1229.9566493581, 7385, -1050.4822181741
481, 1379.1454658428, 7385, -845.14142842805
482, 1494.375143837, 7385, -618.99045185053
483, 1572.8083462432, 7385, -377.59787603693
484, 1612.5137873133, 7385, -126.90758733979
485, 1612.5137873133, 7385, 126.90758733979
486, 1572.8083462432, 7385, 377.59787603693
487, 1494.375143837, 7385, 618.99045185054
488, 1379.1454658427, 7385, 845.14142842805
489, 1229.9566493581, 7385, 1050.4822181741
490, 1050.4822181741, 7385, 1229.9566493581
491, 845.14142842805, 7385, 1379.1454658427
492, 618.99045185054, 7385, 1494.375143837
493, 377.59787603693, 7385, 1572.8083462432
494, 126.90758733979, 7385, 1612.5137873133
495, 6.2293643285316e-12, 7635, 1617.5
496, 6.2293643285316e-12, 7885, 1617.5
497, 6.2293643285316e-12, 8135, 1617.5
498, 6.2293643285316e-12, 8385, 1617.5
499, 6.2293643285316e-12, 8635, 1617.5
500, 6.2293643285316e-12, 8885, 1617.5
501, 6.2293643285316e-12, 9135, 1617.5
502, 6.2293643285316e-12, 7510, 1617.5
503, 6.2293643285316e-12, 7760, 1617.5
504, 6.2293643285316e-12, 8010, 1617.5
505, 6.2293643285316e-12, 8260, 1617.5
506, 6.2293643285316e-12, 8510, 1617.5
507, 6.2293643285316e-12, 8760, 1617.5
508, 6.2293643285316e-12, 9010, 1617.5
509, 6.2293643285316e-12, 9260, 1617.5
510, 253.03274720258, 9385, 1597.5858909126
511, 499.83498840148, 9385, 1538.3339151074
512, 734.32963332872, 9385, 1441.2030528747
513, 950.74264558308, 9385, 1308.5849884015
514, 1143.7452185692, 9385, 1143.7452185692
515, 1308.5849884015, 9385, 950.74264558308
516, 1441.2030528747, 9385, 734.32963332872
517, 1538.3339151074, 9385, 499.83498840148
518, 1597.5858909126, 9385, 253.03274720257
519, 1617.5, 9385, 1.1765147552798e-12
520, 1597.5858909126, 9385, -253.03274720257
521, 1538.3339151074, 9385, -499.83498840148
522, 1441.2030528747, 9385, -734.32963332872
523, 1308.5849884015, 9385, -950.74264558308
524, 1143.7452185692, 9385, -1143.7452185692
525, 950.74264558308, 9385, -1308.5849884015
526, 734.32963332872, 9385, -1441.2030528747
527, 499.83498840148, 9385, -1538.3339151074
528, 253.03274720258, 9385, -1597.5858909126
529, 2.8358794636314e-12, 9385, -1617.5
530, -253.03274720257, 9385, -1597.5858909126
531, -499.83498840148, 9385, -1538.3339151074
532, -734.32963332871, 9385, -1441.2030528747
533, -950.74264558307, 9385, -1308.5849884015
534, -1143.7452185692, 9385, -1143.7452185692
535, -1308.5849884015, 9385, -950.74264558307
536, -1441.2030528747, 9385, -734.32963332871
537, -1538.3339151074, 9385, -499.83498840147
538, -1597.5858909126, 9385, -253.03274720257
539, -1617.5, 9385, 8.3226416335466e-12
540, -1597.5858909126, 9385, 253.03274720258
541, -1538.3339151074, 9385, 499.83498840149
542, -1441.2030528747, 9385, 734.32963332873
543, -1308.5849884015, 9385, 950.74264558308
544, -1143.7452185692, 9385, 1143.7452185692
545, -950.74264558306, 9385, 1308.5849884015
546, -734.32963332871, 9385, 1441.2030528747
547, -499.83498840147, 9385, 1538.3339151074
548, -253.03274720256, 9385, 1597.5858909126
549, 126.9075873398, 9385, 1612.5137873133
550, 377.59787603693, 9385, 1572.8083462432
551, 618.99045185054, 9385, 1494.375143837
552, 845.14142842805, 9385, 1379.1454658427
553, 1050.4822181741, 9385, 1229.9566493581
554, 1229.9566493581, 9385, 1050.4822181741
555, 1379.1454658428, 9385, 845.14142842805
556, 1494.375143837, 9385, 618.99045185053
557, 1572.8083462432, 9385, 377.59787603693
558, 1612.5137873133, 9385, 126.90758733979
559, 1612.5137873133, 9385, -126.90758733979
560, 1572.8083462432, 9385, -377.59787603693
561, 1494.375143837, 9385, -618.99045185053
562, 1379.1454658428, 9385, -845.14142842805
563, 1229.9566493581, 9385, -1050.4822181741
564, 1050.4822181741, 9385, -1229.9566493581
565, 845.14142842805, 9385, -1379.1454658427
566, 618.99045185054, 9385, -1494.375143837
567, 377.59787603693, 9385, -1572.8083462432
568, 126.90758733979, 9385, -1612.5137873133
569, -126.90758733979, 9385, -1612.5137873133
570, -377.59787603693, 9385, -1572.8083462432
571, -618.99045185053, 9385, -1494.375143837
572, -845.14142842805, 9385, -1379.1454658427
573, -1050.4822181741, 9385, -1229.956649358
574, -1229.956649358, 9385, -1050.4822181741
575, -1379.1454658427, 9385, -845.14142842804
576, -1494.375143837, 9385, -618.99045185053
577, -1572.8083462432, 9385, -377.59787603692
578, -1612.5137873133, 9385, -126.90758733978
579, -1612.5137873133, 9385, 126.9075873398
580, -1572.8083462432, 9385, 377.59787603693
581, -1494.375143837, 9385, 618.99045185054
582, -1379.1454658427, 9385, 845.14142842805
583, -1229.956649358, 9385, 1050.4822181741
584, -1050.4822181741, 9385, 1229.9566493581
585, -845.14142842804, 9385, 1379.1454658427
586, -618.99045185052, 9385, 1494.375143837
587, -377.59787603692, 9385, 1572.8083462432
588, -126.90758733978, 9385, 1612.5137873133
589, 5.8331910890075e-12, 7127.109375, -1617.5
590, 5.8331910890075e-12, 6869.21875, -1617.5
591, 5.8331910890075e-12, 6611.328125, -1617.5
592, 5.8331910890075e-12, 6353.4375, -1617.5
593, 5.8331910890075e-12, 6095.546875, -1617.5
594, 5.8331910890075e-12, 5837.65625, -1617.5
595, 5.8331910890075e-12, 5579.765625, -1617.5
596, 5.8331910890075e-12, 5321.875, -1617.5
597, 5.8331910890075e-12, 5063.984375, -1617.5
598, 5.8331910890075e-12, 4806.09375, -1617.5
599, 5.8331910890075e-12, 4548.203125, -1617.5
600, 5.8331910890075e-12, 4290.3125, -1617.5
601, 5.8331910890075e-12, 4032.421875, -1617.5
602, 5.8331910890075e-12, 3774.53125, -1617.5
603, 5.8331910890075e-12, 3516.640625, -1617.5
604, 5.8331910890075e-12, 3258.75, -1617.5
605, 5.8331910890075e-12, 3000.859375, -1617.5
606, 5.8331910890075e-12, 2742.96875, -1617.5
607, 5.8331910890075e-12, 2485.078125, -1617.5
608, 5.8331910890075e-12, 2227.1875, -1617.5
609, 5.8331910890075e-12, 1969.296875, -1617.5
610, 5.8331910890075e-12, 1711.40625, -1617.5
611, 5.8331910890075e-12, 1453.515625, -1617.5
612, 5.8331910890075e-12, 1195.625, -1617.5
613, 5.8331910890075e-12, 937.734375, -1617.5
614, 5.8331910890075e-12, 679.84375, -1617.5
615, 5.8331910890075e-12, 421.953125, -1617.5
616, 5.8331910890075e-12, 164.0625, -1617.5
617, 5.8331910890075e-12, -93.828125, -1617.5
618, 5.8331910890075e-12, -351.71875, -1617.5
619, 5.8331910890075e-12, -609.609375, -1617.5
620, 5.8331910890075e-12, 7256.0546875, -1617.5
621, 5.8331910890075e-12, 6998.1640625, -1617.5
622, 5.8331910890075e-12, 6740.2734375, -1617.5
623, 5.8331910890075e-12, 6482.3828125, -1617.5
624, 5.8331910890075e-12, 6224.4921875, -1617.5
625, 5.8331910890075e-12, 5966.6015625, -1617.5
626, 5.8331910890075e-12, 5708.7109375, -1617.5
627, 5.8331910890075e-12, 5450.8203125, -1617.5
628, 5.8331910890075e-12, 5192.9296875, -1617.5
629, 5.8331910890075e-12, 4935.0390625, -1617.5
630, 5.8331910890075e-12, 4677.1484375, -1617.5
631, 5.8331910890075e-12, 4419.2578125, -1617.5
632, 5.8331910890075e-12, 4161.3671875, -1617.5
633, 5.8331910890075e-12, 3903.4765625, -1617.5
634, 5.8331910890075e-12, 3645.5859375, -1617.5
635, 5.8331910890075e-12, 3387.6953125, -1617.5
636, 5.8331910890075e-12, 3129.8046875, -1617.5
637, 5.8331910890075e-12, 2871.9140625, -1617.5
638, 5.8331910890075e-12, 2614.0234375, -1617.5
639, 5.8331910890075e-12, 2356.1328125, -1617.5
640, 5.8331910890075e-12, 2098.2421875, -1617.5
641, 5.8331910890075e-12, 1840.3515625, -1617.5
642, 5.8331910890075e-12, 1582.4609375, -1617.5
643, 5.8331910890075e-12, 1324.5703125, -1617.5
644, 5.8331910890075e-12, 1066.6796875, -1617.5
645, 5.8331910890075e-12, 808.7890625, -1617.5
646, 5.8331910890075e-12, 550.8984375, -1617.5
647, 5.8331910890075e-12, 293.0078125, -1617.5
648, 5.8331910890075e-12, 35.1171875, -1617.5
649, 5.8331910890075e-12, -222.7734375, -1617.5
650, 5.8331910890075e-12, -480.6640625, -1617.5
651, 5.8331910890075e-12, -738.5546875, -1617.5
652, -1612.5137873133, -867.5, 126.90758733979
653, -1572.8083462432, -867.5, 377.59787603693
654, -1494.375143837, -867.5, 618.99045185053
655, -1379.1454658427, -867.5, 845.14142842805
656, -1229.956649358, -867.5, 1050.4822181741
657, -1050.4822181741, -867.5, 1229.9566493581
658, -845.14142842804, -867.5, 1379.1454658427
659, -618.99045185053, -867.5, 1494.375143837
660, -377.59787603692, -867.5, 1572.8083462432
661, -126.90758733978, -867.5, 1612.5137873133
662, 126.9075873398, -867.5, 1612.5137873133
663, 377.59787603693, -867.5, 1572.8083462432
664, 618.99045185054, -867.5, 1494.375143837
665, 845.14142842806, -867.5, 1379.1454658427
666, 1050.4822181741, -867.5, 1229.956649358
667, 1229.9566493581, -867.5, 1050.4822181741
668, 1379.1454658428, -867.5, 845.14142842805
669, 1494.375143837, -867.5, 618.99045185053
670, 1572.8083462432, -867.5, 377.59787603693
671, 1612.5137873133, -867.5, 126.90758733979
672, 1612.5137873133, -867.5, -126.90758733979
673, 1572.8083462432, -867.5, -377.59787603693
674, 1494.375143837, -867.5, -618.99045185053
675, 1379.1454658427, -867.5, -845.14142842805
676, 1229.9566493581, -867.5, -1050.4822181741
677, 1050.4822181741, -867.5, -1229.9566493581
678, 845.14142842805, -867.5, -1379.1454658427
679, 618.99045185054, -867.5, -1494.375143837
680, 377.59787603693, -867.5, -1572.8083462432
681, 126.9075873398, -867.5, -1612.5137873133
682, -126.90758733978, -867.5, -1612.5137873133
683, -377.59787603692, -867.5, -1572.8083462432
684, -618.99045185053, -867.5, -1494.375143837
685, -845.14142842804, -867.5, -1379.1454658427
686, -1050.4822181741, -867.5, -1229.9566493581
687, -1229.956649358, -867.5, -1050.4822181741
688, -1379.1454658427, -867.5, -845.14142842805
689, -1494.375143837, -867.5, -618.99045185053
690, -1572.8083462432, -867.5, -377.59787603693
691, -1612.5137873133, -867.5, -126.90758733979
692, 1604.3473274554, 2771.9379020403, 205.85427985698
693, 1582.8944121385, 2946.609709548, 332.79353381259
694, 1582.8943400724, 3163.3905704297, 332.79408984368
695, 1604.3472869273, 3338.0620192908, 205.85415930356
696, 1617.4999983141, 3404.9999920225, 8.4656619317308e-06
697, 1604.3473489697, 3338.062437463, -205.85453261074
698, 1582.8943852879, 3163.3903809794, -332.79370261899
699, 1582.8944723864, 2946.6097785198, -332.79320611417
700, 1604.3473007422, 2771.938239034, -205.85403343179
701, 1613.8639433883, 2722.2079801749, 108.39348729149
702, 1592.5380860024, 2849.1569731849, 283.07014856285
703, 1579.178978528, 3055.0010987076, 350.00000214824
704, 1592.5380420071, 3260.8425603695, 283.07037221402
705, 1613.8640197647, 3387.7924827477, 108.39365834545
706, 1613.8639278349, 3387.792045172, -108.39477497057
707, 1592.5380993003, 3260.8430211699, -283.0700249046
708, 1579.1789748503, 3054.9999345285, -350.00002586969
709, 1592.5380541786, 2849.1574377463, -283.07026413052
710, 1613.8641199006, 2722.2069127418, -108.3937640022
711, 275, 5585, 1593.9514578556
712, 275, 5697.5, 1593.9514578556
713, 275, 5472.5, 1593.9514578556
714, 194.45612897941, 6004.4526010833, 1605.7686832034
715, 6.7822050338492e-05, 6085.0000003274, 1617.5000005613
716, -194.45611688164, 6004.4526213867, 1605.7686853306
717, 254.01896112127, 5915.3535321987, 1597.4293778046
718, 105.35481435464, 6064.0184315298, 1614.0652445315
719, -105.35407557588, 6064.0186634964, 1614.065283174
720, -254.01934448534, 5915.352612894, 1597.4293172278
721, -194.45612897941, 5165.5473989167, 1605.7686832034
722, -6.7822045162619e-05, 5084.9999996726, 1617.5000005613
723, 194.45611688164, 5165.5473786133, 1605.7686853306
724, -254.01896112126, 5254.6464678013, 1597.4293778046
725, -105.35481435464, 5105.9815684702, 1614.0652445315
726, 105.35407557588, 5105.9813365036, 1614.065283174
727, 254.01934448535, 5254.647387106, 1597.4293172278
728, -275, 5585, 1593.9514578556
729, -275, 5697.5, 1593.9514578556
730, -275, 5472.5, 1593.9514578556
731, 275, 185, 1593.9514578556
732, 275, 297.5, 1593.9514578556
733, 275, 72.499999999999, 1593.9514578556
734, -194.45612897941, 604.45260108329, 1605.7686832034
735, -6.7822047025143e-05, 685.00000032736, 1617.5000005613
736, 194.45611688164, 604.45262138675, 1605.7686853306
737, -254.01896112127, 515.35353219874, 1597.4293778046
738, -105.35481435464, 664.01843152983, 1614.0652445315
739, 105.35407557588, 664.01866349643, 1614.065283174
740, 254.01934448534, 515.35261289396, 1597.4293172278
741, 194.45612897941, -234.45260108329, 1605.7686832034
742, 6.7822045108523e-05, -315.00000032736, 1617.5000005613
743, -194.45611688164, -234.45262138675, 1605.7686853306
744, 254.01896112127, -145.35353219874, 1597.4293778046
745, 105.35481435464, -294.01843152983, 1614.0652445315
746, -105.35407557588, -294.01866349643, 1614.065283174
747, -254.01934448535, -145.35261289396, 1597.4293172278
748, -275, 185, 1593.9514578556
749, -275, 297.5, 1593.9514578556
750, -275, 72.499999999999, 1593.9514578556
751, -1600.5793417692, -51.659091961111, 233.34956950236
752, -1583.4791590144, -284.99997730179, 330.00000150873
753, -1600.5793372192, -518.3408795567, 233.34960106413
754, -1617.4999987036, -614.99999346667, 5.0309208927575e-05
755, -1600.5793363805, -518.34087699086, -233.34960751825
756, -1583.4791556753, -284.99995417583, -330.00002439849
757, -1600.5793358447, -51.659145199311, -233.34960193609
758, -1612.546621701, 19.795597897875, 126.48969382195
759, -1588.5228084218, -158.51497005092, 304.79753456219
760, -1588.5227494854, -411.48425853916, 304.7978360437
761, -1612.5467229849, -589.79613457215, 126.48840149208
762, -1612.5467466537, -589.79626886251, -126.48812588237
763, -1588.5228381319, -411.4853324581, -304.79737299117
764, -1588.5228868593, -158.51399695417, -304.79712571226
765, -1612.546577117, 19.795363593211, -126.49031458678
766, -1612.5137873133, -1282.5, 126.90758733979
767, -1572.8083462432, -1282.5, 377.59787603693
768, -1494.375143837, -1282.5, 618.99045185053
769, -1379.1454658427, -1282.5, 845.14142842805
770, -1229.956649358, -1282.5, 1050.4822181741
771, -1050.4822181741, -1282.5, 1229.956649358
772, -845.14142842804, -1282.5, 1379.1454658427
773, -618.99045185053, -1282.5, 1494.375143837
774, -377.59787603692, -1282.5, 1572.8083462432
775, -126.90758733978, -1282.5, 1612.5137873133
776, 126.90758733979, -1282.5, 1612.5137873133
777, 377.59787603693, -1282.5, 1572.8083462432
778, 618.99045185054, -1282.5, 1494.375143837
779, 845.14142842805, -1282.5, 1379.1454658427
780, 1050.4822181741, -1282.5, 1229.956649358
781, 1229.9566493581, -1282.5, 1050.4822181741
782, 1379.1454658428, -1282.5, 845.14142842805
783, 1494.375143837, -1282.5, 618.99045185053
784, 1572.8083462432, -1282.5, 377.59787603692
785, 1612.5137873133, -1282.5, 126.90758733979
786, 1612.5137873133, -1282.5, -126.90758733979
787, 1572.8083462432, -1282.5, -377.59787603693
788, 1494.375143837, -1282.5, -618.99045185054
789, 1379.1454658427, -1282.5, -845.14142842805
790, 1229.9566493581, -1282.5, -1050.4822181741
791, 1050.4822181741, -1282.5, -1229.9566493581
792, 845.14142842805, -1282.5, -1379.1454658427
793, 618.99045185053, -1282.5, -1494.375143837
794, 377.59787603693, -1282.5, -1572.8083462432
795, 126.90758733979, -1282.5, -1612.5137873133
796, -126.90758733979, -1282.5, -1612.5137873133
797, -377.59787603693, -1282.5, -1572.8083462432
798, -618.99045185053, -1282.5, -1494.375143837
799, -845.14142842805, -1282.5, -1379.1454658427
800, -1050.4822181741, -1282.5, -1229.956649358
801, -1229.956649358, -1282.5, -1050.4822181741
802, -1379.1454658427, -1282.5, -845.14142842804
803, -1494.375143837, -1282.5, -618.99045185053
804, -1572.8083462432, -1282.5, -377.59787603693
805, -1612.5137873133, -1282.5, -126.90758733979
806, -1617.5, -1075, -3.1800955241722e-28
807, -1617.5, -1178.75, -3.4870117201098e-28
808, -1617.5, -971.25, -2.8731793282347e-28
809, 1376.1623395575, -1282.5, -257.2493249432
810, 1305.4611211661, -1282.5, -505.73833266201
811, 1190.3039900215, -1282.5, -737.0050280283
812, 1034.6124841089, -1282.5, -943.17390110518
813, 843.68849093097, -1282.5, -1117.2241181923
814, 624.03369808716, -1282.5, -1253.2286078971
815, 383.12818610092, -1282.5, -1346.5559004419
816, 129.17570324863, -1282.5, -1394.027846813
817, -129.17570324861, -1282.5, -1394.027846813
818, -383.12818610091, -1282.5, -1346.5559004419
819, -624.03369808715, -1282.5, -1253.2286078971
820, -843.68849093095, -1282.5, -1117.2241181923
821, -1034.6124841089, -1282.5, -943.17390110518
822, -1190.3039900215, -1282.5, -737.0050280283
823, -1305.4611211661, -1282.5, -505.73833266202
824, -1376.1623395575, -1282.5, -257.2493249432
825, -1400, -1282.5, -6.1553976173069e-13
826, -1376.1623395575, -1282.5, 257.2493249432
827, -1305.4611211661, -1282.5, 505.73833266201
828, -1190.3039900215, -1282.5, 737.0050280283
829, -1034.6124841089, -1282.5, 943.17390110518
830, -843.68849093095, -1282.5, 1117.2241181923
831, -624.03369808715, -1282.5, 1253.2286078971
832, -383.12818610091, -1282.5, 1346.5559004419
833, -129.17570324862, -1282.5, 1394.027846813
834, 129.17570324863, -1282.5, 1394.027846813
835, 383.12818610092, -1282.5, 1346.5559004419
836, 624.03369808716, -1282.5, 1253.2286078971
837, 843.68849093097, -1282.5, 1117.2241181923
838, 1034.6124841089, -1282.5, 943.17390110518
839, 1190.3039900215, -1282.5, 737.0050280283
840, 1305.4611211661, -1282.5, 505.73833266201
841, 1376.1623395575, -1282.5, 257.2493249432
842, 1394.0278468131, -1282.5, -129.17570324862
843, 1346.555900442, -1282.5, -383.12818610092
844, 1253.2286078971, -1282.5, -624.03369808715
845, 1117.2241181923, -1282.5, -843.68849093096
846, 943.17390110519, -1282.5, -1034.6124841089
847, 737.00502802831, -1282.5, -1190.3039900215
848, 505.73833266202, -1282.5, -1305.4611211661
849, 257.24932494321, -1282.5, -1376.1623395575
850, 8.0026286019022e-12, -1282.5, -1400
851, -257.24932494319, -1282.5, -1376.1623395575
852, -505.73833266201, -1282.5, -1305.4611211661
853, -737.00502802829, -1282.5, -1190.3039900215
854, -943.17390110517, -1282.5, -1034.6124841089
855, -1117.2241181923, -1282.5, -843.68849093096
856, -1253.2286078971, -1282.5, -624.03369808715
857, -1346.5559004419, -1282.5, -383.12818610092
858, -1394.027846813, -1282.5, -129.17570324862
859, -1394.027846813, -1282.5, 129.17570324862
860, -1346.5559004419, -1282.5, 383.12818610092
861, -1253.2286078971, -1282.5, 624.03369808715
862, -1117.2241181923, -1282.5, 843.68849093096
863, -943.17390110517, -1282.5, 1034.6124841089
864, -737.00502802829, -1282.5, 1190.3039900215
865, -505.73833266201, -1282.5, 1305.4611211661
866, -257.24932494319, -1282.5, 1376.1623395575
867, 8.014998866021e-12, -1282.5, 1400
868, 257.2493249432, -1282.5, 1376.1623395575
869, 505.73833266202, -1282.5, 1305.4611211661
870, 737.00502802831, -1282.5, 1190.3039900215
871, 943.17390110519, -1282.5, 1034.6124841089
872, 1117.2241181923, -1282.5, 843.68849093096
873, 1253.2286078971, -1282.5, 624.03369808715
874, 1346.555900442, -1282.5, 383.12818610091
875, 1394.0278468131, -1282.5, 129.17570324862
876, 275, 5585, 1500
877, 275, 5697.5, 1500
878, 275, 5472.5, 1500
879, 275, 5360, 1546.9757289278
880, 275, 5810, 1546.9757289278
881, 275, 5360, 1646.9757289278
882, 275, 5585, 1700
883, 275, 5697.5, 1700
884, 275, 5472.5, 1700
885, 275, 5810, 1646.9757289278
886, -275, 5360, 1546.9757289278
887, -194.4543648263, 5165.5456351737, 1500
888, -4.8868367895397e-13, 5085, 1500
889, 194.4543648263, 5165.5456351737, 1500
890, -254.0668714406, 5254.7620560996, 1500
891, -105.2379439004, 5105.9331285594, 1500
892, 105.2379439004, 5105.9331285594, 1500
893, 254.0668714406, 5254.7620560996, 1500
894, -275, 5360, 1646.9757289278
895, -194.4543648263, 5165.5456351737, 1700
896, -4.8868367895397e-13, 5085, 1700
897, 194.4543648263, 5165.5456351737, 1700
898, -254.0668714406, 5254.7620560996, 1700
899, -105.2379439004, 5105.9331285594, 1700
900, 105.2379439004, 5105.9331285594, 1700
901, 254.0668714406, 5254.7620560996, 1700
902, -275, 5810, 1546.9757289278
903, -275, 5585, 1500
904, -275, 5697.5, 1500
905, -275, 5472.5, 1500
906, -275, 5810, 1646.9757289278
907, -275, 5585, 1700
908, -275, 5697.5, 1700
909, -275, 5472.5, 1700
910, 194.4543648263, 6004.4543648263, 1500
911, 2.1401404280839e-12, 6085, 1500
912, -194.4543648263, 6004.4543648263, 1500
913, 254.06687144061, 5915.2379439004, 1500
914, 105.2379439004, 6064.0668714406, 1500
915, -105.2379439004, 6064.0668714406, 1500
916, -254.0668714406, 5915.2379439004, 1500
917, 194.4543648263, 6004.4543648263, 1700
918, 2.1401404280839e-12, 6085, 1700
919, -194.4543648263, 6004.4543648263, 1700
920, 254.06687144061, 5915.2379439004, 1700
921, 105.2379439004, 6064.0668714406, 1700
922, -105.2379439004, 6064.0668714406, 1700
923, -254.0668714406, 5915.2379439004, 1700
924, 275, -40, 1646.9757289278
925, -275, -40, 1646.9757289278
926, -194.4543648263, -234.4543648263, 1700
927, -1.8903402475432e-12, -315, 1700
928, 194.4543648263, -234.4543648263, 1700
929, -254.0668714406, -145.2379439004, 1700
930, -105.2379439004, -294.0668714406, 1700
931, 105.2379439004, -294.0668714406, 1700
932, 254.0668714406, -145.2379439004, 1700
933, 275, -40, 1546.9757289278
934, -194.4543648263, -234.4543648263, 1500
935, -1.8903402475432e-12, -315, 1500
936, 194.4543648263, -234.4543648263, 1500
937, -254.0668714406, -145.2379439004, 1500
938, -105.2379439004, -294.0668714406, 1500
939, 105.2379439004, -294.0668714406, 1500
940, 254.0668714406, -145.2379439004, 1500
941, -275, -40, 1546.9757289278
942, 275, 185, 1500
943, 275, 72.500000000001, 1500
944, 275, 297.5, 1500
945, 275, 410, 1546.9757289278
946, 275, 410, 1646.9757289278
947, 275, 185, 1700
948, 275, 72.500000000001, 1700
949, 275, 297.5, 1700
950, -275, 410, 1646.9757289278
951, 194.4543648263, 604.4543648263, 1700
952, -3.1622801389927e-13, 685, 1700
953, -194.4543648263, 604.4543648263, 1700
954, 254.0668714406, 515.2379439004, 1700
955, 105.2379439004, 664.0668714406, 1700
956, -105.2379439004, 664.0668714406, 1700
957, -254.0668714406, 515.2379439004, 1700
958, -275, 410, 1546.9757289278
959, 194.4543648263, 604.4543648263, 1500
960, -3.1622801389927e-13, 685, 1500
961, -194.4543648263, 604.4543648263, 1500
962, 254.0668714406, 515.2379439004, 1500
963, 105.2379439004, 664.0668714406, 1500
964, -105.2379439004, 664.0668714406, 1500
965, -254.0668714406, 515.2379439004, 1500
966, -275, 185, 1500
967, -275, 72.5, 1500
968, -275, 297.5, 1500
969, -275, 185, 1700
970, -275, 72.5, 1700
971, -275, 297.5, 1700
972, 1698.75, -867.5, 4.9811037730153e-13
973, 1774.512854045, -867.5, -139.65719039556
974, 1774.512854045, -867.5, 139.65719039557
975, 1730.8184583079, -867.5, -415.53274766351
976, 1730.8184583079, -867.5, 415.53274766351
977, 1644.5055678701, -867.5, -681.17650960986
978, 1644.5055678701, -867.5, 681.17650960986
979, 1517.6994925503, -867.5, -930.04744519439
980, 1517.6994925503, -867.5, 930.04744519439
981, 1353.5226187681, -867.5, -1156.0175260277
982, 1353.5226187681, -867.5, 1156.0175260277
983, 1156.0175260277, -867.5, -1353.5226187681
984, 1156.0175260277, -867.5, 1353.5226187681
985, 930.04744519439, -867.5, -1517.6994925503
986, 930.04744519439, -867.5, 1517.6994925503
987, 681.17650960986, -867.5, -1644.5055678701
988, 681.17650960986, -867.5, 1644.5055678701
989, 415.53274766351, -867.5, -1730.8184583079
990, 415.53274766351, -867.5, 1730.8184583079
991, 139.65719039556, -867.5, -1774.512854045
992, 6.0940358590583e-13, -867.5, -1698.75
993, 139.65719039556, -867.5, 1774.512854045
994, -139.65719039556, -867.5, -1774.512854045
995, -139.65719039556, -867.5, 1774.512854045
996, -415.53274766351, -867.5, -1730.8184583079
997, -415.53274766351, -867.5, 1730.8184583079
998, -681.17650960986, -867.5, -1644.5055678701
999, -681.17650960986, -867.5, 1644.5055678701
1000, -930.04744519438, -867.5, -1517.6994925503
1001, -930.04744519439, -867.5, 1517.6994925503
1002, -1156.0175260277, -867.5, -1353.5226187681
1003, -1156.0175260277, -867.5, 1353.5226187681
1004, -1353.5226187681, -867.5, -1156.0175260277
1005, -1353.5226187681, -867.5, 1156.0175260277
1006, -1517.6994925503, -867.5, -930.04744519438
1007, -1517.6994925503, -867.5, 930.04744519438
1008, -1644.5055678701, -867.5, -681.17650960986
1009, -1644.5055678701, -867.5, 681.17650960985
1010, -1730.8184583079, -867.5, -415.53274766351
1011, -1730.8184583079, -867.5, 415.53274766351
1012, -1774.512854045, -867.5, -139.65719039556
1013, -1698.75, -867.5, -7.2083224758101e-13
1014, -1774.512854045, -867.5, 139.65719039556
1015, 1698.75, -1282.5, 4.9811037730153e-13
1016, 1774.512854045, -1282.5, 139.65719039557
1017, 1774.512854045, -1282.5, -139.65719039556
1018, 1730.8184583079, -1282.5, -415.53274766351
1019, 1730.8184583079, -1282.5, 415.53274766351
1020, 1644.5055678701, -1282.5, -681.17650960986
1021, 1644.5055678701, -1282.5, 681.17650960986
1022, 1517.6994925503, -1282.5, -930.04744519439
1023, 1517.6994925503, -1282.5, 930.04744519439
1024, 1353.5226187681, -1282.5, -1156.0175260277
1025, 1353.5226187681, -1282.5, 1156.0175260277
1026, 1156.0175260277, -1282.5, -1353.5226187681
1027, 1156.0175260277, -1282.5, 1353.5226187681
1028, 930.04744519439, -1282.5, -1517.6994925503
1029, 930.04744519439, -1282.5, 1517.6994925503
1030, 681.17650960986, -1282.5, -1644.5055678701
1031, 681.17650960986, -1282.5, 1644.5055678701
1032, 415.53274766351, -1282.5, -1730.8184583079
1033, 415.53274766351, -1282.5, 1730.8184583079
1034, 139.65719039556, -1282.5, -1774.512854045
1035, 6.0940358590583e-13, -1282.5, -1698.75
1036, 139.65719039556, -1282.5, 1774.512854045
1037, -139.65719039556, -1282.5, -1774.512854045
1038, -139.65719039556, -1282.5, 1774.512854045
1039, -415.53274766351, -1282.5, -1730.8184583079
1040, -415.53274766351, -1282.5, 1730.8184583079
1041, -681.17650960986, -1282.5, -1644.5055678701
1042, -681.17650960986, -1282.5, 1644.5055678701
1043, -930.04744519439, -1282.5, -1517.6994925503
1044, -930.04744519439, -1282.5, 1517.6994925503
1045, -1156.0175260277, -1282.5, -1353.5226187681
1046, -1156.0175260277, -1282.5, 1353.5226187681
1047, -1353.5226187681, -1282.5, -1156.0175260277
1048, -1353.5226187681, -1282.5, 1156.0175260277
1049, -1517.6994925503, -1282.5, -930.04744519438
1050, -1517.6994925503, -1282.5, 930.04744519438
1051, -1644.5055678701, -1282.5, -681.17650960986
1052, -1644.5055678701, -1282.5, 681.17650960986
1053, -1730.8184583079, -1282.5, -415.53274766351
1054, -1730.8184583079, -1282.5, 415.53274766351
1055, -1774.512854045, -1282.5, -139.65719039556
1056, -1698.75, -1282.5, -7.2083224758101e-13
1057, -1774.512854045, -1282.5, 139.65719039556
1058, -1780, -1075, -6.6613381477509e-13
1059, 5.5511151231258e-13, -1075, -1780
1060, 5.8286708792821e-13, -1075, -1617.5
1061, 1780, -1075, 4.4408920985006e-13
1062, 1617.5, -1075, 4.9960036108132e-13
1063, 141.63037597961, 8733.7810609755, -1611.2874003727
1064, 276.35788436321, 8938.3994484774, -1593.7165901597
1065, 107.31545736427, 8929.2213292142, -1613.9360714138
1066, 158.18334953332, 9147.3132145942, -1609.7466502312
1067, -125.3095090407, 8613.1200369261, -1612.6387620741
1068, -181.2241870747, 8918.2442742471, -1607.315788518
1069, -73.630932841644, 9167.1443317374, -1615.8232377735
1070, -615.92323507021, 8762.8499380684, -1495.6419419435
1071, -499.40943722372, 8986.2121921621, -1538.4721199982
1072, -751.81617128548, 8887.8969738316, -1432.158753279
1073, -518.78872478691, 9176.0741027749, -1532.0458573535
1074, -870.95164929345, 8645.5897444354, -1362.9928373227
1075, -1014.425797484, 8904.1268778585, -1259.8597348113
1076, -750.9791327556, 9154.215621938, -1432.5978473269
1077, 1385.6604306519, 8108.9823840863, -834.41681486266
1078, 1307.512230786, 8396.1329046559, -952.21742073174
1079, 1258.1278999082, 8255.2699202507, -1016.5728884211
1080, 1455.0358286975, 8346.8245781019, 706.52458358257
1081, 1486.711294479, 8190.1765610528, 637.17797895778
1082, 1613.215512648, 8146.5358256962, 117.65185825945
1083, 1617.3880848019, 8416.8291887475, 19.027168495604
1084, 1615.6085371856, 8224.6112207923, -78.200412869795
1085, 958.63552298823, 8619.9497516279, 1302.8139483691
1086, 1212.36252073, 8692.7684925317, 1070.7396361064
1087, 1041.8766586422, 8314.9148194325, 1237.2547345541
1088, 1226.3313247349, 8363.5758844131, 1054.7121559809
1089, 855.10596415794, 8659.9622299337, -1372.9894537328
1090, 918.79957906685, 8427.0163578024, -1331.2075658989
1091, 1040.9606246437, 8479.6478980805, -1238.0255360619
1092, -961.69631989135, 8074.30543025, 1300.5562034404
1093, -1161.7208818869, 8174.0353184185, 1125.4824932392
1094, -1030.5505304283, 8380.9759280495, 1246.7043972947
1095, -1162.5998024699, 8535.3040019345, 1124.5745636892
1096, 637.28384120904, 8634.3050415107, -1486.6659193423
1097, 821.76721232911, 8903.6576181166, -1393.1995186408
1098, 565.70821038819, 8925.0848109555, -1515.3483001275
1099, 629.52209960438, 9143.4302105704, -1489.9691862954
1100, -1073.9522660201, 8669.2327203095, -1209.5175816457
1101, -1209.5348354779, 8910.5591592628, -1073.9328339172
1102, -977.25121675016, 9145.9042554361, -1288.9089608503
1103, -1255.9469270448, 8678.6145425832, -1019.2661901813
1104, -1366.2054364057, 8913.3134799047, -865.9035486331
1105, -1174.480883158, 9147.3524725756, -1112.1604673321
1106, -1402.6945454418, 8682.5161285392, -805.45283051689
1107, -1486.8158104664, 8914.5113272126, -636.93405918274
1108, -1336.8088435327, 9148.6156890999, -910.63075165114
1109, 1024.0816090019, 8894.5981618842, -1252.0236052503
1110, 789.73696853049, 9145.4227197797, -1411.6025540273
1111, 1039.4300688949, 8653.8282254701, -1239.3108495762
1112, 1207.0107661962, 8884.330777895, -1076.7688982722
1113, 991.65117881724, 9141.4511001673, -1277.8631341229
1114, -1512.953878714, 8684.9472102967, -572.08112264278
1115, -1569.6899512608, 8917.0732547956, -390.35843389222
1116, -1464.2897029856, 9149.228577736, -687.14039011705
1117, -1584.7349870467, 8690.1965983589, -323.9155303936
1118, -1611.9555422009, 8924.7036248451, -133.81173329666
1119, -1554.8603103697, 9150.489972345, -445.77535288209
1120, 1228.3061637135, 8586.363063026, -1052.4116201294
1121, 1140.5838488222, 8378.2143625215, -1146.8978741832
1122, 1363.5098136193, 8886.4705402508, -870.14207929738
1123, 1177.7732809735, 9138.2506473671, -1108.6732379854
1124, -1616.0213050879, 8703.1657404315, -69.147606624406
1125, -1605.9666892332, 9153.8843927683, -192.81401161064
1126, -1607.536892354, 8726.3021387876, 179.25230743521
1127, -1612.871720803, 8938.266659634, 122.27453632684
1128, -1616.2090069205, 9160.6333492751, 64.611887055879
1129, 1390.7018015229, 8633.7699951503, -825.98713624423
1130, 1484.6914500117, 8895.9358428147, -641.87035159926
1131, 1337.4032952047, 9137.4765566849, -909.75748195643
1132, -1576.9602188315, 8753.2798573782, 359.86486105604
1133, -1566.798030817, 8942.3841100442, 401.80863682596
1134, -1587.4923834343, 9176.0161947002, 310.1196261736
1135, 1502.7450811044, 8657.8402409117, -598.38404993484
1136, 1464.6746365463, 9138.7628208668, -686.31950216934
1137, -1391.27329447, 8749.3594556306, 825.02416333981
1138, -1458.9805259581, 9006.2946894011, 698.34237654249
1139, -1351.1765645869, 8956.1479165998, 889.17272861419
1140, -1443.5602018969, 9190.2212600966, 729.68499607668
1141, -171.03746931639, 7529.3991246778, 1608.431669077
1142, -215.88398509204, 7762.4346341723, 1603.0284947501
1143, 625.72850791976, 8977.5807720284, 1491.5663191345
1144, 677.15308877595, 9182.3316760362, 1468.9349694119
1145, 884.6719501144, 9169.0285698898, 1354.1276862544
1146, 171.0374693164, 9240.6008753222, 1608.431669077
1147, 215.88398509205, 9007.5653658277, 1603.0284947501
1148, -639.82336321229, 7782.7009950935, 1485.5747419392
1149, -675.08014892481, 7581.0358294134, 1469.8887857684
1150, -828.76939175952, 7593.0467972174, 1389.0455519106
1151, 643.8630080487, 7608.1547054939, 1483.8283852476
1152, 552.35009752178, 7819.1789633127, 1520.2682723019
1153, 417.18252505064, 8992.5621329431, 1562.7747728935
1154, -703.52960246349, 8903.2712581742, 1456.4863021867
1155, -640.16392324022, 9117.5487274651, 1485.4280195895
1156, -483.42570319615, 8985.0766236422, 1543.5691884361
1157, -424.47107093843, 7775.2050248097, 1560.8108661642
1158, -1277.4650738526, 8668.1690143661, 992.16391543271
1159, -1182.1787429349, 8899.6491570649, 1103.9744878179
1160, -1177.1212788373, 9166.5638307417, 1109.3654694952
1161, 1611.4571188944, 8669.0677218924, -139.68609080616
1162, 1605.58675592, 8475.3362010383, -195.95259430331
1163, 1611.8480073395, 8891.7647637485, -135.10089280128
1164, 1567.3704004929, 8900.5171058654, -399.57011607334
1165, 1607.3462224846, 9136.2331506898, -180.95405788374
1166, 1554.7588781267, 8272.471550811, 446.12899579172
1167, -187.0834299025, 8009.2302675616, 1606.6443415566
1168, -759.82066335038, 8415.5215649341, 1427.9281527954
1169, -597.11440769528, 8238.5988446598, 1503.2500238226
1170, -766.63281605054, 8162.3048099791, 1424.2824071631
1171, 448.91811769839, 8021.7799609434, 1553.9558467351
1172, 744.09964890872, 7897.4178011448, 1436.1831228969
1173, -870.79078002079, 7791.767291886, 1363.0956193278
1174, 756.83879308586, 8734.3632092782, 1429.5108573496
1175, 580.42089879842, 8775.9025597674, 1509.7740990751
1176, -1566.5352512467, 8242.1240302606, -402.83192103104
1177, -1610.2098313744, 8249.6872337846, -153.3967044794
1178, -1588.6193476666, 8028.9376645751, -304.29396678112
1179, -488.44049771697, 8824.6396211235, 1541.9896660451
1180, -791.91349189778, 8726.5852716418, 1410.3826684096
1181, -798.20489842856, 8017.2986129973, 1406.831613991
1182, -612.83030445359, 7993.5857437392, 1496.911910549
1183, 396.96931617627, 8061.4645159418, -1568.0311259712
1184, 249.46548220245, 7965.6078799557, -1598.1468090227
1185, 256.95383111341, 7816.6137204665, -1596.9599176799
1186, -1599.003033325, 8469.2842483554, -243.9170953776
1187, 590.47942117321, 8092.2853031127, -1505.8686208202
1188, 463.0788303653, 7833.1483771573, -1549.7949047753
1189, -1616.6071265366, 8035.4352498674, -53.736844260719
1190, -1614.528774844, 8266.3091568274, 97.995332545962
1191, 811.70745713391, 8126.5587302892, -1399.0844342045
1192, 673.71589636267, 7856.1465783477, -1470.5145837387
1193, -1617.4739763955, 8486.5539161241, 9.1752756500857
1194, 1043.34150036, 8183.5046587095, -1236.0197262287
1195, 887.3076122132, 7879.1081689448, -1352.4021041497
1196, 1199.5828470023, 8127.9163857406, -1085.0378994201
1197, 1088.1161852103, 7908.7124374564, -1196.7913007218
1198, 1513.6615539925, 8110.5377742235, -570.20605921471
1199, 1418.4351890323, 7896.595452663, -777.39813770989
1200, 1406.927718605, 8388.5668365981, -798.03549082786
1201, 1582.1307442087, 8090.9560377371, -336.40534809887
1202, 1498.2666647121, 7879.1656643352, -609.5106655446
1203, 1531.2063539604, 8393.9953828709, -521.26130835809
1204, 1584.3979971269, 8064.1633908112, 325.55988189603
1205, 1604.9019129981, 7844.8230980103, 201.48473801989
1206, 1600.4600872424, 8350.0078298611, 234.16609307119
1207, 1527.7321446494, 7982.840100234, 531.35745426676
1208, 1561.9415540382, 7786.1939774506, 420.29136532751
1209, -1521.3927000234, 8026.321637671, -549.24539353139
1210, -1484.014778357, 8240.1216078176, -643.43328140375
1211, 1393.0047668022, 8131.0263848838, 822.09729939118
1212, 1441.4347528599, 7857.6621908402, 733.87471904112
1213, -1540.9677709505, 8462.8770665974, -491.65493884631
1214, 1260.7462929564, 8097.5236786944, 1013.3237561592
1215, 1291.620159848, 7846.7023636768, 973.66504131264
1216, 1424.7032663181, 8806.5551686663, 765.85041159657
1217, 1387.0393763435, 8592.1125717548, 832.12259822252
1218, 1099.7488619464, 8053.159096006, 1186.1107413086
1219, 1142.7149165531, 7816.6662853879, 1144.7745933095
1220, 1158.2230923549, 7598.5612953189, 1129.0817146406
1221, 993.44800754764, 7755.1501940975, 1276.466727455
1222, 1374.1462027607, 8362.8937961516, 853.24583997723
1223, -1364.3353530488, 8237.6826531174, -868.8471064699
1224, -1416.4969880831, 8025.1121040114, -780.92415300808
1225, -1444.0865621566, 8459.3344851138, -728.64274579439
1226, -1579.6140175259, 8293.8095256122, 348.0313285262
1227, -1605.5031509676, 8048.2782629033, 196.63642143077
1228, -1596.6177948794, 8518.8394596188, 259.07116218245
1229, 824.37805114231, 8946.3270344019, 1391.6562358553
1230, 1068.3103257493, 9155.7581442401, 1214.5037249417
1231, 1137.1680874948, 8912.2381944379, 1150.2847433499
1232, 1298.4056668556, 8919.6777511901, 964.59783033001
1233, 1222.9367626839, 9137.59680101, 1058.6462697597
1234, 1391.9068872576, 9195.508960497, 823.9547725481
1235, 1391.3810997453, 9038.7807214869, 824.84233964538
1236, 1523.2190104035, 8744.0351993668, 544.15999149655
1237, 1470.8317005313, 8997.3457600038, 673.02329730279
1238, 1574.4631035593, 8709.6011816218, 370.63753928918
1239, 1552.6658771753, 8946.8250621886, 453.35959662876
1240, -1276.1820828442, 8023.1367633591, -993.8136351588
1241, -1210.6909101112, 8233.7359459019, -1072.6293722316
1242, 1614.8107075757, 8619.3383879546, 93.234267835231
1243, 1607.1619164997, 8858.8477388952, 182.58374558832
1244, -1310.454001782, 8455.3448375926, -948.16483757495
1245, 1573.7179720377, 8679.5422037742, -373.78870299349
1246, 1305.3332701368, 7608.8808475529, 955.20223192468
1247, 713.5424603304, 8382.9114373929, -1451.6071807847
1248, 342.98176739976, 8803.6182512357, -1580.7181144124
1249, -1027.7196218668, 8227.225582986, -1249.0390821868
1250, -1104.7226204537, 8019.5830824639, -1181.4796578265
1251, -1143.9193278479, 8447.6515904525, -1143.5710827823
1252, 1510.1229544128, 8496.7322409044, 579.51265090211
1253, -448.74529090934, 8809.2908906761, -1554.0057637881
1254, -907.05448179293, 8011.7770085719, -1339.2379986617
1255, -821.52443455103, 8215.2948372655, -1393.3426905954
1256, -951.71471428626, 8434.7088979014, -1307.878187222
1257, -1490.519546549, 8823.6908233715, 628.21790117395
1258, -598.13037587472, 8192.1389256489, -1502.8460677847
1259, -692.06494326727, 7993.0517529541, -1461.9686605056
1260, -740.50514098995, 8418.3274454565, -1438.039772109
1261, -1045.6728827004, 8705.9210764078, 1234.0480024638
1262, -1009.1898732246, 9024.0888145724, 1264.0577715361
1263, 1585.9983385129, 8554.1587112844, 317.67203250277
1264, 187.08342990251, 8760.7697324384, 1606.6443415566
1265, -880.58455612597, 8252.4693533677, 1356.7892575903
1266, -1058.7911201228, 7681.6860991635, 1222.8113566488
1267, -1127.9006582453, 7907.8677564121, 1159.3732596234
1268, -1346.1303580325, 8118.8809241481, 896.79390563454
1269, -1288.2592233161, 7881.6515336667, 978.10757258131
1270, -365.2428258552, 8144.4763356278, -1575.7233031726
1271, -472.88257396811, 7950.3318773134, -1546.8317042385
1272, -1469.5224198153, 8088.63195433, 675.87728742728
1273, -1423.7859328475, 7857.1334348755, 767.55447195988
1274, -507.72303875089, 8397.0764648289, -1535.7485360311
1275, -1555.9299659761, 8066.748080464, 442.02736451214
1276, -1524.820911582, 7840.799038254, 539.65492456033
1277, -1503.9799246724, 8323.6697679791, 595.2735809544
1278, -1589.7567166093, 7828.9175715419, 298.29487423612
1279, 1583.5280727609, 7590.7930010222, 329.76520856252
1280, 1523.5898348519, 7585.6562227739, 543.12085684112
1281, 1516.9359106585, 7736.874709807, 561.43716741472
1282, -1616.7677722605, 7820.8654740944, 48.664366633249
1283, -1604.6546020955, 7816.290102886, -203.44497529718
1284, -1553.1636602917, 7814.1190671006, -451.65129729615
1285, -1463.2613619265, 7813.0208522966, -689.32752497854
1286, -1222.5162235677, 7638.6195931985, 1059.1318771115
1287, -1369.8972818507, 7622.9197541851, 860.0509794065
1288, -1337.1165994929, 7811.8863659177, -910.1788007642
1289, -451.34384828967, 7589.3413876613, -1553.2530317405
1290, -1178.1068704909, 7809.5962094077, -1108.3187500454
1291, -6.2165857984232, 8280.7535467308, -1617.4880537615
1292, -128.00385446549, 8078.5606548832, -1612.4271342427
1293, -991.18917092653, 7804.4284359433, -1278.2215290934
1294, -256.44480245339, 8352.9541206235, -1597.0417381192
1295, -782.90506481662, 7795.5638907777, -1415.4030908135
1296, -1486.4078754105, 7613.8038852108, 637.88547398235
1297, -550.99170978231, 7800.090131827, -1520.7611205417
1298, 1615.0606108549, 9140.7206165959, 88.800187302464
1299, -1325.0680570177, 9172.2880647065, 927.63187432904
1300, -1567.3477179722, 7607.7412929528, 399.65908092707
1301, -1328.0438149736, 8539.2821203752, 923.36659865426
1302, 1507.1877814784, 9185.883674454, 587.1041145846
1303, -1610.4294799777, 7603.7441261024, 151.0732935319
1304, -1614.2874959119, 7601.3823138771, -101.89274038206
1305, -1578.5307497599, 7600.1583575453, -352.91205995626
1306, -1503.8601238754, 7599.5075380776, -595.57617297658
1307, -1392.0749421759, 7598.8871070611, -823.67081128681
1308, -1274.1121267396, 8406.7774725441, 996.46602475704
1309, -1529.0382768269, 9193.0984610302, 527.58714730209
1310, -1520.7848653316, 9051.9662915809, 550.92616871811
1311, -1246.0804579112, 7597.7039740162, -1031.3048736488
1312, 1577.9581172699, 8523.2393599651, -355.46368329573
1313, -1070.0245660928, 7595.4359783627, -1212.9936842201
1314, -869.73432332647, 7592.7708288697, -1363.7699427791
1315, -660.33313695704, 7587.4982382049, -1476.5725170937
1316, -428.77287537601, 7735.9017228322, -1559.6345954555
1317, -229.97538217408, 7600.5393694202, -1601.0676355463
1318, 13.746916031562, 7607.258734239, -1617.4415823453
1319, 34.04420214416, 7820.6666768071, -1617.1416889996
1320, 1433.1311836558, 7602.0123199012, 749.96083926646
1321, -1413.8625201024, 8555.130949741, 785.68379406071
1322, -1393.4668561805, 8348.9345794241, 821.31380770474
1323, 1593.3737423976, 8291.0396908249, -278.32780500335
1324, 1608.941274739, 8085.3154024526, -166.17528228154
1325, 1615.6442217376, 7918.7661668463, -77.459658958362
1326, 1614.9003077403, 7615.2198955644, 91.669220899717
1327, 1573.8621501144, 7874.4135880662, -373.18116570552
1328, 843.93103238305, 8219.2334715309, 1379.8864672794
1329, 1010.9123094466, 8917.9308126778, 1262.6807009728
1330, 1608.8667247568, 7632.4004815628, -166.89551213336
1331, 1560.2217537653, 7635.1143388282, -426.6313737615
1332, 1472.504300579, 7645.0973454985, -669.35591039171
1333, 1249.590580167, 7971.4929770209, -1027.0489919949
1334, 1330.0901293647, 7715.778051387, -920.4164806036
1335, 1127.8828438246, 7656.7717753024, -1159.3905901835
1336, 1555.2676084257, 9139.4236578843, -444.35224336314
1337, 927.38937532196, 7633.9365745817, -1325.2377886779
1338, 712.69630478074, 7621.4998473779, -1452.022805314
1339, 256.13714598898, 7606.5906852228, -1597.0911096254
1340, 397.08850697639, 7768.8112587821, 1568.0009463094
1341, 200.22159749826, 7937.1325389135, 1605.0599870084
1342, 370.10645518035, 8175.1144436506, 1574.5880292425
1343, 415.54153983887, 8346.8390663281, -1563.2119109923
1344, 209.79251266634, 8209.4908154697, -1603.83707141
1345, -384.47962953187, 9012.4676880721, 1571.140243414
1346, -200.22159749824, 8832.8674610865, 1605.0599870084
1347, -248.42128116188, 7837.3801684248, -1598.3094559771
1348, -297.48804362001, 9183.6783052944, -1589.9078947861
1349, -334.85563549585, 9036.4987179102, -1582.4594634229
1350, -669.75340466074, 8617.2082206382, -1472.3235469642
1351, -444.37407635446, 8610.8626513155, -1555.2613704018
1352, 363.10822691986, 9087.760596696, -1576.216566828
1353, 1579.515594206, 9161.6987003336, 348.4777434212
1354, 126.02665968441, 8464.2954902216, -1612.5828757149
1355, 219.77240568265, 8595.9691839749, -1602.5000279877
1356, -860.88656689715, 9107.8960774412, 1369.3723266285
1357, -909.95592097058, 8557.0912295864, 1337.2682871775
1358, -998.07894236139, 7933.1668014218, 1272.8490385017
1359, -826.83235585803, 8956.5342184499, 1390.1994480312
1360, 754.3743616718, 8439.5541997512, 1430.8129061664
1361, 687.10698400858, 8583.3471707561, 1464.3053788492
1362, 487.32175901381, 7611.7912435188, -1542.3435911598
1363, 833.11717448753, 7671.9858407902, 1386.4422178994
1364, -376.71730856091, 8160.2231058099, 1573.0194911159
1365, -159.08092505502, 8207.3868998069, 1609.6581964143
1366, -146.85774885138, 8560.8942539277, 1610.8193727424
1367, -364.97309224711, 8612.0433871982, 1575.7858014132
1368, 376.71730856092, 8609.7768941901, 1573.0194911159
1369, 159.08092505504, 8562.6131001931, 1609.6581964143
1370, 401.98532816657, 7575.7050236646, 1566.7527073341
1371, 449.97401395453, 9196.7629126558, 1553.6504229606
1372, 390.64504626824, 8784.5774931077, 1569.6186472599
1373, -398.6093656379, 9197.8856706955, 1567.6150112913
1374, -452.07222143897, 7570.9570923351, 1553.0411960419
1375, -403.43370528656, 7988.3142939697, 1566.3803801883
1376, 146.85774885139, 8209.1057460723, 1610.8193727424
1377, 94.98922325869, 8013.6577958841, -1614.7084249067
1378, -1529.4309891966, 8599.2788693785, 526.44762254678
1379, 512.92710936487, 8337.1096916502, 1534.0182627592
1380, 646.77504882699, 8113.6216882492, 1482.5613937422
1381, -458.15993246283, 8466.813280475, 1551.2561768727
1382, -634.4654947519, 8598.0886319512, 1487.8708902217
1383, 150.12284550768, 7637.708184959, 1610.5183579384
1384, -150.12284550766, 9132.291815041, 1610.5183579384
1385, 541.72448489759, 8581.1168664757, 1524.0868848141
1386, -921.94337195755, 8857.5213689998, 1329.0322301974
1387, 925.62071350189, 7981.2917748299, 1326.473725611
1388, 401.34843796025, 8605.1712892805, -1566.9159777559
1389, -252.94320772669, 8373.0087943205, 1597.6000700003
1390, 252.9432077267, 8396.9912056795, 1597.6000700003
1391, -1055.8049531139, 9171.3989548649, 1225.390611593
1392, 1040.6830821505, 7594.5215651751, 1238.2588471421
1393, 1091.6834468197, 8656.3591220798, 1193.5382281016
1394, 1219.3732562292, 8528.1721884724, 1062.7488470909
1395, 1137.770764351, 8339.2453519228, 1149.6886264498
1396, 1000.7930604485, 8467.4322855302, 1270.7161367347
1397, 1185.3868085668, 8482.2887127738, -1100.5291291356
1398, 1201.1247494964, 8316.7421413861, -1083.330783347
1399, 1283.2235684449, 8325.7014124533, -984.70478996883
1400, 1268.8985191373, 8491.247983841, -1003.0966045856
1401, -193.47958947544, 7645.9168794251, 1605.8866393542
1402, -108.18424039967, 7823.7173170862, 1613.8780685446
1403, -85.638850027137, 7582.1995623389, 1615.2313262706
1404, 193.47958947545, 9124.0831205749, 1605.8866393542
1405, 108.18424039968, 8946.2826829138, 1613.8780685446
1406, 85.638850027149, 9187.8004376611, 1615.2313262706
1407, -753.01046962792, 7587.0413133154, 1431.531167188
1408, -849.87913501023, 7692.4070445517, 1376.2309783878
1409, -757.78562687799, 7787.2341434898, 1429.0091650151
1410, -657.4985352553, 7681.8684122535, 1477.8369078275
1411, -834.78431524433, 7904.5329524417, 1385.4390629046
1412, -706.9538180816, 8005.4421783682, 1454.8273262143
1413, -626.35248512895, 7888.1433694164, 1491.3044003062
1414, 783.01950237061, 9175.680122963, 1415.3397856724
1415, 854.73099552296, 9057.6778021458, 1373.2229153682
1416, 726.7721543537, 8961.9539032151, 1445.0288874815
1417, 651.539068859, 9079.9562240323, 1480.4739415979
1418, 1305.1655367498, 8642.4405321432, 955.43140605726
1419, 1256.5053695394, 8806.2231218609, 1018.5776879152
1420, 1365.1760690826, 8863.1164599282, 867.52553299842
1421, 1406.2617725091, 8699.3338702106, 799.20840659966
1422, 1615.0683516758, 8446.0826948929, -88.659288374955
1423, 1616.5252648072, 8518.083788351, 56.145509527539
1424, 1617.3323701072, 8644.2030549235, -23.286360891984
1425, 1608.7679456572, 8572.2019614653, -167.8450089394
1426, 1595.0998130805, 8896.1409348069, -268.25889791478
1427, 1570.5970875201, 8790.0296548198, -386.6924342074
1428, 1596.8832450219, 8674.3049628333, -257.42989680351
1429, 1611.6541937437, 8780.4162428204, -137.39363081476
1430, 1493.8765081057, 8776.8880418632, -620.19289622672
1431, 1542.3251916519, 8668.6912223429, -487.37998850581
1432, 1530.8323670018, 8898.2264743401, -522.35860683988
1433, 1234.8425026783, 7603.7210714359, 1044.7345325867
1434, 1306.9610313845, 7496.9404237765, 952.97382568591
1435, 1151.0075068007, 7491.7806476595, 1136.4365223313
1436, 1377.2827668983, 8760.1202677005, -848.17358483095
1437, 1451.1924430863, 8645.805118031, -714.38557035339
1438, 1428.6670728178, 8891.2031915327, -758.43038246512
1439, 1217.719366901, 8735.3469204605, -1064.6435053454
1440, 1314.3887142769, 8610.0665290882, -942.70279398196
1441, 1289.4059381722, 8885.4006590729, -976.59540066824
1442, 1031.7754187532, 8774.2131936772, -1245.6908666506
1443, 1137.7125013215, 8620.0956442481, -1149.7462825932
1444, 1118.9825064523, 8889.4644698896, -1167.9830479308
1445, 601.66696667958, 8779.6949262331, -1501.4336852511
1446, 748.35647755544, 8647.1336357222, -1433.9696065471
1447, 838.49748013118, 8781.8099240251, -1383.1949341339
1448, 696.42091680665, 8914.371214536, -1459.8986802632
1449, 124.47996163797, 8831.5011950948, -1612.7030071128
1450, 242.78766996847, 8768.6996561056, -1599.1749114188
1451, 309.73802019514, 8871.0088498565, -1587.5668832668
1452, 192.1028764585, 8933.8103888458, -1606.0519091413
1453, -153.28995474398, 8765.6821555866, -1610.2199973217
1454, 8.1883587501652, 8673.4505489508, -1617.4792736789
1455, -37.102319580553, 8923.7328017306, -1617.0744163092
1456, -684.60594485829, 8825.37345595, -1465.476356092
1457, -533.13352124768, 8786.0704143723, -1527.1132566126
1458, -474.14098182146, 8897.7515414191, -1546.4464359807
1459, -627.86703515402, 8937.0545829968, -1490.6673794535
1460, -887.31302875699, 8896.011925845, -1352.3985503534
1461, -1044.492372939, 8786.679799084, -1235.0473403365
1462, -975.4749988989, 8657.4112323724, -1290.2537643902
1463, -812.12057655199, 8766.7433591335, -1398.8446729858
1464, -1115.859501622, 8907.3430185606, -1170.9670459239
1465, -1233.0438722192, 8794.586850923, -1046.8567519879
1466, -1168.8269591559, 8673.9236314463, -1118.1009746665
1467, -1292.0636721674, 8911.9363195838, -973.07641892361
1468, -1384.7798921486, 8797.914804222, -835.87732371497
1469, -1333.612634163, 8680.5653355612, -915.30519063355
1470, -1431.0972418221, 8913.9124035587, -753.83481907456
1471, -1500.2353224997, 8799.7292687546, -604.64884612813
1472, -1462.4865885982, 8683.7316694179, -690.96977370239
1473, -1533.2177772955, 8915.7922910041, -515.31494970081
1474, -1577.5623086618, 8803.6349265772, -357.21619824638
1475, -1553.8068147484, 8687.5719043278, -449.43367969197
1476, -1595.9859222164, 8920.8884398204, -262.93570713595
1477, -1614.3122355907, 8813.9346826383, -101.50002966631
1478, -1605.4397790497, 8696.6811693952, -197.15315327114
1479, -1610.4563097222, 8832.2843992108, 150.78701693422
1480, -1616.5572963554, 8714.7339396095, 55.215555779321
1481, -1617.4896486302, 8931.4851422396, -5.7867585302872
1482, -1572.0190212398, 8847.8319837112, 380.87064321139
1483, -1594.8074135828, 8739.7909980829, 269.99178428506
1484, -1595.9667166571, 8940.3253848391, 263.05225587838
1485, -1371.6000025397, 8852.7536861152, 857.33288927523
1486, -1444.2526340097, 8786.5251395011, 728.31351707625
1487, -1475.1667803815, 8914.9927563863, 663.46757272585
1488, -1408.3145153704, 8981.2213030004, 795.58561814364
1489, -1231.0919248332, 8783.9090857155, 1049.1515250956
1490, -1336.9835615376, 8708.7642349984, 910.37421216677
1491, -1271.2227292951, 8927.8985368323, 1000.1495000866
1492, -1115.8227889161, 8802.7851167363, 1171.0020297742
1493, -1105.4922756251, 8620.6125391712, 1180.7595345934
1494, -1221.8274408069, 8601.7365081503, 1059.9263912609
1495, 1243.710986932, 8230.5497815538, 1034.1611242861
1496, 1304.1349668932, 8363.2348402824, 956.83762369934
1497, 1383.6631381891, 8246.9600905177, 837.72463853979
1498, 1330.3159629331, 8114.2750317891, 920.09004383563
1499, -683.01580778839, 8200.4518273194, 1466.2181475862
1500, -824.29976289566, 8207.3870816734, 1391.7026086381
1501, -820.97351152402, 8333.9954591509, 1393.667371856
1502, -679.51198872587, 8327.0602047969, 1467.8452599569
1503, 603.14341465711, 8876.7416658979, 1500.8411879195
1504, 790.83495130769, 8840.34512184, 1410.9877142591
1505, 669.83312688884, 8755.1328845228, 1472.2872790737
1506, -67.157909979043, 8179.657100807, -1616.1052147454
1507, -131.7279931352, 8316.8538336772, -1612.1271618035
1508, -311.02651931167, 8248.7152281257, -1587.3149511943
1509, -247.30520559755, 8111.5184952555, -1598.4825257989
1510, -1432.4661133162, 7618.3618196979, 751.23038024344
1511, -1340.0086054172, 7503.9598770926, 905.9156624144
1512, -1464.5995376968, 7499.4019426054, 686.47974782822
1513, -1412.1530297388, 8103.756439239, 788.75222383165
1514, -1317.8221028226, 8000.2662289074, 937.89719869095
1515, -1360.1030785617, 7869.3924842711, 875.4575179225
1516, -1447.3802135023, 7972.8826946028, 722.07808965646
1517, 1611.6056372036, 8739.0930634249, 137.96202424385
1518, 1617.3240568331, 8875.3062513218, 23.856764010206
1519, -1259.1283008163, 8146.4581212833, 1015.3335275088
1520, -1144.9361751953, 8040.9515374153, 1142.553020533
1521, -1211.4749092084, 7894.7596450394, 1071.7438100398
1522, -1254.3901478486, 9169.4259477241, 1021.1814760268
1523, -1316.8772220099, 9278.6440323533, 939.22341972053
1524, -1160.5605613162, 9275.7819153709, 1126.678939857
1525, -1517.2382743935, 8077.690017397, 560.61954007627
1526, -1478.7004874823, 7848.9662365647, 655.55405446054
1527, -1541.1486876723, 7953.773559359, 491.08754055256
1528, -1585.4712286774, 8057.5131716836, 320.29241801248
1529, -1561.9577839944, 7834.8583048979, 420.23104480676
1530, -1598.4383052197, 7938.5979172226, 247.59086091044
1531, 1448.5112717369, 8901.950464335, 719.80646402432
1532, 1515.7332997424, 8972.0854110962, 564.67584865315
1533, 1538.6124067925, 8845.4301307777, 498.97706526863
1534, 1478.1231673946, 8775.2951840166, 656.85474194165
1535, -1615.9116167485, 8041.8567563853, 71.665171856374
1536, -1608.1133890407, 7824.8915228181, 174.00453438922
1537, -1617.4980095941, 7928.1503619809, -2.5375104103134
1538, -1607.5023812252, 8032.1864572213, -179.56153361825
1539, -1615.6361931365, 7818.5777884902, -77.626937511769
1540, -1597.4330218598, 7922.6138837306, -253.99604459882
1541, -1559.8217957706, 8027.6296511231, -428.09136342492
1542, -1583.7789110657, 7815.2045849933, -328.55838273187
1543, -1538.0524552477, 7920.2203523858, -500.70040434023
1544, 1175.4383759976, 8802.5033434848, 1111.1484483327
1545, 1180.941627863, 9024.917497724, 1105.2977524542
1546, 1261.5479336866, 9028.6372761001, 1012.3255706595
1547, -1473.5052483004, 8025.7168708412, -667.14955836838
1548, -1512.8871325936, 7813.5699596986, -572.25761159872
1549, -1440.6073455939, 7919.066478154, -735.4976042251
1550, -1350.5408648594, 8024.1244336852, -890.13797938574
1551, -1404.5365795183, 7812.4536091072, -802.2364033096
1552, -1307.3183228109, 7917.5115646384, -952.48362339874
1553, -1220.0386083747, 8471.0407372393, 1061.9849547311
1554, -1301.5912445051, 8473.0297964596, 960.29499750208
1555, -1303.2085060101, 8603.7255673706, 958.09907622486
1556, -1194.1446459967, 8021.3599229115, -1091.0200797591
1557, -1261.5078818083, 7810.7412876627, -1012.3754808051
1558, -1142.0007665446, 7914.5896459358, -1145.4870139864
1559, 1575.8646815526, 8601.3907818697, -364.63235653879
1560, 1593.7692545602, 8499.2877805017, -276.05400417076
1561, -1008.976561079, 8015.6800455179, -1264.2280447741
1562, -1087.9696996743, 7807.0123226755, -1196.9244682062
1563, -949.61202270299, 7908.1027222576, -1309.4056882181
1564, -801.91111586034, 8002.414380763, -1404.7223256785
1565, -889.69505143238, 7799.9961633605, -1350.8326933624
1566, -737.85243731856, 7894.3078218659, -1439.4026645602
1567, -584.01722023081, 7971.6918151337, -1508.3866004688
1568, -669.025582417, 7797.8270113024, -1472.6544129807
1569, -512.10307171987, 7875.2110045702, -1534.2935488149
1570, 1183.4053319295, 8075.3413873502, 1102.6595441753
1571, 1276.3372715572, 7972.1130211856, 993.61432116989
1572, 1220.1706584512, 7831.6843245324, 1061.8332327888
1573, 1121.4223641222, 7934.912690697, 1165.6406527084
1574, 1417.9060806614, 7994.344287862, 778.3627665963
1575, 1371.7770003295, 7852.1822772585, 857.04965513503
1576, 1541.0555295044, 7761.5343436288, 491.37979708577
1577, 1481.6959617257, 7797.2684503236, 648.7552134709
1578, 1488.0327035886, 7920.2511455371, 634.08589564093
1579, 1545.8346645481, 7884.5170388423, 476.13174634913
1580, 1559.4635824657, 8023.5017455226, 429.39443983747
1581, 1595.85624024, 7954.4932444108, 263.72165342856
1582, 1587.1967336206, 7815.5085377305, 311.62923287773
1583, 1602.182722428, 8105.3496082537, 222.07380294198
1584, 1617.3747005941, 8032.6509962712, 20.132756346937
1585, 1616.3019042375, 7881.7946324283, 62.244713496956
1586, 1506.0923317237, 7994.8517192793, -589.90858471732
1587, 1540.6027300525, 7876.7896262007, -492.79760364142
1588, 1578.1035778569, 7982.6848129017, -354.81734393254
1589, 1552.3041523909, 8100.7469059803, -454.59659971231
1590, 1402.3376353322, 8002.7889183747, -806.07407012683
1591, 1460.7648601799, 7887.8805584991, -694.60224104411
1592, 1455.6678273255, 8109.7600791549, -705.2215442607
1593, 1346.7075078648, 8979.2292363385, 895.92697149971
1594, 1433.1182030528, 9018.0632407454, 749.98564391517
1595, 1321.1410830877, 8040.2376805536, -933.21620676976
1596, 1290.9418127491, 7843.635514204, -974.5642544728
1597, 1376.1218761681, 7806.186752025, -850.05578165887
1598, 1065.9093224502, 8046.1085480829, -1216.6115100203
1599, 1171.9306050555, 7940.1027072387, -1114.8474814674
1600, 1224.9299153152, 8049.7046813808, -1056.3394116314
1601, 1124.0001267812, 8155.710522225, -1163.1551766621
1602, 1600.0104644294, 8383.1879459316, -237.21880978633
1603, 1607.6083356776, 8257.8254558086, -178.6104393919
1604, 1617.2291396367, 8320.7202047699, -29.59999847756
1605, 1092.8715198175, 8280.8595106155, -1192.4504564853
1606, 1091.7234700771, 8428.931130301, -1193.501619137
1607, 980.98712360717, 8453.3321279415, -1286.067849422
1608, 982.22430488094, 8305.2605082559, -1285.123210008
1609, 849.82813642052, 8002.833449617, -1376.2624708056
1610, 990.77165653479, 7893.9103032006, -1278.5451789465
1611, 931.10105972532, 8155.0316944993, -1322.6326272168
1612, 632.34478506935, 7974.2159407302, -1488.7734289661
1613, 782.74276620119, 7867.6273736463, -1415.492851257
1614, 703.12354963546, 8109.4220167009, -1456.6823689288
1615, 253.21035208417, 7891.1108002111, -1597.5577509428
1616, 360.78787813562, 7824.8810488119, -1576.7493006152
1617, 430.1207313456, 7947.3064465496, -1559.263417921
1618, 323.56796153227, 8013.5361979487, -1584.8059894731
1619, 325.57410945845, 7979.4562499284, 1584.3950736008
1620, 500.91738128193, 7920.4794621281, 1537.9818032505
1621, 475.31885926169, 7793.9951110474, 1546.0848075155
1622, 299.22931566152, 7852.9718988478, 1589.5810978521
1623, -826.72288725091, 7694.1673598237, -1390.2645495356
1624, -767.10997480649, 7590.1345335373, -1424.0254690673
1625, -606.06528464407, 7693.7941850159, -1499.6636692103
1626, -1031.1227789919, 7699.932207153, -1246.2311441478
1627, -972.80496879208, 7594.1034036162, -1292.2680614692
1628, -1212.705172367, 7703.650091712, -1070.3515380072
1629, -1161.6102300367, 7596.5699761895, -1125.5966966343
1630, -1365.281116049, 7705.3867364894, -867.36020439029
1631, -1323.1568141061, 7598.2955405387, -930.35600459422
1632, -1484.30111732, 7706.2641951871, -642.77246605827
1633, -1452.4519846463, 7599.1973225694, -711.82124321846
1634, -1566.6252994046, 7707.138712323, -402.48157879006
1635, -1545.9640495188, 7599.8329478115, -475.71147515643
1636, -1610.271800562, 7708.8362083816, -152.74481436328
1637, -1601.3353059786, 7600.7703357112, -228.10411619815
1638, -1614.4108595059, 7712.3048000984, 99.919100823251
1639, -1617.3119202016, 7602.5632199898, 24.665821976327
1640, -1579.365625279, 7718.3294322473, 349.15680100345
1641, -1593.7426716306, 7605.7427095276, 276.20743404854
1642, -1506.4152854087, 7727.3014617324, 589.08338788917
1643, -1531.5168166285, 7610.7725890818, 520.34843171093
1644, -1397.6070180827, 7740.0265945303, 814.24865551375
1645, -1256.0412296775, 7760.1355634326, 1019.1499788304
1646, -1300.0231716115, 7630.7696736918, 962.41675134697
1647, -345.77208778783, 8828.753541105, 1580.110095312
1648, -485.93374223455, 8904.8581223829, 1542.7814648089
1649, -434.17157600721, 8998.7721558572, 1558.1403314809
1650, -292.84213917059, 8922.6675745793, 1590.7701692972
1651, -1093.8058929418, 7794.7769277878, 1191.5934367753
1652, -1143.5858262935, 7660.152846181, 1143.9045886351
1653, -490.26773027151, 7767.9959273296, -1541.4096803428
1654, -339.14881338633, 7786.6409456285, -1581.5449194944
1655, -361.56922240058, 7893.8560228691, -1576.5703115981
1656, -1524.9562213688, 9122.5323763055, 539.27244775582
1657, -1545.5908400113, 8997.1752008125, 476.92264076396
1658, -1577.811371181, 9059.2001523722, 356.1144857654
1659, -1562.0543747813, 9184.5573278652, 419.87186167518
1660, -1614.7977680871, 9049.4500044545, 93.458109230037
1661, -1606.5472797687, 9168.3247719877, 187.91510814175
1662, -1609.2315523569, 9039.2940088067, -163.34032233049
1663, -1616.2212340973, 9157.2588710217, -64.30530656945
1664, -1562.5208296504, 9033.7816135703, -418.13264272074
1665, -1585.4665529109, 9152.1871825567, -320.31556253318
1666, -1475.7662778361, 9031.8699524743, -662.13302530662
1667, -1514.3912873117, 9149.8592750405, -568.26514842484
1668, -258.33903119819, 8977.3714960787, -1596.7364200016
1669, -417.7119515711, 9011.3554550362, -1562.6333464747
1670, -316.11054313649, 8863.7675824616, -1586.3103020903
1671, -1351.6921543237, 9030.9645845023, -888.38874933203
1672, -1405.0000897692, 9148.9221334179, -801.42435559978
1673, -1192.161094259, 9028.9558159192, -1093.1871639089
1674, -1259.6815388904, 9147.9840808378, -1014.6470670035
1675, -995.94442447385, 9025.0155666473, -1274.5198913157
1676, -1079.4895853754, 9146.6283640059, -1204.5781357247
1677, -751.3976840947, 9021.0562978848, -1432.3783614454
1678, -867.09668391847, 9150.0599386871, -1365.4484943555
1679, -509.10922059353, 9081.1431474685, -1535.2895660124
1680, -636.82813983569, 9165.1448623564, -1486.8611805792
1681, -316.19377272788, 9110.0885116023, -1586.293714319
1682, -127.49853807045, 9042.6943029923, -1612.4671695231
1683, -186.01135697324, 9175.4113185159, -1606.7688150686
1684, 132.76592909505, 9038.2672719042, -1612.0420149833
1685, 42.385245323587, 9157.2287731658, -1616.9445695443
1686, 319.85276233609, 9013.0800225867, -1585.5599832318
1687, 261.18440524563, 9117.5369056451, -1596.2734591719
1688, 597.74986268167, 9034.2575107629, -1502.9974556412
1689, 565.19611181035, 9264.2151052852, -1515.5393776456
1690, 431.8871635539, 9236.380298348, -1558.7750729202
1691, 465.40437259031, 9006.4227038257, -1549.0981311634
1692, 805.80462840558, 9024.5401689482, -1402.4924779977
1693, 710.71049512726, 9144.426465175, -1452.9958162761
1694, 925.61986119179, 8899.1278900004, -1326.4743203573
1695, 1007.9491992583, 9018.0246310258, -1265.0472962362
1696, 893.20070028345, 9143.4369099735, -1348.517244611
1697, 1192.4987252119, 9011.2907126311, -1092.8188506647
1698, 1088.0059406655, 9139.8508737672, -1196.8915251921
1699, 1350.6018104483, 9011.9735484678, -890.04550423774
1700, 1261.5150303655, 9137.863602026, -1012.3665730169
1701, 1474.8505042482, 9017.3493318407, -664.17033968613
1702, 1405.4861495597, 9138.1196887758, -800.5716291474
1703, 1561.4795526733, 9019.9703818748, -422.00456938659
1704, 1514.810162801, 9139.0932393755, -567.14761806328
1705, -446.5601249355, 8710.0767709958, -1554.6351034302
1706, -286.28288131837, 8611.9913441208, -1591.9636810757
1707, 1609.7603860576, 9013.9989572191, -158.04350502266
1708, 1586.7817152635, 9137.828404287, -313.73561816494
1709, 1611.7935174516, 8999.7841777455, 135.74942762659
1710, 1616.8389802597, 9138.4768836428, -46.238100228705
1711, 1489.6293281542, 9091.6147172289, 630.32587976614
1712, 1547.9567399056, 9173.7911873938, 469.18672336383
1713, 1566.9684882598, 9054.2618812611, 401.14337436976
1714, -1491.7048405647, 9029.130490491, 625.39820805286
1715, -1532.8447347867, 8883.0374667079, 516.42353648587
1716, 1391.6440642609, 9117.144840992, 824.39859801404
1717, 1312.6773606358, 9166.5528807535, 945.08433320748
1718, 1520.290457145, 7661.2654662904, 552.28903294723
1719, 1573.3860109787, 7688.4934892364, 375.18356901196
1720, 1557.2172555925, 7588.2246118981, 437.47076346296
1721, 919.90833731803, 8932.1289235398, 1330.4416187615
1722, 978.98348050549, 9162.3933570649, 1287.5937227625
1723, 1039.8903533223, 9036.8444784589, 1238.9246559284
1724, -604.98065633061, 8116.0922941995, 1500.1015483846
1725, -782.46750776606, 8089.8017114882, 1415.645029409
1726, 1610.8371882714, 7730.0214967874, 146.6622067266
1727, 1603.6391274642, 7603.0064482933, 211.30025760974
1728, 1612.875507897, 7775.5833242046, -122.22457210458
1729, 1617.0598010729, 7623.8101885636, -37.733933721476
1730, 1601.5931213668, 7896.5898774563, -226.2868170944
1731, 1567.2698269043, 7754.7639634472, -399.96442301198
1732, 1589.8572658039, 7633.7574101955, -297.75850008137
1733, 1406.9085745586, 7680.4376984427, -798.06924062603
1734, 1485.6868429743, 7762.1315049168, -639.56301848465
1735, 1108.1573116928, 7782.7421063794, -1178.2587247892
1736, 1234.7813330686, 7686.2749133447, -1044.8068287992
1737, 907.45014416829, 7756.5223717632, -1338.9699346322
1738, 1030.9763804332, 7645.354174942, -1246.3522587892
1739, 693.26775803953, 7738.8232128628, -1461.3986675999
1740, 822.48943435787, 7627.7182109798, -1392.7732695488
1741, 256.54549693729, 7711.6022028447, -1597.0255658571
1742, 372.73597700185, 7609.1909643708, -1573.9676430754
1743, 475.21489937889, 7722.4698103381, -1546.1167644807
1744, 949.62318181277, 8656.8952277019, -1309.3975952948
1745, 1040.1955452934, 8566.7380617753, -1238.6684292222
1746, 887.19876612214, 8543.489293868, -1352.4735115304
1747, 1617.3792734614, 8185.5735232443, 19.76197807515
1748, 1612.8748453639, 8154.9633116225, -122.2333145763
1749, 1612.9028245611, 8002.0407846495, -121.86356519838
1750, 1597.8046583844, 8088.1357200949, -251.64761800029
1751, 1588.0177695376, 8190.997864281, -307.41797870784
1752, 1325.0280725271, 8182.1261521685, -927.68898722312
1753, 1229.3320923585, 8191.5931529957, -1051.2130405857
1754, 720.93519397914, 8511.4506852536, 1447.949825126
1755, 722.18246757922, 8658.8551900171, 1447.3281360912
1756, 860.07328697255, 8677.156480453, 1369.8832764277
1757, 858.89268802048, 8529.7519756895, 1370.6237997587
1758, -256.51421062958, 8586.468820563, 1597.0305913617
1759, -427.04125512098, 8718.3415041609, 1560.1096167977
1760, -173.56356413898, 8696.8808575071, 1608.161042683
1761, 569.77794359298, 7844.6474777525, -1513.8227587782
1762, 494.70172476446, 8076.8749095272, -1539.9923550184
1763, 601.70615706278, 7616.6455454484, -1501.4179799619
1764, 173.563564139, 8073.1191424929, 1608.161042683
1765, 259.11614119058, 8192.1100948614, 1596.6104958237
1766, 409.64220300594, 8098.447202297, 1564.7681986532
1767, 1380.63318749, 8477.5031839532, 842.70887713446
1768, 64.528183077898, 7917.1622363456, -1616.2123510197
1769, -16.546677618291, 8046.1092253836, -1617.4153633065
1770, -188.34489080653, 7957.970411654, -1606.496950544
1771, -107.60133015997, 7829.023422616, -1613.9170374427
1772, 1570.7357192314, 8168.3174708111, 386.12892967313
1773, 1581.1653132701, 8311.2396903361, 340.91421517943
1774, 1607.8935310092, 8248.2718277787, 176.0245520913
1775, -1555.4272848433, 8676.2793633784, 443.79298278023
1776, -1568.7312685718, 8559.0591644987, 394.19342587756
1777, -1602.5743593741, 8622.5707992032, 219.22972580568
1778, 580.42159356021, 8225.3656899497, 1509.7738319792
1779, 549.00835218796, 8067.7008245963, 1521.4782546024
1780, 441.98251720683, 8256.1120676504, 1555.9427060414
1781, 1517.4657514752, 8525.9178118913, -560.00352061382
1782, 1556.7909751824, 8458.617371418, -438.98531819496
1783, -547.23121684531, 8532.4509562131, 1522.1183414275
1784, -562.10468549442, 8711.3641265374, 1516.6886867598
1785, -411.74921944316, 8539.4283338366, 1564.2150844075
1786, 740.09366386889, 7640.0702731421, 1438.2515839383
1787, 598.38400281657, 7713.6668344033, 1502.7450998667
1788, 649.58684126338, 7858.2983822288, 1481.3315583142
1789, 789.00048568333, 7784.7018209675, 1412.0143354766
1790, 1612.5160166023, 8383.4185093043, 126.87925835633
1791, 1522.6306319589, 8252.2665785472, -545.80418523547
1792, 1475.5707180996, 8391.2811097345, -662.56871786029
1793, 1396.4125618982, 8248.7746103422, -816.295416484
1794, 1398.8845758651, 8511.1684158742, -812.05184157591
1795, 1359.4076197336, 8392.349870627, -876.53703481957
1796, 818.38814153924, 8404.9638975977, -1395.1871199907
1797, 763.07698655398, 8254.735083841, -1426.1906473511
1798, 675.64058716154, 8508.6082394518, -1469.6312622491
1799, 1602.8712665821, 9260.6165753449, -217.0482728919
1800, 1547.0495080478, 9262.2118289421, -472.16953485923
1801, -1097.8101720331, 8277.505623234, 1187.9053313209
1802, -1219.6236812081, 8290.4063954813, 1062.4614469412
1803, -1098.2741095633, 8458.139964992, 1187.4764125081
1804, 145.84851666487, 7818.6401986368, -1610.911065263
1805, 23.896029547315, 7713.962705523, -1617.3234771597
1806, 135.32511654589, 7606.9247097309, -1611.8291977849
1807, 1521.2118952813, 7640.1058421633, -549.7459591982
1808, -1611.895923151, 8502.6966878714, 134.52800054011
1809, -1617.2218624282, 8594.8598282778, -29.99496097856
1810, 303.90869626798, 8135.4776657058, -1588.6930963319
1811, 503.8269610996, 8219.5621847204, -1537.0311133055
1812, 313.32614034004, 8278.1649408989, -1586.8626215837
1813, -1613.2095417469, 8477.9190822398, -117.73370127846
1814, -1592.3714651397, 8579.7404233572, -284.00592777036
1815, -1574.8643346959, 8466.0806574764, -368.92895969658
1816, -1527.4902465588, 8573.9121384471, -532.05243789277
1817, -1423.9085700717, 8570.9253068265, -767.32694079929
1818, -1381.6370423489, 8457.3396613532, -841.06202696906
1819, -1283.6928302582, 8566.9796900879, -984.09296692111
1820, 1508.1501277351, 8086.5083306434, 584.62760986161
1821, 1523.7323029997, 8231.3240559319, 542.72103220283
1822, -1497.2234796652, 8461.1057758556, -612.06870687792
1823, -1231.0698641694, 8451.4982140225, -1049.1774108957
1824, -1109.4259041954, 8558.442155381, -1177.0643198654
1825, -1510.8324218756, 8711.484846375, 577.6604911274
1826, -1051.0326901577, 8441.1802441769, -1229.4862887482
1827, -911.74973232524, 8540.1493211684, -1336.0459107399
1828, 567.29319915784, 8364.8752518605, -1514.7556490039
1829, 455.51912373464, 8864.3515310956, -1552.033690972
1830, -191.0363980375, 8483.0370787748, -1606.1791134942
1831, 59.955221991573, 8372.5245184762, -1616.3884500193
1832, 0.35966245666377, 8538.7077635738, -1617.4999600133
1833, 1585.7042005989, 8902.8364005419, 319.13702104749
1834, 1593.5888740192, 8784.2244602585, 277.09339689409
1835, 1551.2691997672, 8726.8181904943, 458.11583672011
1836, 1602.5565171854, 9151.2096584647, 219.36011311684
1837, -1370.3184065489, 8233.9077517861, 859.37984306895
1838, -1336.6615062587, 8377.8560259841, 910.84700564154
1839, -1453.1252554395, 8336.3021737016, 710.44580511387
1840, -1487.2973097343, 8206.1508611546, 635.80890404045
1841, 173.08873733166, 8661.6914163157, 1608.212218275
1842, 289.45685957355, 8772.673612773, 1591.3896369041
1843, 383.68494541351, 8697.1771936489, 1571.3345005641
1844, 268.52473902414, 8586.1949971916, 1595.0550819743
1845, 635.74844949106, 8388.3319457007, 1487.3231521662
1846, 799.55825848442, 8329.393835641, 1406.0628866766
1847, 747.11892645695, 8166.42757989, 1434.6147774681
1848, -173.08873733165, 8108.3085836842, 1608.212218275
1849, -295.94411361647, 7998.7722807657, 1590.1960041504
1850, -390.0896314314, 8074.2686998898, 1569.756773978
1851, -268.52473902412, 8183.8050028084, 1595.0550819743
1852, 276.9200550749, 7606.7066043118, 1593.619005
1853, 175.19348058529, 7787.4203619362, 1607.9842954334
1854, 399.53740504195, 7672.2581412234, 1567.3787391605
1855, 100.30384093841, 7911.0662694567, 1614.3870011534
1856, 75.142551309494, 7636.3540924795, 1615.753646749
1857, -275.20344143116, 9165.0887428683, 1593.9163453031
1858, -175.19348058527, 8982.5796380638, 1607.9842954334
1859, -391.54846494959, 9105.1766793838, 1569.3935292321
1860, 73.504811370168, 8172.0528730362, 1615.8289800302
1861, 201.49181862766, 8884.167549133, 1604.9010240592
1862, 93.699059579498, 8697.8848662192, 1614.7838047968
1863, -100.30384093839, 8858.9337305433, 1614.3870011534
1864, -75.142551309481, 9133.6459075205, 1615.753646749
1865, -73.504811370154, 8597.9471269638, 1615.8289800302
1866, 689.42582554376, 7496.5773527469, 1463.2150494966
1867, 892.77903283056, 7528.4929203951, 1348.7964444415
1868, -201.49181862765, 7885.832450867, 1604.9010240592
1869, -93.699059579485, 8072.1151337808, 1614.7838047968
1870, 524.56534043858, 7591.9298645793, 1530.0775972514
1871, 451.1339909402, 7480.3525118323, 1553.3139966595
1872, 522.66960562532, 8985.0714524858, 1530.7262111023
1873, 433.60227077966, 9094.6625227995, 1558.2988547691
1874, 565.153123892, 9189.547294346, 1515.5554086061
1875, 311.71150415104, 9218.681893989, 1587.1805783149
1876, 317.1724958077, 9000.0637493854, 1586.0983128114
1877, 705.87756268259, 9283.6658380181, 1455.3498261591
1878, 474.96624521363, 9290.8814563279, 1546.1931690147
1879, -562.54645233755, 9051.3126755537, 1516.524889002
1880, -521.00975213801, 9157.7171990803, 1531.2919669929
1881, -449.46068790801, 9291.4428353478, 1553.7990024534
1882, -687.60242595748, 9251.2743637325, 1464.072796625
1883, -533.4751908366, 7778.9530099516, 1526.9939327849
1884, -438.28886341819, 7673.0810585724, 1556.9871939755
1885, -565.10768649678, 7575.9964608743, 1515.5723515102
1886, -312.78338799251, 7550.1781085065, 1586.9696916438
1887, -320.87260943683, 7768.819829491, 1585.3539095461
1888, -597.51643177308, 8863.9554396488, 1503.0902713281
1889, -672.00258816918, 9010.4099928196, 1471.298328516
1890, -704.85083627381, 7483.0179147067, 1455.8473644596
1891, -476.01040961798, 7477.9785461676, 1545.8720321991
1892, 486.45411901217, 8780.2400264376, 1542.6174639541
1893, 403.92828063881, 8888.5698130254, 1566.2529151131
1894, -557.15922788143, 7588.4198129331, -1518.5123788717
1895, -440.06992956559, 7662.6215552468, -1556.4847275486
1896, -509.31778041002, 7990.9500188544, 1535.2203908749
1897, -413.96175487073, 7881.7596593897, 1563.6310036272
1898, 201.68148194426, 7511.3540924795, 1604.8772008602
1899, 212.10444328352, 9312.8004376611, 1603.5329604157
1900, -201.68148194425, 9258.6459075205, 1604.8772008602
1901, -212.10444328351, 7457.1995623389, 1603.5329604157
1902, 695.8238586036, 8005.519744697, 1460.1833473225
1903, -1517.0958098395, 8461.4743186788, 561.00494985997
1904, -1546.7449960924, 8308.7396467957, 473.16610937702
1905, -1588.7386850369, 8406.3244926155, 303.67028281877
1906, -836.11797205604, 8486.3063972602, 1384.6346040761
1907, -851.71961513162, 8641.8382506141, 1375.0927049476
1908, -714.24110741321, 8662.3369517965, 1451.2635496288
1909, -697.78704173368, 8506.8050984426, 1459.2462075978
1910, -748.07679978734, 8814.928264908, 1434.1155293839
1911, -1601.9570981564, 8280.0593412198, 223.69556469997
1912, -1568.4762770964, 8180.2788030381, 395.20680432631
1913, -1610.7712180554, 8157.2937098654, 147.38498256077
1914, -752.76515225705, 9112.7224024531, 1431.660181589
1915, -765.89843819392, 8929.9027383121, 1424.6774485378
1916, -843.92371266777, 9032.2151479456, 1379.8909439507
1917, -1617.2613452002, 8257.998195306, -27.784731800037
1918, -1605.2446193743, 8359.48574107, -198.7359101165
1919, -1616.611485989, 8376.4315364758, 53.605534866489
1920, 917.98977056216, 9277.0142849449, 1331.7661323007
1921, -1593.2613758588, 8245.9056320226, -278.9703177699
1922, -1614.177791292, 8142.561241826, -103.61615752269
1923, -1578.3464663589, 8135.5308474178, -353.73532779778
1924, -890.66505956608, 7489.0233986087, 1350.1933201094
1925, -1530.0118053244, 8241.1228190391, -524.75720630398
1926, -1464.6704504034, 8349.7280464657, -686.3284357472
1927, -1554.3860975847, 8352.500548429, -447.42609404849
1928, -1428.6278262384, 8238.9021304675, -758.50430723717
1929, -1503.4415077853, 8133.2216227443, -596.63211669192
1930, -1391.1109728586, 8131.3973785644, -825.29783181119
1931, -1291.5385658008, 8235.7092995096, -973.77327086403
1932, -1177.8393458997, 8340.6937681772, -1108.6030512544
1933, -1337.9825667011, 8346.513745355, -908.90533126613
1934, 527.34917690944, 8459.1132790629, 1529.1203666203
1935, 615.14238340191, 8582.2320186159, 1495.9632676448
1936, -1122.6756093632, 8230.480764444, -1164.4336503815
1937, -1244.0608107626, 8128.4363546305, -1033.7402715986
1938, -1066.7560865368, 8123.404332725, -1215.869113777
1939, -108.42377011537, 7603.8990518296, -1613.8619941228
1940, -241.51033911078, 7492.7696847101, -1599.3683147113
1941, 6.8735200771034, 7496.1293671195, -1617.4853955204
1942, 254.58506679558, 7495.7953426114, -1597.3392544368
1943, -927.43289670956, 8221.2602101258, -1325.2073317413
1944, -781.33447126704, 8316.811141361, -1416.2706994109
1945, -848.60916751638, 8426.518171679, -1377.0144265065
1946, -990.15432274759, 8330.9672404437, -1279.0233254887
1947, -711.93587674397, 8203.7168814572, -1452.3957991556
1948, -864.71272508824, 8113.5359229187, -1366.9594555328
1949, -645.4213592611, 8092.5953393015, -1483.1512124559
1950, -697.55559667675, 7486.2491191024, -1459.3568581896
1951, -475.64791585011, 7487.1706938306, -1545.983606041
1952, -910.65660014076, 7488.8854144349, -1336.7912352421
1953, -1107.4262965857, 7490.2179891814, -1178.9458204814
1954, -1277.9677045191, 7491.3519870081, -991.51641247449
1955, -1417.3431168314, 7491.9435535306, -779.3874127613
1956, -553.17139004467, 8294.6076952389, -1519.969625761
1957, -626.02328056677, 8407.7019551427, -1491.4426245043
1958, -1521.850103102, 7492.2537690388, -547.97674557264
1959, -1588.8433522749, 7492.5791787727, -303.12217327635
1960, -1616.6966744936, 7493.1911569385, -50.971685093499
1961, -1604.8176181471, 7494.3720630512, 202.15504565689
1962, -1553.6484173137, 7496.3706464764, 449.98093890572
1963, -483.06288856865, 8168.3076306384, -1543.6827704188
1964, -419.3116115486, 8047.4041064706, -1562.2048593
1965, -1183.8868854431, 7511.8097965993, 1102.1425009842
1966, -1005.6817428262, 7533.3430495818, 1266.8506155605
1967, 1471.2821864185, 8268.5005695774, 672.03792893519
1968, 1483.9389003678, 8421.7784095032, 643.60825816264
1969, 1533.8914439165, 8384.6018958577, 513.30623245744
1970, 1553.5867830565, 8525.4454760944, 450.19368888531
1971, 1516.7739849795, 8620.3837201356, 561.87447752094
1972, 1580.4526148966, 8631.8799464531, 344.20311164553
1973, -971.30931042475, 8469.033578818, 1293.3926215509
1974, -979.1754751989, 8631.5061529971, 1287.4477227325
1975, -1592.7949118976, 9280.5080973501, 281.62141011136
1976, -1533.7488668435, 9289.0492305151, 513.73209307594
1977, -1617.1772195239, 9272.8166746375, 32.312391632522
1978, -1602.0592552926, 9269.4421963842, -222.96276041345
1979, -1546.8332942432, 9267.7449861725, -472.87737292103
1980, -1452.937970031, 9267.114288868, -710.82874536843
1981, -1322.8489605838, 9266.8078445499, -930.79368147964
1982, -1159.2206277538, 9266.1762362878, -1128.0575278726
1983, -964.04713049399, 9265.4521277181, -1298.8146057796
1984, -742.6668466024, 9269.607810969, -1436.9245648111
1985, -509.32156069128, 9280.5370513874, -1535.2191367407
1986, -36.825011210774, 9276.0721658687, -1617.0807551107
1987, -275.28716495345, 9284.3391526472, -1593.9018874485
1988, 205.69793526061, 9266.1566072971, -1604.3673548878
1989, 762.17701297578, 9265.2113598899, -1426.6718091037
1990, 971.31838258612, 9263.2255500836, -1293.3858085082
1991, 1160.8917033407, 9261.6253236836, -1126.3377393636
1992, 1323.1528427036, 9261.2382783424, -930.3616527165
1993, 1453.1371338047, 9261.8814104334, -710.42150893526
1994, 1616.8900377048, 9262.8603082979, 44.416843326473
1995, 1589.2674093782, 9273.3493501668, 300.89092955485
1996, 1523.3858920805, 9285.441837227, 543.692628063
1997, 1106.593477454, 9270.37907212, 1179.7275641674
1998, 1266.9101752225, 9261.298400505, 1005.6067113528
1999, 1148.270957417, 9146.6774726251, 1139.2015003293
2000, -558.60512137597, 8614.0354359769, -1517.9810830088
2001, -705.33760405907, 8517.7678330474, -1455.6115945884
2002, -476.14852391273, 8503.9695580722, -1545.8294967996
2003, -772.28965863701, 8631.3989825368, -1421.2230413142
2004, -642.94404295675, 8690.0290793533, -1484.2268046449
2005, 1071.1180582085, 8184.0369577193, 1212.028199086
2006, 1591.0196353679, 7487.8965005111, 291.48373860953
2007, 1531.1148484823, 7485.3281113869, 521.5300286245
2008, 493.58244535984, 7498.3956217594, -1540.3514597755
2009, 1616.8499463107, 7500.1099477822, 45.853038231416
2010, 723.53319422892, 7503.249923689, -1446.6533678974
2011, 939.10292350012, 7509.4682872908, -1316.9631540303
2012, 1603.8046950766, 7508.7002407814, -210.03987728591
2013, 1135.8409694482, 7520.8858876512, -1151.5952162643
2014, 1549.7101343719, 7510.0571694141, -463.36243851348
2015, 1319.4246902912, 7550.3890256935, -935.64135043824
2016, 1481.9735118766, 7593.8342713375, 648.12094557742
2017, 1437.3054726328, 7729.8372553707, 741.92939579172
2018, 1457.2158493376, 7515.0486727492, -702.01724938878
2019, 1567.00490312, 8342.5175368479, -401.00110174139
2020, -906.32437681004, 9246.4480387206, 1339.7322023449
2021, 1437.1883695162, 7493.5061599506, 742.1562103273
2022, -528.18285747617, 8352.7060625674, 1528.8326000803
2023, -1098.6040084597, 8961.8689858186, 1187.1712103131
2024, -966.11299687538, 8940.8050917861, 1297.2786621495
2025, -984.95377164519, 8781.7212227038, 1283.032469473
2026, 102.01655174443, 8245.1221811002, -1614.2796762551
2027, 152.48778055989, 8111.5743056769, -1610.2961612014
2028, 172.42631124266, 7989.6328379199, -1608.2833758984
2029, -1489.7302823154, 9191.6598605634, 630.08724471496
2030, -1451.354973521, 9098.2579747488, 714.05531356887
2031, -1442.3834969188, 9287.6106300483, 732.00826348897
2032, 1015.1137478768, 8017.225435418, 1259.3054946563
2033, 885.17883819274, 8100.2626231804, 1353.7963932644
2034, 945.59696207081, 8267.0741454817, 1312.3081327655
2035, -409.16249156561, 9179.8762040346, -1564.8937042163
2036, -857.89323980046, 8792.0533203208, 1371.2495903754
2037, -383.31101802355, 8375.0152927262, -1571.4257581769
2038, 180.75479835031, 8664.8751224752, -1607.3686424941
2039, 311.06965740754, 8600.5702366277, -1587.3064978889
2040, 372.22908053629, 8704.3947702581, -1574.087596547
2041, -79.637043202012, 8296.1934499034, 1615.5383596034
2042, 836.66036127294, 7939.3547879874, 1384.3069348503
2043, -315.07005991916, 8266.6159500652, 1586.5172886995
2044, -126.86239942262, 8379.0043971602, 1612.5173430425
2045, 79.637043202026, 8473.8065500966, 1615.5383596034
2046, 1442.82359877, 8160.6014729683, 731.14041936718
2047, 1416.4919779339, 8354.8591871268, 780.93324071205
2048, 315.07005991917, 8503.3840499348, 1586.5172886995
2049, 126.86239942263, 8390.9956028398, 1612.5173430425
2050, -200.00972154231, 8466.9515241241, 1605.0864030601
2051, -356.30584910215, 8419.9110373977, 1577.7681679815
2052, 271.90697255335, 8405.5672782748, -1594.4819999852
2053, 200.00972154232, 8303.0484758759, 1605.0864030601
2054, 384.25251749793, 8367.0504486649, 1571.1958034556
2055, 1454.3768538855, 9190.6963174755, 707.88008651334
2056, 1417.2636133106, 9290.2544802485, 779.53197521709
2057, -957.15150257482, 8316.7226407086, 1303.9046173393
2058, -921.56944699222, 8163.3873918089, 1329.2915422775
2059, -1065.3111537025, 8124.1703743342, 1217.1353235352
2060, 1070.1092066348, 7785.9082397427, 1212.9190145576
2061, 959.86007521607, 7868.2209844637, 1301.9120116222
2062, 1593.7762186853, 8452.0832705728, 276.01379449825
2063, 1604.3340409444, 8586.7485496195, 205.95760502375
2064, -341.49748539954, 7594.9403785407, -1581.0394420968
2065, -239.20230718239, 7718.9597689225, -1599.7151328404
2066, -1372.6804894995, 8547.2065350581, 855.60184884518
2067, -1403.7777356844, 8452.0327645825, 803.5635126091
2068, 914.93646947776, 7713.5680174439, 1333.8656254734
2069, -1402.7058318525, 8652.2452026858, 805.4331749357
2070, -967.33732272111, 7736.7266955248, 1296.3659799882
2071, -874.92256439276, 8907.0277937249, 1360.4472633353
2072, -936.51976052467, 9065.9924460068, 1318.8013452172
2073, 1454.0771434348, 8544.4224063296, 708.49552640816
2074, 172.97301626773, 8530.1323370982, -1608.2246688953
2075, 408.44918776368, 8476.0051778043, -1565.0800334217
2076, 520.86396573573, 8619.7381653956, -1531.3415618986
2077, 459.87219092123, 8595.4468803329, 1550.7494375357
2078, 561.11832931786, 8678.5097131215, 1517.0538785763
2079, -1179.6530904696, 9033.1064939033, 1106.672867719
2080, -1117.9692964181, 9168.9813928033, 1168.9529084896
2081, -1032.6784085647, 9097.7438847186, 1244.9423900263
2082, -1004.1357689786, 9278.1994774324, 1268.0763413366
2083, 1150.4957613219, 7707.6137903534, 1136.9545959185
2084, 1100.807432131, 7596.541430247, 1185.1283674628
2085, 1017.2449474186, 7674.8358796363, 1257.5845764605
2086, 996.33355298613, 7489.7607825875, 1274.2157200388
2087, -979.98555672096, 8003.7361158359, 1286.8312082858
2088, -1064.5029373595, 7920.5172789169, 1217.8422501921
2089, -881.55356631512, 8045.8020216236, 1356.1598577296
2090, -935.52371490354, 7862.4670466539, 1319.5081010941
2091, 984.97834262935, 8768.9402821528, 1283.0136065339
2092, 1075.5094424288, 8915.0845035578, 1208.1331421853
2093, -1387.8477404484, 9181.2546624015, 830.77367515609
2094, -1338.2604735772, 9064.2179906531, 908.49609512689
2095, 1373.0724301677, 7605.4465837271, 854.97271974809
2096, 1298.509529503, 7727.7916056149, 964.45800934512
2097, -1477.3439066872, 8577.2049095598, 658.60552030353
2098, -488.16390437866, 8199.4109752348, 1542.0772524299
2099, 1005.1484502175, 1261.2924914951, -1267.2737837679
2100, 1182.477175751, 1207.1550391738, -1103.6548277554
2101, 1094.8888176065, 1370.761800919, -1190.5984743314
2102, 1044.7064048557, 1113.2661882124, -1234.8662995051
2103, 1568.2461923663, 3613.4068221079, -396.11883334257
2104, 1552.5225575888, 3404.1171231929, -453.85014947428
2105, 273.27682003014, 6455.1836159626, 1594.2477943012
2106, 469.50107181215, 6405.6211646625, 1547.8614258283
2107, 1613.8350573838, 6986.8348790861, 108.82397511145
2108, 1587.2641118781, 7187.1142769965, 311.28586402809
2109, 1609.6605553191, 7188.0594940327, 159.05705469998
2110, 1586.1746416017, 7020.4637587681, 316.79055595092
2111, -65.64069096335, -457.21968993203, 1616.1675500052
2112, 148.58048318535, -458.97184504222, 1610.6613827917
2113, 80.181180891442, -661.3182309122, 1615.5114447849
2114, -910.85604865935, -677.4413986658, 1336.6553439914
2115, -715.80988443629, -687.05121718305, 1450.4904202866
2116, -682.05896770088, -505.83141811859, 1466.6634973909
2117, 481.12466627398, 6996.8948118288, -1544.2879606805
2118, 600.95212999817, 7190.5167857834, -1501.7199430822
2119, 389.81811115359, 7228.8184572588, -1569.8242227131
2120, -454.46851297393, 5461.8195988204, 1552.3416572119
2121, -660.62104777737, 5344.8686564739, 1476.4437277572
2122, -580.82941889607, 5516.8836865865, 1509.6169832593
2123, -736.26257485275, 5582.5728753004, 1440.2165361053
2124, -345.68317287509, -614.4060817647, 1580.1295497493
2125, -508.4039136671, -543.61602690427, 1535.523269302
2126, -284.44142857229, -464.3073341095, 1592.2937303499
2127, -577.89298968485, -686.46201735817, 1510.7435065136
2128, -209.64619374665, 4631.952343377, -1603.8562041054
2129, -445.88636521772, 4410.2265339442, -1554.8284790654
2130, -159.67600102326, 4394.9763860852, -1609.5992745703
2131, -462.14861391795, 4635.2026147574, -1550.0725494807
2132, 1597.9460662373, 3548.7915265451, 250.74811942814
2133, 1559.4315471001, 3505.572265266, 429.51076809425
2134, 1587.4689346226, 3738.4106698705, 310.23963577903
2135, 1539.2598807786, 3676.9949197605, 496.97612560908
2136, -126.84382532226, 3404.505016725, -1612.5188042245
2137, -186.82552170107, 3649.3053240497, -1606.6743523319
2138, -417.41399661161, 3422.2638194403, -1562.7129632254
2139, 489.83523609862, 1744.2351555483, -1541.5471745867
2140, 848.11391173592, 1692.2439088418, -1377.3195136641
2141, 726.71568100375, 1923.9544263942, -1445.05728917
2142, 676.06112529277, 1548.7207132043, -1469.4378533534
2143, -1581.1526262117, 6550.0023524896, 340.97305263565
2144, -1540.6243801221, 6703.6558129372, 492.72991524092
2145, -1525.5843408217, 6394.4010961106, 537.49294789752
2146, -225.82063763551, 6548.8182385319, -1601.6589180028
2147, -201.86404580653, 6239.6581753056, -1604.8542479025
2148, -1474.4830963277, 6561.2733763399, 664.98560032811
2149, -1514.2954366084, 4756.85370042, 568.5205191257
2150, -1538.37738344, 4516.8124240446, 499.70118683084
2151, -1589.9915021505, 4748.3476758063, 297.04086097558
2152, -723.727681339, -357.16149898293, -1446.5560802346
2153, -426.96651528619, -175.75614373176, -1560.1300730466
2154, -623.3524912434, -86.315801985715, -1492.560860287
2155, -1591.8981143026, 4539.125858243, 286.64724607041
2156, 1617.1299430253, 525.58440798637, -34.597649789645
2157, 1597.9833617084, 478.03088202109, 250.51033053157
2158, 1611.816925234, 627.26852254753, 135.47121291698
2159, 1299.5212944328, 2275.6730915149, -963.09431278344
2160, 1370.0370394879, 2446.6621834138, -859.82833195422
2161, 1243.9920597052, 2383.6293326764, -1033.8230048662
2162, 1617.4539989227, -655.94748973185, -12.1988265353
2163, 1605.9303772038, -440.29473841106, 193.11621779153
2164, 1372.0661013239, 3460.5121374434, -856.5867519393
2165, 1357.8003342518, 3319.0140492388, -879.02474499057
2166, 1474.971142579, 3437.5969380262, -663.90238631831
2167, 1448.2119137524, 3219.610198387, -720.40856662423
2168, -669.17910731992, 1739.3306475609, -1472.5846571001
2169, -493.90977047132, 1637.8561265485, -1540.2465350174
2170, -434.82163467481, 1890.6533103636, -1557.9590482483
2171, -282.58373321142, 1723.065602177, -1592.6244641234
2172, 1603.2842737405, -647.72004285918, 213.97613786651
2173, 649.14973348032, 314.90767393187, 1481.5231599683
2174, 865.20298539129, 208.94306061241, 1366.6492030035
2175, 651.45101483328, 87.907668435306, 1480.5126900073
2176, 351.17563612389, 6174.8689423487, 1578.9179594244
2177, 169.34212585369, 6268.4984843797, 1608.611045098
2178, 572.21946223817, 2855.5439975377, -1512.9015622425
2179, 691.71882768103, 3053.183906393, -1462.1324541339
2180, 397.55322711465, 2970.5309612123, -1567.8831849378
2181, 736.42381356479, 2720.9261420706, -1440.1340968169
2182, -475.07452030084, -651.60795078996, -1546.1599044604
2183, -710.77644556708, -637.09917601036, -1452.9635557807
2184, -1615.8257802348, 4536.5687637734, 73.575117590835
2185, -1613.7761825753, 4673.6635791015, -109.69358482975
2186, -1616.6711951465, 4757.2015199036, 51.773514305348
2187, -1613.9518595117, 4902.5480298516, -107.0777529594
2188, -1309.5521854708, 27.275458979612, -949.40998705973
2189, -1440.016706951, -113.82445133971, -736.6533334628
2190, -1342.7366089682, -157.34688918002, -901.86731226741
2191, -1615.5594357527, 4345.3496096157, 79.208330057213
2192, -1594.3249452892, 4335.6669918369, 272.82635288501
2193, -416.99942745215, 6090.470061786, -1562.8236392839
2194, -376.8888130346, 6321.4938777534, -1572.9784081828
2195, -609.39500988028, 6154.1809716629, -1498.3137094524
2196, -581.1214272601, 6432.6213984993, -1509.5045997874
2197, -1235.0498014121, -31.347712521785, -1044.489462863
2198, -1245.8046080968, 179.23908238235, -1031.6380801641
2199, -1160.8199083528, 42.083997903816, -1126.4117321707
2200, -1403.5362800642, 102.75666930131, -803.98517433075
2201, 467.34760541368, 275.6791275425, 1548.5129853231
2202, 1430.5598590498, 2914.0290134364, -754.85411814164
2203, 1273.1464870947, 2916.781100591, -997.69949002612
2204, 1356.9597041472, 2761.8123159887, -880.32187938321
2205, 465.89642029934, 128.86323932899, 1548.9502172608
2206, -206.57804715927, 5983.2507985695, -1604.2542692578
2207, 341.46137774703, 6624.5922654294, -1581.0472407576
2208, 410.09483633438, 6846.951673624, -1564.6496333722
2209, 191.13418381367, 6816.5594105399, -1606.1674799901
2210, 1440.3227845731, -575.08376298143, -736.054703293
2211, 1246.321718539, -443.00349489369, -1031.0132995738
2212, 1283.7126233813, -640.31279724463, -984.06714738965
2213, 709.18296886137, -644.33385914052, -1453.741987657
2214, 712.83432042163, -367.67670544518, -1451.9550549618
2215, 446.44571238076, -432.37762909185, -1554.667963231
2216, 939.70284154021, -453.83535775861, -1316.535156994
2217, -1227.8080226086, 6534.4987272408, 1052.9927395847
2218, -1212.5112273967, 6190.3721585621, 1070.5712369745
2219, -1303.186691928, 6316.3500284416, 958.1287470804
2220, -1614.9352695343, 2712.6497848346, -91.051223023307
2221, -1617.018205926, 2515.2036695367, 39.476216939189
2222, -1607.8346165771, 2350.9816318079, -176.56187509328
2223, -1602.7420172043, 2646.4953414724, 218.00063368715
2224, 483.96580470733, 3699.7094028049, 1543.3999319276
2225, 736.08575253333, 3793.0125863838, 1440.3069169165
2226, 669.42790993554, 3516.8002845901, 1472.4715696404
2227, -422.69937561052, 6592.5340212948, -1561.2916088478
2228, 1250.9517529389, 1523.4152596291, 1025.3906386441
2229, 1347.9456416812, 1636.4939266314, 894.06308338549
2230, 1366.865065949, 1905.2838478499, 864.86192047533
2231, -1499.4305522102, 3988.332447281, -606.64179636625
2232, -1574.4310853419, 4164.1439517221, -370.77352590094
2233, -1565.3257921645, 3960.8904658842, -407.50633661893
2234, 675.4446351313, 3920.4004580016, 1469.7213323866
2235, -1438.404377837, 7095.7549668677, 739.79665842667
2236, -1557.5451429339, 6981.8236419264, 436.30193412689
2237, -1541.3502493843, 7164.8283739382, 490.45454297306
2238, -1496.2637669195, 6876.4964934987, 614.41109186275
2239, -660.54280127981, -280.87528215361, 1476.4787359381
2240, -840.22994362458, -351.96255021124, 1382.1432240678
2241, -796.45780027774, -128.02587316724, 1407.8214454883
2242, -416.25379532529, 4598.5529729431, 1563.0224015916
2243, -477.92401452118, 4801.3247395077, 1545.2814909731
2244, -228.46834331231, 4713.3080099685, 1601.2833809492
2245, 1617.4900836482, -437.91178228868, -5.6638590839588
2246, -1160.9139539512, 343.14620613425, -1126.3148056922
2247, -1280.8925330527, 461.50258603174, -987.7350701326
2248, -1347.1770247344, 289.97912549237, -895.22081858491
2249, 1563.9889939553, 2040.7588104854, 412.60717006235
2250, 1500.0552770179, 2081.0620833878, 605.09537751563
2251, 1542.6360394916, 2268.2378392067, 486.39520933272
2252, 1478.1802693348, 2216.7402433348, 656.72623013642
2253, 1602.0292933623, -430.97245951703, -223.17794068628
2254, 1469.9320216134, 4768.4589137926, 674.98600121455
2255, 1372.8917177681, 4947.9195509663, 855.2628726209
2256, 1449.3113901631, 5064.9674841706, 718.19408542792
2257, 1363.2817456885, 4643.7160747301, 870.49935776688
2258, -344.79217657867, 2294.5022451063, -1580.3242088161
2259, -230.78763334145, 2085.7268613963, -1600.9507544883
2260, -164.6485443042, 2340.0897974244, -1609.0982278464
2261, 881.87645759878, 5714.5446644409, -1355.9499118821
2262, 772.64874916749, 5894.061773464, -1421.0278534955
2263, 650.15334937935, 5641.6569364704, -1481.0830065499
2264, 1027.4168956365, 5965.1324872411, -1249.2881063072
2265, -742.6572352533, 5135.004481084, 1436.9295323452
2266, -811.35503031396, 5424.5175549003, 1399.288842514
2267, -1586.9482353554, 190.78166351399, -312.89223113158
2268, -1530.7890957472, -69.311135419571, -522.48540107967
2269, -1099.554380675, 6360.8148702304, 1186.2910325626
2270, -982.82225788226, 6208.0884261636, 1284.6659719208
2271, -310.4009433651, 4893.0811659069, 1587.4374017132
2272, 600.82913199421, 927.96739169196, 1501.7691580756
2273, 638.532643069, 805.5653240034, 1486.1299787486
2274, 429.68412216445, 882.46782697611, 1559.3837902068
2275, -608.20986692478, 7121.7151880329, -1498.795185399
2276, -688.08934733115, 6924.5181106809, -1463.8440149447
2277, -404.38636830518, 7053.4296015839, -1566.1347052948
2278, -790.00277732951, 1801.2008275041, -1411.453811434
2279, -730.75396091374, 1540.1789884014, -1443.0193687574
2280, 704.15777899331, 6908.8431413136, -1456.1827056668
2281, -916.62459450994, 1677.1493841711, -1332.7061201703
2282, -1349.9009267055, 6110.4566652974, -891.10815172995
2283, -1468.3633789613, 6080.1549776454, -678.3916548169
2284, -1342.1843382805, 5891.0434141832, -902.68901182773
2285, -1356.0403902072, 6336.3906853398, -881.73732490277
2286, -1073.7208835017, 4127.3276233784, 1209.7229907431
2287, -1164.0194373976, 4176.2637665276, 1123.1050704901
2288, -1034.531874899, 4287.8689822349, 1243.4026097037
2289, -1158.3340018438, 4304.3435788671, 1128.9679314191
2290, 833.610077597, 1315.2364695951, -1386.1459117022
2291, 876.14229130799, 1047.9206003144, -1359.6620666113
2292, 591.59906394918, 1213.7941641108, -1505.4291074423
2293, 997.59365331273, 4283.6552353259, -1273.2294187892
2294, 1068.5114232133, 3986.8719175941, -1214.3268046382
2295, 1192.1534869989, 4179.4301664188, -1093.1954598498
2296, -467.24747680253, 3869.9632970637, -1548.5432010188
2297, -514.29376225859, 4149.6174465229, -1533.5606202892
2298, -682.16544016144, 4047.104376405, -1466.6139786083
2299, 414.29850308586, 4922.7609728901, -1563.5418127894
2300, 264.12282465124, 5155.2376695181, -1595.7898932811
2301, 206.54682703803, 4900.6731862282, -1604.2582891294
2302, 535.67822482136, 6900.0588485449, 1526.2224901541
2303, 349.35225931463, 6698.0782963228, 1579.3224018267
2304, 403.0645384699, 6992.0158646449, 1566.4754156475
2305, 322.8745763717, 4951.6901774331, 1584.947399106
2306, 416.08492263327, 4807.0850785606, 1563.0673648814
2307, 212.86997155809, 4746.9869267045, 1603.4315155967
2308, 245.93488564137, 4622.1040264543, 1598.6939300643
2309, 1083.3547978952, -315.50904849563, 1201.1030896128
2310, 1031.0011780386, -500.53254989174, 1246.331745918
2311, 879.48796031214, -291.15848219106, 1357.5003416817
2312, 831.006560718, -481.8918198558, 1387.7083072619
2313, -1115.1288519701, 841.75157530121, 1171.6628753629
2314, -1032.6052400355, 637.09130812452, 1245.0030796151
2315, -1273.1861029242, 710.32383543993, 997.64893490676
2316, -477.51899982117, 6798.2568166873, -1545.4066956014
2317, -954.17674486195, 1230.0775862951, -1306.0830714639
2318, -1058.2041609569, 1159.585007776, -1223.3193384123
2319, -843.87734601602, 1138.5811532461, -1379.9193001335
2320, -1160.2401394563, 486.59264973253, 1127.0089036003
2321, 1119.2996579757, -662.18184273393, -1167.6791193027
2322, -447.17737803136, 7180.9364037479, 1554.457668313
2323, 201.7321822279, 6923.3012868729, 1604.8708286506
2324, 138.23227962437, 6645.1674210208, 1611.5824790776
2325, 900.8147496026, 4082.7512011434, -1343.4429786554
2326, -1421.3028542706, 3936.8829164548, -772.14276299285
2327, -1380.7651111579, 4088.1691128474, -842.4927048996
2328, -1316.8685135202, 4004.2433398896, -939.23562970062
2329, 64.523854334947, 3144.3933882621, 1616.2125238414
2330, 235.06042897034, 3195.3297295524, 1600.3289801576
2331, 169.80572018397, 2932.76908746, 1608.5621739283
2332, -467.40561756798, 2435.6945166206, -1548.49547583
2333, -243.48073659012, 2561.2852490732, -1599.0695359832
2334, 351.06987390222, 3036.294826758, 1578.9414788517
2335, -566.09929946744, 2167.576664228, -1515.2022416636
2336, 1598.9561991043, -649.03108407842, -244.2239205029
2337, 767.92404636778, 2250.9114076666, 1423.5866355829
2338, 924.43369669159, 2041.4966005298, 1327.3012432832
2339, 750.3209054821, 2065.6113711961, 1432.9427025518
2340, -1171.9445474947, 5710.7695124681, 1114.8328249552
2341, -959.15417442398, 5883.7952743844, 1302.4321555018
2342, -1022.1701632349, 5673.1307692193, 1253.5846231477
2343, -876.38653180674, 5633.6642523342, 1359.5046512858
2344, 1608.4298910299, 3592.1390302057, -171.05418919625
2345, 1616.8276222261, 3573.9728088247, 46.633571671141
2346, -769.67412109935, 6969.3580623274, 1422.6412046999
2347, -928.87105355762, 6974.9911839374, 1324.1996888169
2348, -847.00610707822, 7162.3674806548, 1378.0010539082
2349, -849.13777810474, 6734.6654941721, 1376.688520979
2350, -1199.8829286484, 6127.6593473777, -1084.7060466035
2351, -1201.2854308269, 5911.1307509756, -1083.1526040604
2352, -1366.5599732019, -374.07279305237, -865.34391408407
2353, -1232.0651059864, -172.92199053068, -1048.0085040736
2354, -1480.4351846896, 4214.2454898187, -651.62712799048
2355, -1228.2437005042, 596.01874682806, -1052.4845187326
2356, -1378.2882004842, 569.62059832807, -846.53876840113
2357, -385.76599010241, 2123.5806703089, -1570.8248950409
2358, -1004.6411853931, -63.293393362183, -1267.6759596253
2359, -1108.6931492416, -129.06777380703, -1177.7545375946
2360, -1238.3691680373, -384.76832855481, -1040.5518024849
2361, -1399.6301380833, -613.15098425196, -810.76613555882
2362, -1267.0124904484, -623.40456519461, -1005.4777963971
2363, 1498.1307885386, 3632.2430258423, -609.84456251803
2364, 1401.2253853111, 3647.1606710019, -808.0059836164
2365, 550.24704264567, 6679.9088390945, -1521.0307170007
2366, 1272.2679581587, 3339.4990309483, 998.81954958983
2367, 1306.4385025512, 3135.7190819335, 953.69003824706
2368, 1151.5434173434, 3270.1651928921, 1135.8934844311
2369, 620.44500290316, 5867.3247350598, -1493.7718193796
2370, 421.20750007755, 5808.1010431487, -1561.6947499042
2371, 440.72458890969, 5584.0873630179, -1556.2994849098
2372, 1411.4111717641, 3180.9326371938, 790.07895442128
2373, 737.97730066542, 2432.7074282837, 1439.3386515003
2374, 652.72294017616, 2253.7113356904, 1479.9523686145
2375, 601.64987246938, 2372.6527928896, 1501.4405352719
2376, -1331.6512707343, 2113.79645533, 918.15638273204
2377, -1353.2662928648, 1927.3733876461, 885.98904654397
2378, -1436.2438669306, 2115.0994963863, 743.98239542632
2379, -1447.542692413, 1913.4196670218, 721.75231460773
2380, 1610.923439608, 197.48678947824, 145.71177619328
2381, 1596.632485767, 42.652708840791, 258.98060814173
2382, 1575.2342032894, 307.82526130452, 367.34650506999
2383, 1082.1467215529, 4474.0481221196, -1202.19163324
2384, -1055.7766298291, -452.17885097474, 1225.415014559
2385, -966.91594163567, -234.22793519717, 1296.6803043969
2386, -872.76625800611, -488.21093436879, 1361.8316007811
2387, 168.7470200297, 972.5634186893, 1608.6735819398
2388, -70.44809070706, 1038.4290270969, 1615.9651346844
2389, 95.268128758614, 1148.8615627179, 1614.6919934287
2390, 923.75774640881, 4575.5102064648, -1327.7717710321
2391, 818.70560110835, 4389.0926766784, -1395.0008561696
2392, -1432.0770159627, 407.29347152082, -751.97185476014
2393, -1484.447230829, 216.76109743071, -642.43495303727
2394, 1572.3518717387, 3381.3471128662, 379.49419157568
2395, 1545.8577329797, 3297.6001558131, 476.05684470118
2396, 1538.6090317582, 130.56819312631, 498.98747217956
2397, 1273.9966228027, 4815.4632308371, 996.61369400953
2398, 1292.2360711665, 5127.6890922994, 972.8474630569
2399, 1146.4233737405, 5003.3495250151, 1141.0607775844
2400, -1572.6054994126, 1950.0558417272, -378.44179634035
2401, -1566.8762482206, 2136.6628324426, -401.50351525486
2402, -1599.5280699266, 2153.0587778828, -240.45000211428
2403, -1528.3324973641, 1946.8014263235, -529.6281974186
2404, -1606.5654585392, 6120.304368005, 187.75962672683
2405, -1610.7107861129, 6403.7513445647, 148.04395799695
2406, -1617.1412978923, 6268.0782869124, -34.062775153132
2407, 1616.4624456706, -55.718880356517, 57.925915932259
2408, 1614.2830375321, 36.379427581082, -101.9633499649
2409, 1607.0652379298, -213.60934281506, -183.43274254535
2410, 1574.6414194262, -5.3871436145191, -369.87923735636
2411, -687.4362540072, 6666.9557111007, -1464.1508278441
2412, -1007.172920042, 7116.1563847534, 1265.6654214816
2413, 869.60473825923, 6963.8671873603, 1363.8525760496
2414, 887.87673117336, 7170.1362821829, 1352.0285352909
2415, 1023.6131511235, 7180.6039892927, 1252.4066299916
2416, 1616.8529499854, 361.65375833097, 45.747001251955
2417, 978.20370440728, 1521.0345840782, -1288.1862298146
2418, 982.67317037546, 1826.3346837758, -1284.7800162768
2419, 1292.988653865, 252.80727696252, 971.84699977745
2420, 1391.6502274872, 365.81806753965, 824.38819395649
2421, 1463.5763273004, 239.0042608991, 688.65853960139
2422, -1611.0292230913, 235.61563690118, 144.53751189876
2423, -1614.2503760836, 200.97283237347, -102.47913599362
2424, 1283.664967253, 5297.6520900943, -984.12931154767
2425, 1102.8631924274, 5448.8074836493, -1183.2155462082
2426, 1172.1632205235, 5170.2580437238, -1114.6029043799
2427, -161.68344199825, 1191.3346920069, 1609.3988674606
2428, -1202.482814663, 7167.1557369803, 1081.8231511852
2429, -899.77464320934, 5271.0369777344, 1344.139814691
2430, -656.74123521107, 6572.4181184065, 1478.173602786
2431, -971.37874715213, 6542.0889597582, 1293.3404731861
2432, 920.4346430608, 6156.6051143604, 1330.0775608413
2433, 1107.4845180306, 6148.1697869382, 1178.8911282737
2434, 1008.0212947956, 6071.2113742818, 1264.9898494607
2435, 766.94908326917, 6510.6773096463, 1424.1121281952
2436, 586.08511378027, 6599.2909840565, 1507.5843224859
2437, 716.55609145672, 6782.9160542328, 1450.1219320444
2438, 1143.289321563, 5961.0520020603, 1144.2009339272
2439, 652.03161491734, -276.42711491714, 1480.2570800872
2440, 376.85914651308, -460.47695940564, 1572.9855160457
2441, 424.54874250345, -261.17174356951, 1560.7897408808
2442, -873.46729689138, 5033.9678530515, 1361.3820666004
2443, -93.982280887203, 6375.2762391537, 1614.7673457434
2444, -71.768045738512, 6258.6222920828, 1615.9070510431
2445, -219.31976861914, 6423.7653358347, 1602.5620390777
2446, -558.83413745032, 6902.2704348949, 1517.8967872751
2447, -286.08568258232, 6181.694432081, 1591.9991307226
2448, 489.44687393605, 1427.5867422212, -1541.6705249807
2449, -1412.3520371646, 4880.402145446, 788.39582261521
2450, -1331.3318612736, 4938.185592996, 918.61946700354
2451, -1357.9548463719, 4687.0196806232, 878.78602925568
2452, -1061.9410761105, 4432.7188314545, -1220.0768012175
2453, -943.72677466704, 4282.6178407483, -1313.6536928645
2454, -954.44821342441, 4575.6555262373, -1305.8847031384
2455, -823.63959462743, 4443.5381060972, -1392.0934121538
2456, 410.94100261035, -171.63029206986, -1564.4276085437
2457, 257.29264777983, 11.749267500898, -1596.9053645719
2458, 210.32221245489, -267.30652884257, -1603.7676941964
2459, 895.23824118355, 1945.2560718024, -1347.1654469747
2460, 1499.507240755, -399.28089831189, -606.4522115742
2461, 1371.3340114478, -338.43658720708, -857.75828707538
2462, -1546.3761192592, 3792.7987130651, -474.37026444009
2463, -1504.0244589846, 3854.5145705355, -595.16105112496
2464, 499.62990140275, 5297.5087973542, 1538.4005367993
2465, 460.59864887691, 5545.6685721295, 1550.5338224795
2466, 655.43013086894, 5405.3582830131, 1478.7554204631
2467, 1011.2693660867, 2331.3748681951, -1262.3947556983
2468, 1140.3401793215, 2466.8621673953, -1147.1401507336
2469, 988.74037361727, 2531.9192102637, -1280.1166835797
2470, 1429.5672856201, 3840.0455326538, -756.73220222527
2471, 1320.5323724186, 3856.047904767, -934.07735407428
2472, 911.73368245626, 229.50964455711, -1336.0568634137
2473, 730.25901275533, -7.8845821490404, -1443.2699069438
2474, 1005.8274248285, -9.0256371542082, -1266.7349531227
2475, -1436.8935899786, 5123.3586341658, 742.72677417634
2476, -1538.9344569979, 5007.2036157312, 497.98291844671
2477, -1566.2358491872, 5952.6585341364, 403.99444887368
2478, -1562.6441282678, 6228.2025401366, 417.67161549511
2479, -1499.8326755931, 6029.7664436331, 605.64692290411
2480, -1581.9454685223, 6106.7958364425, 337.27553220141
2481, -1306.6435413656, 5080.9402110266, 953.40909677202
2482, 54.548824899264, 6325.9119781049, 1616.5799317393
2483, -1505.8483542666, -260.50056032407, 590.53110328959
2484, -1548.5490912154, -175.63698653708, 467.22795517386
2485, 52.453667513908, 6478.0861286654, 1616.6492701772
2486, -896.67706263625, 766.78284558093, 1346.2081916784
2487, -936.77308042681, 447.71277142073, 1318.6214186747
2488, -983.35237150106, 5107.5577782433, 1284.2602397736
2489, -1054.5134108907, 4926.3835314606, 1226.5022283924
2490, -108.67948502874, 6593.868576596, 1613.844794128
2491, 1393.6226995997, 1508.8671286512, -821.04934148957
2492, 1457.4271007228, 1318.0153446927, -701.57857441548
2493, 1554.8859313164, 1506.9846942353, -445.68597756094
2494, 1294.7143822673, 1345.2418762573, -969.54675923868
2495, -1262.048063261, 4851.4519180102, 1011.7019996121
2496, -1189.7137998916, 5012.7959798607, 1095.8500464696
2497, 608.63934115435, -470.15857866239, 1498.6208334329
2498, -1144.986662115, 4705.7981127041, 1142.5024260713
2499, 651.16964239759, 2657.7461048241, 1480.6364668006
2500, 664.60248239834, 2850.6797321435, 1474.6558209935
2501, 851.39508030057, 2670.5392760201, 1375.2936658183
2502, 472.50823465202, 2777.7726676993, 1546.9460941436
2503, 1356.8642168152, 4850.760964601, -880.46904949954
2504, 1453.4161330779, 4892.5562798514, -709.85054350107
2505, 1440.6475498764, 5089.633054099, -735.41885142756
2506, 1523.6834948203, 5100.5225958565, -542.85804554434
2507, 1509.7449030489, 6381.2066874407, 580.49683695778
2508, 1356.9636761981, 6402.0749620034, 880.31575669132
2509, 1450.7988980076, 6558.8834894653, 715.18445700394
2510, 1279.5247882097, 6583.6905296433, 989.50622350589
2511, -942.29542489211, 700.89342244711, -1314.6807910011
2512, -1143.2706933251, 844.21465292568, -1144.2195470206
2513, -1081.4137691279, 580.39126069625, -1202.8509924095
2514, 1202.0173402103, 6839.0727561031, -1082.3403179379
2515, 1281.107538326, 6747.5796976904, -987.45618902526
2516, 1317.742119907, 6943.981364395, -938.00957107213
2517, 661.78905038949, 937.15358733552, -1475.9205611362
2518, 799.29429165273, 788.94285457512, -1406.2129587411
2519, 780.63472999607, 2170.0089018076, -1416.6565103524
2520, 939.74581720506, 2092.6797209879, -1316.5044812098
2521, -950.6421223701, 1402.7915938101, -1308.658016892
2522, -1110.7301299488, 1389.8264285468, -1175.8336737923
2523, 864.77302123402, 4180.3747265162, 1366.9213114681
2524, 757.59730626215, 4027.6758565971, 1429.1090131772
2525, 996.99791146132, 4030.1805000958, 1273.6959662894
2526, 1617.3336299233, -222.39333375834, 23.198696494819
2527, 794.43124877354, 6261.3850695725, 1408.966018388
2528, 811.59505461409, 6014.38825121, 1399.1496407911
2529, 671.75236744832, 6122.7914599766, 1471.4125889184
2530, -1308.7852209519, 764.00169105164, -950.46698807368
2531, -1441.6567031476, 647.80096570673, -733.43861383872
2532, 703.82780519273, 1300.7222247941, 1456.3422230498
2533, 529.30568225613, 1282.2616654785, 1528.4442236246
2534, 522.14294385196, 1460.1672533933, 1530.9059396924
2535, 385.93523011617, 1441.0109843933, 1570.7833231083
2536, 1270.0944179504, 4521.8885955743, 1001.5819584494
2537, 1076.0740011374, 4514.2034641303, 1207.6303217774
2538, 1173.5899287344, 4668.8145775392, 1113.1005925671
2539, 1193.6500505661, 4381.1603666773, 1091.5611786718
2540, 1056.8708859363, 4804.7927714978, 1224.4713881754
2541, 184.7116295882, 248.25221535528, -1606.9187483799
2542, 385.68667037869, 263.36134557261, -1570.8443723973
2543, -1170.1099281672, 154.34736572232, 1116.7582576388
2544, -1351.9490663616, 154.83482943673, 887.99773195877
2545, -1262.8399680266, 315.62608765723, 1010.7133447
2546, -1269.041614125, -14.135698088569, 1002.9155655482
2547, -815.68418547776, 4586.5576310358, 1396.7696873721
2548, -641.29322995027, 4516.2704676864, 1484.9408214538
2549, -753.3657230187, 4389.3271075161, 1431.344241397
2550, -1135.6933532215, 3962.0194134386, 1151.7407943841
2551, -1342.317319254, 3883.4578425519, 902.49125448987
2552, -1265.8474911743, 4090.0212832983, 1006.9440794243
2553, -1492.3740264658, -567.97157832364, -623.79965945027
2554, -863.14592229002, 4423.7451916281, 1367.9493290448
2555, 391.96724355696, 5089.174882051, 1569.2889886756
2556, 555.61961631311, 4991.0191235085, 1519.0763943818
2557, 678.65198656556, 5154.3057677231, 1468.2430763094
2558, -774.8057819739, 4716.0095823275, 1419.8528973875
2559, -1490.2491219152, 549.92468111876, -628.85912940103
2560, -1541.7216389054, 388.29584112245, -489.28584501384
2561, -198.92886933671, 1868.1061631018, -1605.220718451
2562, 260.34747395645, 1354.60443589, -1596.410173735
2563, 402.12951055373, 1564.6780111327, -1566.7157070579
2564, 200.81505673781, 1546.3161837581, -1604.985845105
2565, 1518.9948022845, 3838.4631824785, -555.84264017148
2566, 1448.133291927, 4035.1327704782, -720.56659568202
2567, 1532.6230568655, 4053.3950980395, -517.08105318624
2568, -1100.9348484688, -631.32587044818, -1185.0100039354
2569, -540.66355178547, 139.0263435879, -1524.4635691845
2570, -377.8391339129, 5.4519445287733, -1572.7504057809
2571, -459.39842413584, 356.74229912341, -1550.8898535684
2572, -1092.1726089927, 6689.5552645192, 1193.0906261329
2573, -1141.2234591114, 6982.3270976548, 1146.2614302042
2574, -997.49001607534, 6849.047225947, 1273.3106132559
2575, -1169.623422921, 6799.9855477094, 1117.2677828321
2576, -257.32912790083, 430.05898621049, -1596.8994864843
2577, -207.55857299994, 238.36937130201, -1604.1277033872
2578, -539.11331492934, 202.94366720176, 1525.0124863967
2579, -528.71105196427, -70.123837725432, 1528.6500166915
2580, 801.19120443453, 484.47806741989, 1405.1330555989
2581, 961.68061392723, 372.67374746279, 1300.5678170694
2582, -902.13680545524, -168.06161907709, -1342.555560952
2583, -810.93606554929, 38.394872459862, -1399.53168867
2584, 1336.3495549698, 6862.4991377564, 911.30462356566
2585, 1156.7266447363, 6772.917171491, 1130.6147528478
2586, 1026.7822203685, 115.49413408768, 1249.8097943027
2587, -1616.7817097008, 5030.2568910149, 48.199099336986
2588, -1612.1748236495, 4913.5361824194, 131.14338714057
2589, 293.21202124896, 1739.0385890002, -1590.7020338816
2590, 374.34895037837, 1990.1531161471, -1573.5847970003
2591, 158.08091578244, 1897.2683502024, -1609.7567126946
2592, 573.41458413556, 2044.8338526196, -1512.4489957353
2593, 1545.1946595973, 6249.9700489579, 478.2046778858
2594, 1572.4373051628, 6546.3167645825, 379.14004184779
2595, 1429.2779639255, 6166.7331367338, 757.27851668779
2596, -1592.2720648622, 4940.8741541168, 284.56268458703
2597, -1607.6967028477, 3958.1723341672, 177.81327749271
2598, -1599.6411848298, 4149.3831866129, 239.696328291
2599, -1564.1941436969, 3877.0630832233, 411.82876395921
2600, -209.88507808619, 7023.1747254371, -1603.824960523
2601, -164.69648969145, 7234.3496916574, -1609.0933211854
2602, -168.39760510469, 6781.0688334155, -1608.7101965845
2603, 571.55461025879, 6212.8145382246, 1513.1528599226
2604, -1553.138320583, 4087.1723242789, 451.73842778382
2605, -1264.4956743879, 6766.2170073955, 1008.641135119
2606, -1347.0695535415, 6558.0582469789, 895.38252603098
2607, -1395.8466827393, 6738.8152072433, 817.26268010084
2608, -1287.5022029112, 6955.319729782, 979.10383897658
2609, -1210.3775806593, 6349.5967783284, -1072.9829272814
2610, -1037.3174009854, 6368.3824176111, -1241.0797152532
2611, -1218.7745018569, 6565.474224969, -1063.4354534354
2612, -1053.255754307, 6582.7232175364, -1227.5824070176
2613, 715.60911199423, 4184.2357614824, -1450.5894832208
2614, 1106.9340139361, 267.04892261475, 1179.4080459245
2615, 579.50588773162, 4272.3058080699, -1510.1255497754
2616, -753.75495943305, 6796.4525969386, -1431.1393052845
2617, -870.61623536121, 6607.0778324871, -1363.2071085222
2618, -837.76420066086, 6391.6651744748, -1383.6391849363
2619, 562.13916399546, 124.67598833144, -1516.6759081302
2620, 1185.6795201981, 2351.1780282209, -1100.2137634945
2621, -845.50539374346, 6389.8598572269, 1378.9223615384
2622, -727.81266670921, 6245.6300017174, 1444.5050959334
2623, 1178.6408045337, 3722.9678123882, 1107.7509214115
2624, 1280.1420463643, 3905.9682254772, 988.70753569002
2625, 1340.5626753654, 3664.5020974027, 905.0955548544
2626, -853.09885259624, 6076.8473856893, 1374.2374604481
2627, 782.14892561195, 3196.5334616487, -1415.8210720865
2628, 848.10462169021, 2930.3183536963, -1377.325234165
2629, 500.00183969841, 3197.5767542423, -1538.2796918305
2630, -480.95604204706, 920.72868743196, -1544.3404856502
2631, -561.70145196809, 700.60353945097, -1516.838069425
2632, -389.27379987307, 575.29521604162, -1569.9592856926
2633, -252.66156941886, 812.4976973493, -1597.644635499
2634, 223.71647973198, -506.88217996111, -1601.9541774646
2635, 467.15656779191, -657.38330614643, -1548.5706284083
2636, -1395.0619658423, 6429.239434144, 818.60146680808
2637, -1449.7610238806, 6252.5342852075, 717.28601243616
2638, 931.30438755836, 3601.1966753928, -1322.4894660127
2639, 844.09550471549, 3439.0268398465, -1379.7858634292
2640, 1087.1962958334, 3513.3949067047, -1197.6270138595
2641, 154.65968687261, 4137.2440087086, -1610.0890134575
2642, 193.68473977685, 3934.9388061021, -1605.8619092492
2643, 935.98278294443, 4916.6346523139, 1319.1825044442
2644, 833.85487006018, 4783.3743566817, 1385.998667271
2645, 816.2442071257, 5029.724236532, 1396.4424958922
2646, 705.24591700013, 4886.9416696942, 1455.6560193104
2647, 1004.6627763994, 5022.8002482612, 1267.6588483174
2648, 749.56149429591, 3545.2512979924, -1433.3400909306
2649, 597.96679918482, 3701.6798842395, -1502.9111607386
2650, 625.39163851949, 3506.7081694593, -1491.7075948288
2651, 772.15510894776, 3679.9158177458, -1421.2961470875
2652, 411.05127443531, 3697.8412606057, -1564.3986383864
2653, 1438.21879138, 3778.4239750246, 740.15738739916
2654, -691.99040707496, 393.01786719329, 1462.0039420317
2655, -460.66572325171, 382.5345223054, 1550.5138959135
2656, -745.24025821265, 101.59946927411, 1435.591588001
2657, -1104.531756088, -658.7917750328, 1181.6580934403
2658, 181.25868063565, 3063.5321484261, -1607.3118990085
2659, 178.15025926156, 2901.7869283805, -1607.6593964908
2660, 701.73405386479, 3328.9020802254, -1457.3522455627
2661, 260.08778904088, 3361.2573739311, -1596.4525022661
2662, 297.80585445102, 3177.7428495028, -1589.8483962487
2663, 414.82740615618, 3448.4444670946, -1563.4015712867
2664, 1088.5449914945, 5239.4686664136, 1196.4012919971
2665, 943.46115950767, 5148.4119086242, 1313.8444696769
2666, -966.77953380326, 151.9703099786, 1296.7820106013
2667, -1061.7012122566, 309.6424096884, 1220.285534575
2668, -835.40687577332, 272.58156624555, 1385.0637537351
2669, 914.85761128253, 6409.7993257567, 1333.9197131306
2670, 1030.3023349247, 6291.3523985556, 1246.9095190305
2671, -1552.718576635, 6812.1712437199, -453.1790725229
2672, -1559.3470208254, 6527.5653225953, -429.81754110676
2673, -1488.9527416576, 6719.7870393609, -631.92245023442
2674, -1543.1692365279, 6976.955746942, -484.70089481433
2675, -1590.1291570985, 7012.1087048524, -296.30307751566
2676, 156.00474179767, 2076.0945986537, -1609.9592449924
2677, 1545.3114867803, -633.51846795447, -477.82701768001
2678, 1556.12638713, -416.40428585562, -441.33537958977
2679, 1206.2895687667, 6066.196590194, -1077.5767844032
2680, 1130.597875353, 6270.1016774871, -1156.7431409985
2681, 1019.4315140924, 6178.3212481476, -1255.8127400513
2682, 994.22146661765, 6492.9072510734, -1275.8643835912
2683, -277.01041856553, 6756.6522959697, 1593.6033000738
2684, -1549.5843930432, 7.3009236602802, 463.78277117316
2685, -1458.2071859455, -0.93535999133928, 699.95575064214
2686, -1362.8219358629, -193.7039019456, 871.2190431407
2687, -888.24223477337, 6791.5797151254, -1351.7884384639
2688, 1057.3523691628, 7180.6665713727, -1224.0556431085
2689, 921.58493375627, 7090.6466420071, -1329.280805501
2690, 1073.6445150946, 6970.6710124382, -1209.7907691859
2691, 923.95514527437, 6941.443653443, -1327.6344148601
2692, 569.81136958345, 6469.7172244329, -1513.8101773649
2693, 593.95682821795, 6141.7480315328, -1504.5004274553
2694, 709.98177321727, 6377.1216305383, -1453.3520329567
2695, 538.27221052268, 3942.6413949732, 1525.3095677203
2696, 601.48048676658, 4113.3301771938, 1501.5083995899
2697, 442.9218633351, 6372.9187657323, -1555.6755680346
2698, 232.30419452493, 6218.1330970273, -1600.7313988318
2699, 822.24058923379, 6055.8737113248, -1392.9201927664
2700, -1446.8128724956, 6540.701548711, -723.21418817737
2701, -1487.7657747253, 6345.9544996231, -634.71194218784
2702, 1182.40089461, 7177.0236105467, -1103.7365511867
2703, 166.61427981453, -694.31418931647, -1608.8958734989
2704, -783.07950919869, 1961.1750245401, -1415.306585964
2705, -614.72345715663, 1941.1256571124, -1496.1354621896
2706, 1198.924505814, 6979.3233104558, -1085.7652966266
2707, -1286.8573702773, 6087.0422490306, 979.9512021335
2708, -1361.1136081138, 6149.2107549804, 873.88557363501
2709, -253.89447677602, 3868.4865259264, -1597.4491680998
2710, -423.61103699761, 3635.5102590383, -1561.0445026756
2711, 803.57560141955, 749.83870892475, 1403.770815626
2712, 777.16561478334, 959.93284565116, 1418.5626024954
2713, 952.96871795404, 1018.0946808217, 1306.9647556843
2714, 1086.361557934, 6988.7858644423, 1198.3842520007
2715, 882.33519594027, 1193.7039156296, 1355.6514493058
2716, 1581.486165733, 3831.1555469876, -339.42268279433
2717, 1103.1548426618, 1120.7603299616, 1182.9436347992
2718, 384.89984456925, 4432.1589424025, -1571.0373514499
2719, 399.63229016689, 4137.121256724, -1567.3545491228
2720, 612.99866588239, 4510.3119350303, -1496.8429729355
2721, 1263.556010087, 2565.1880065174, -1009.8180328024
2722, 1072.5417426755, 2630.8347401759, -1210.7685411418
2723, -1015.1220030971, 151.79722762387, -1259.2988401599
2724, 1178.6353971376, 6605.3404453845, -1107.7566748228
2725, 1270.4640986508, 6395.9499851667, -1001.1129926434
2726, 1337.659997124, 6161.8974207503, -909.37999873228
2727, 1281.9997774585, 3674.0944078624, -986.2975314764
2728, 1244.7374320645, 3474.0039914711, -1032.9254451399
2729, 1146.2409690269, 3724.0064415275, -1141.2440102469
2730, -187.38445689541, 1071.9023586043, -1606.6092603101
2731, -419.66872105704, 1137.4964267411, -1562.1089637302
2732, 886.63077250644, 6674.1607920631, 1352.8459347777
2733, 971.95455535753, 6797.2723317772, 1292.9078050347
2734, -1570.3129984826, 3666.3308659761, 387.84447501097
2735, -1490.0680698703, 3798.1672559962, 629.28800811144
2736, -1614.1737814925, 3695.4254876147, 103.67860503637
2737, 618.57887960399, 2474.1126948957, -1494.5455562504
2738, 604.17111535881, 2211.3974709732, -1500.427776791
2739, 825.72421925391, 2393.0570186399, -1390.8579236347
2740, 465.76579807903, 2388.4267496214, -1548.9895000741
2741, 1234.0644229024, 6261.4607299297, 1045.6535038561
2742, 1281.8161962812, 6057.115905839, 986.53610625828
2743, 1151.6030166615, 6430.7980277066, 1135.8330608043
2744, 887.04451566411, 2603.4132455931, -1352.5746845296
2745, 1299.1493289644, -155.84017244179, -963.59601029232
2746, 1486.1760192935, -194.22664400209, -638.42547699549
2747, 874.32786702379, -158.30160306593, -1360.8295377988
2748, 623.21375841489, -173.0013317038, -1492.6187930354
2749, -434.41481987329, 5353.4214953926, -1558.0725317759
2750, -241.49205671245, 5017.1110514012, -1599.371075312
2751, -183.87932258729, 5228.5525335815, -1607.0142017807
2752, -178.95541123838, 583.25635569512, -1607.5699707286
2753, -624.16757566882, 5881.491903415, 1492.2201873329
2754, -719.41346805594, 5965.9838890713, 1448.7064961474
2755, -601.3681285537, 6115.8011234417, 1501.5534036323
2756, 1410.2321494707, 40.707688378825, -792.18150357061
2757, 1495.5926573378, 297.35845469108, -616.04289892602
2758, 1513.0174244921, 117.54119383269, -571.91303813025
2759, 1560.6150299202, 369.97494973571, -425.19052010486
2760, 1428.3800146712, 242.33198370686, -758.97087143574
2761, 425.62922345728, 1159.3758940304, -1560.4954386794
2762, 188.15697962969, 1085.1823038115, -1606.5189700146
2763, -555.29483735319, 514.96470401562, 1519.1951466513
2764, -427.53608046319, 634.57326966661, 1559.9740862919
2765, 1276.7948338603, 4156.2460001608, 993.02628476176
2766, 1407.3831879499, 3991.1369771947, 797.23196892501
2767, 1130.34689276, 4171.7022801554, 1156.9883975338
2768, 1270.0182454712, 4301.4921120357, 1001.6785443296
2769, -602.22318778254, 4433.048155633, -1501.2106721233
2770, -688.90437594852, 4308.6154367215, -1463.4606283734
2771, -1238.1920975172, 2744.3176459742, -1040.7624991544
2772, -1079.8421541992, 2690.3552860862, -1204.2620860985
2773, -1050.9878998982, 2919.5160152508, -1229.5245765203
2774, -917.39631751816, -638.01797117098, -1332.1750059974
2775, -1049.2003884132, -361.13229798666, -1231.0502812451
2776, -901.85264571198, -461.49239117248, -1342.7464598435
2777, 182.95722149054, 7225.9337390767, -1607.1194433223
2778, 382.31532878897, 6051.3279984452, -1571.6682981383
2779, -872.44266364223, 2888.2554802647, -1362.0389306686
2780, -358.30793171697, 7208.7784025954, -1577.3147041947
2781, -653.34813187595, 7168.6048928187, 1479.6764742923
2782, -1602.2021788205, 3426.9030298094, 221.93338681414
2783, -1617.1354641571, 3342.6180799055, 34.338616240422
2784, -1613.4659206215, 3527.4170021403, -114.16642673328
2785, -1004.8448679704, 7180.7687048015, -1267.5145132556
2786, 799.95661509777, 7139.7940313857, -1405.8362863297
2787, -1592.2388441089, 3390.9282070703, -284.74850888227
2788, -625.29055728089, 6360.0419896988, 1491.7499686527
2789, 170.11647991964, 6450.7564895591, -1608.5293386382
2790, 1528.325760708, -17.25720115765, -529.64763678929
2791, 820.48260304493, 3875.4910611498, -1393.9564369451
2792, 995.6997109622, 3796.6752930734, -1274.7110792606
2793, -874.0063213197, 4851.6500795819, 1361.036076044
2794, -692.72669003149, 4924.1304753534, 1461.6552202616
2795, -584.1035064184, 3440.6907267721, -1508.3531893392
2796, -747.16071789119, 5873.5202222773, -1434.5930125441
2797, -553.50008105912, 5697.1685746645, -1519.8499630778
2798, -473.78415282636, 5881.4357150871, -1546.5557948327
2799, 1356.1917746246, 3064.2415642884, -881.5044642205
2800, 355.08349025614, 657.83243039136, 1578.0437145236
2801, 526.26337979429, 740.60143141627, 1529.4943952455
2802, -236.61181363415, 7185.2869198029, 1600.1003404939
2803, -408.54358826979, 7027.7288869907, 1565.0553940623
2804, -251.30383799572, 6996.1691077333, 1597.8587644121
2805, -1581.5424595596, -627.07690834724, 339.1602845412
2806, -1603.3236505688, -719.80642025876, 213.68088713477
2807, -1603.3817142671, -721.53011103621, -213.24476160956
2808, -1581.7955096764, -625.43403755505, -337.97812883025
2809, -434.19002984391, -339.73561881127, 1558.1351892516
2810, -42.887179322073, 6973.608393109, 1616.9313343027
2811, -11.235651038439, 7175.7223209397, 1617.4609763904
2812, 248.08333983402, 805.96739148902, 1598.3619447725
2813, 31.900224289304, 6739.8846266119, 1617.185402386
2814, 1178.3316283773, 2765.4352783955, -1108.0797911548
2815, 1196.0802262068, 3030.8855166697, -1088.8977649334
2816, 781.56006244776, -673.97966616995, 1416.1462208355
2817, -1545.1269620021, -457.69750924434, 478.42337034699
2818, 318.77564185165, -664.21435538324, 1585.7768885193
2819, 555.85288063174, -668.35315633699, 1518.9910549748
2820, 1498.1791666214, 2639.333648287, 609.72570447826
2821, 1382.3316704673, 2759.5808083254, 839.9198788118
2822, 1471.9624298668, 2820.1479362159, 670.5466837296
2823, -190.00655075111, -709.57909856023, -1606.3012670952
2824, -250.54535891329, -463.92376460069, -1597.9778700367
2825, 1416.3107984772, 2576.3355063813, 781.26178206596
2826, 1250.8010127032, 4614.1742386102, -1025.5745105162
2827, 1133.0191767418, 4610.2713217783, -1154.3716018403
2828, 1235.0894817535, 4418.3847049478, -1044.4425412927
2829, 1224.6140741941, 4813.464479314, -1056.7055499456
2830, -1451.0563639379, 4636.4116945729, 714.66193313719
2831, -81.982425227156, 6827.3311353541, 1615.4210386007
2832, 346.34985082618, 3982.6457049071, 1579.9835539754
2833, -1488.0017845495, -580.11771157, 634.15844958298
2834, -1400.1887334981, -638.98044771381, 809.80106235103
2835, 409.12200753317, 4171.5356712155, 1564.9042887512
2836, -624.79147059517, 3598.1809640283, -1491.9590705752
2837, 667.25128251884, -87.091590722871, 1473.4591870754
2838, 455.79843129992, -63.72518816623, 1551.9516874003
2839, -151.15429942835, -654.81865139532, 1610.4218788145
2840, -1547.3869564936, -455.81042489369, -471.06247661374
2841, -1374.4004372682, -472.40351546147, 852.83626097691
2842, 644.9658283312, 7095.3961913439, 1483.3493621818
2843, -1272.3000279665, -647.60793633254, 998.77869862976
2844, -1124.6454117441, 5200.3026949427, 1162.531267469
2845, 237.47528244321, 7056.2382883308, -1599.9724185837
2846, 894.408927376, 1846.3650471058, 1347.7161869734
2847, 1043.8063263181, 1791.3049545505, 1235.6272104233
2848, 991.39713082208, 1671.5486608532, 1278.0602407546
2849, 1356.1704802086, 7108.5958174371, 881.53722474487
2850, 1207.6787437905, 7012.7560170186, 1076.0196567891
2851, -1353.7375184414, 6971.7192702233, -885.26887506794
2852, -1360.3992016435, 6759.0530922484, -874.99729266313
2853, -1208.6442337239, 6978.2196108411, -1074.9350521245
2854, 1139.3590976369, 1405.5110292038, 1148.1145834071
2855, 1052.5934005898, 1560.0146808738, 1228.1503910494
2856, 1158.7178448349, 1674.007867609, 1128.5739701327
2857, -1259.6258981702, 5275.7417771538, 1014.7161409276
2858, -1435.705309699, -376.5322776028, 745.02114983538
2859, -1219.0668982519, 6773.0405223622, -1063.1002528391
2860, 932.30347447085, -654.47054011759, -1321.7853386574
2861, -1149.4128559175, -152.32217923079, 1138.0493559822
2862, 1145.3772112684, 2141.1320736237, -1142.1108938746
2863, 984.29249545624, 3212.6400900364, -1283.5398448777
2864, 1086.968844442, 2945.0414637211, -1197.8334530361
2865, 1610.8902666599, 1065.6036681552, 146.07805714852
2866, 1615.687928081, 1065.4066920985, -76.542596332011
2867, 1614.7227501869, 852.73189104812, 94.745395819123
2868, 1465.1240110976, 4271.1985131303, 685.35967353312
2869, 1492.9970392568, 4069.6513179642, 622.30707112353
2870, 1517.0209986113, 3867.1330118647, 561.2072164294
2871, -1581.6445663062, 4378.3520620965, -338.68379924949
2872, -1518.7578003629, 4458.3537490567, -556.48988655388
2873, -1299.4968784636, 4204.7134928004, -963.12725683756
2874, -1374.7062702519, 4373.2123770204, -852.34319410087
2875, -808.61358984658, 7167.3824928307, -1400.8748382048
2876, -925.63618160383, 5677.3376629456, -1326.4629317496
2877, -1008.6892795121, 5857.4059142442, -1264.4572698978
2878, -1128.7002133359, 5667.3020822442, -1158.5948724276
2879, 303.16834210809, 2800.1244457369, -1588.8345434133
2880, 231.32623534411, 2637.4532760731, -1600.8730189623
2881, -864.33414371556, 6969.2757518746, -1367.1988655669
2882, -1214.3808950307, 5752.0664624608, -1068.4499481887
2883, 383.41353242302, 4693.6399801806, -1571.4007487445
2884, 199.81901911846, 4616.2184530238, -1605.1101549733
2885, 556.68653996562, 2119.7396736096, 1518.6857299063
2886, 882.7772798223, 4826.5703753199, -1355.3636132896
2887, 779.35809021396, 4715.1486776682, -1417.3592407072
2888, 1044.320253007, 4763.1155545577, -1235.1928833827
2889, 1344.0107771432, 4030.0072374493, -899.96737769929
2890, -1357.353265525, 6549.9621358189, -879.71493255968
2891, -1252.6744255766, -385.09254839217, 1023.2854115575
2892, 1445.6579789437, 7199.9091280389, 725.51999139682
2893, 470.4278135648, 2305.0288438989, 1547.580021267
2894, 1615.8593584978, 1282.5243839579, -72.833945073331
2895, 1204.2394788193, 3904.669325366, -1079.8673657691
2896, 1252.2157386238, 4029.2576546863, -1023.8466652496
2897, 1351.9050288785, 4206.1631012631, -888.06477404134
2898, 1606.0292702042, 1349.8321573617, 192.29205196134
2899, 285.3913846657, 3409.9832951936, 1592.1237412835
2900, 212.47896548888, 3611.7274768677, 1603.4833766599
2901, 443.99446794508, 3489.173619673, 1555.3697831815
2902, 1599.6261331765, 4203.5550165945, 239.7967557307
2903, 1613.4997728753, 4472.7397987671, 113.68699543694
2904, 1617.3428852587, 4260.5059349753, 22.544212185898
2905, 1616.0347593225, 4543.491961271, -68.832453548001
2906, 1586.0560671025, 4412.7668449604, 317.38368264197
2907, 1565.4221161756, 4608.2377211143, 407.13615436151
2908, 190.93960668431, 4360.652636735, -1606.1906227466
2909, -253.42121832917, 5709.9679506557, -1597.5243147134
2910, 1455.4987166941, 2018.0827080861, -705.57050370739
2911, 1374.9164469835, 2150.5352184097, -852.00411607819
2912, 1387.6927592321, 1847.2384790491, -831.03252401739
2913, 1289.3377252753, 1990.4377455715, -976.68545611259
2914, 1436.8455929442, 1737.8327298566, 742.81962281352
2915, 1490.2445200887, 1581.4410864728, 628.87003454264
2916, 662.63773853902, 5411.1525505074, -1475.5397241226
2917, -5.2329792582383, 1313.1650079728, 1617.4915350406
2918, -243.35261133085, 1306.4811187571, 1599.0890395967
2919, -155.54515867726, 1479.9369886475, 1610.0037122976
2920, 1519.4128118491, 7061.9279198941, 554.69897889645
2921, 1545.1904438034, 6848.8116583683, 478.2182999202
2922, 1452.8630069866, 6895.7405038546, 710.98194979181
2923, 525.78911121878, 4736.8830752586, -1529.657497783
2924, 399.71295511077, 3857.2208379629, -1567.3339795706
2925, 585.24914227152, 3945.9001829683, -1507.9090461531
2926, -1450.9740395261, 837.51039536202, -714.82906111981
2927, 59.367487734039, 3372.8271979818, 1616.4101433115
2928, 461.89343493294, 3236.3077521674, 1550.1486073167
2929, -1588.7539146739, 7051.319053839, 303.59059374155
2930, -1592.2573070232, 7188.7437429556, 284.64524979582
2931, -745.05090868976, 814.64460459055, -1435.6898667402
2932, -951.90716940358, 922.30403642548, -1307.7381201288
2933, 1076.5343863266, 1976.1125948439, -1207.2199323472
2934, -818.89104032891, 608.08565380964, -1394.8920080311
2935, 1562.0940008772, 5940.3587618864, -419.72441247037
2936, 1529.2964921188, 5744.0361606666, -526.838200203
2937, 1595.0801398262, 5711.5469960802, -268.3758512461
2938, 977.47425627205, 2787.9708969161, -1288.7398218125
2939, -1407.0155942968, 803.50820970077, 797.88054707815
2940, -1357.7715716733, 458.7694259328, 879.06917199718
2941, -1374.3926113265, 950.93571252743, 852.84887285559
2942, -645.47312839437, 483.68505743219, -1483.1286830619
2943, 453.49736631016, 5694.7536184685, 1552.6256434665
2944, -390.37195679082, 1498.4937917708, 1569.6865882562
2945, 1369.4463770956, 4393.6534469183, -860.76876700997
2946, 1452.511226301, 4226.2619362123, -711.70034949378
2947, -1617.4359171411, 5875.5560801334, 14.398053403561
2948, -1602.3288651605, 5839.0205747921, -221.01687237253
2949, -1600.2687831106, 6069.0780255552, -235.4698957438
2950, -1551.3877818555, 6061.6167666789, -457.71410324515
2951, -1602.4731556317, 5912.6709753558, 219.96826016419
2952, 1105.0484026559, -478.25381302638, -1181.1749564682
2953, 1607.5255947334, 2552.6594715752, -179.3535956624
2954, 1585.7668043001, 2587.5941482238, -318.82580256264
2955, 1608.9764079322, 2406.8301832287, -165.83476329687
2956, 1566.8188878645, 2365.8643429291, -401.72729883735
2957, 1162.7905941763, 5749.1140311061, 1124.3772872551
2958, 999.73342404071, 5657.928594675, 1271.549971828
2959, 991.11444773195, 5873.5038835961, 1278.2794692465
2960, 769.85568828724, 5778.6784193159, 1422.5429586525
2961, 1189.4282897993, 5536.8380706797, 1096.1599305873
2962, 1034.9707922022, 5446.3490085287, 1243.0372919943
2963, 1040.238133613, 4995.9277908495, -1238.6326636163
2964, 864.68908068667, 4983.3842796724, -1366.9744122482
2965, 616.84636295207, 4938.736297962, -1495.2614535635
2966, 1614.9737174998, 5817.7285934228, -90.366707280658
2967, 1314.7446952371, 2521.468847704, 942.20625998024
2968, 1272.455958357, 2709.1473767129, 998.58003386892
2969, -811.5764274873, 6149.5544454515, -1399.160445534
2970, 1192.1715197272, 2485.4185024742, 1093.1757944409
2971, -641.18150319834, 5494.9688557416, -1484.9890672851
2972, -763.44420252967, 5636.7698239688, -1425.9941092529
2973, 1423.910657207, 5882.3902621443, 767.32306774419
2974, 1527.620640621, 6087.4409363861, 531.67793667661
2975, 1512.0967732963, 5882.0140672806, 574.34275322918
2976, -676.59906681784, 1026.7604593899, -1469.190237097
2977, -612.2099030833, 1233.2839586138, -1497.1657505322
2978, 999.87352894525, 2669.7280365594, 1271.4398043614
2979, 1146.4867358296, 2675.1491432306, 1140.9971141799
2980, 1050.321677037, 2467.7146916236, 1230.0937463243
2981, -1056.5059656406, 6782.678484641, -1224.7862648502
2982, -1345.1646963746, 5126.8852194765, -898.24172115716
2983, -1279.6466065866, 4950.5235494439, -989.34868082564
2984, -1238.6903911028, 5237.0030187405, -1040.1693924499
2985, -1152.6027405939, 5070.1287149599, -1134.8185636372
2986, -425.4075214114, 5594.5794988646, -1560.5558915741
2987, 1512.1973303508, 3430.1945738589, 574.07794251285
2988, -1602.875563071, 6702.1417251264, -217.01654155836
2989, -1617.4795847821, 6876.0450204473, 8.1266729380437
2990, -1609.8741681818, 6700.2477287281, 156.88024930186
2991, 1475.4706817693, 3586.1581068246, 662.79145833299
2992, 491.06033047817, 4361.9336668545, 1541.1573579069
2993, 561.59580925038, 4551.5691638202, 1516.8771858764
2994, 689.17661995738, 4289.122544858, 1463.3324422373
2995, 376.47252363613, 4596.693070329, 1573.0780937217
2996, 1442.617753663, 2996.6358189301, 731.54648985313
2997, 1497.0931635028, 3181.6846218249, 612.38738539692
2998, 1519.9048729057, 3058.4709329613, 553.34928148271
2999, -908.41012315443, 399.6502402951, -1338.3188327714
3000, 1098.1127863819, 1675.853327665, -1187.6255968884
3001, 1472.2313111993, 3350.509395885, 669.95613014918
3002, -1462.9896285505, 4486.2997194457, 689.9040489471
3003, -1372.0846787565, 4474.7573228591, 856.55699420508
3004, 137.79139212939, 2477.3900437689, -1611.6202351221
3005, 365.57811745588, 2486.844434231, -1575.6455470814
3006, 1575.3789680671, -411.11052080008, 366.72517908079
3007, 1564.2641978124, -597.3076454713, 411.56259480459
3008, -1389.1412603017, 4855.4947017392, -828.60896020223
3009, -1332.1531975831, 4668.3325268756, -917.42798527682
3010, -1213.2888182558, 4766.2866248362, -1069.6899052976
3011, -506.56901134096, 5692.7691789035, 1536.1295800645
3012, 1594.7543556812, 625.17115850497, -270.3050037198
3013, 1601.6047110501, 445.58527510077, -226.20477347328
3014, 1615.3548549206, 684.50539163642, -83.276303258497
3015, 1512.1479890536, 4956.5136951758, 574.20789719494
3016, 1544.1365945919, 4744.0456258402, 481.61024412088
3017, 1095.3048503652, 3877.6048573086, 1190.215751352
3018, 877.42666995895, 3898.8877441058, 1358.8335765813
3019, 1168.9487557854, 3979.3395700947, 1117.9736384852
3020, -1201.3458236681, 1077.1305113329, -1083.0856207868
3021, 1355.2792112241, 379.6210718325, -882.90685217855
3022, 1278.2872999818, 153.85116189971, -991.10434804078
3023, 1135.6494998161, 225.33575910376, -1151.7840351244
3024, 971.2065542468, 4345.5250340659, 1293.4697827889
3025, 788.31200699627, 4510.4970096557, 1412.3988210224
3026, 535.31655604579, 5946.8347089845, 1526.3493816369
3027, -238.06669005538, -211.546959447, -1599.8845274225
3028, 1616.885400734, 6349.1398109124, 44.585321500857
3029, 1613.1315073855, 6562.4408388857, -118.79810554187
3030, 1597.8908857574, 6462.8446761206, -251.09951655357
3031, -1017.7889377819, 6130.2886731995, -1257.1443545309
3032, -1460.589596934, 5856.2016090781, -694.97070393515
3033, 1424.8959220913, 4460.8215014326, 765.49190799607
3034, -302.58546921802, 1067.993692734, 1588.945651625
3035, 813.25365415051, 6733.6740018446, -1398.1862336652
3036, 954.4328193843, 6748.254653332, -1305.895954233
3037, 774.69803673601, 6580.5965189911, -1419.9116880558
3038, 258.64880843319, 3541.0392257472, -1596.6862697149
3039, -1305.9261973375, 7157.1082065266, 954.39143809429
3040, -204.03863125, 915.86680201618, 1604.5792242696
3041, 1501.7413994607, 2493.1548989892, -600.89850985497
3042, 1512.1636785098, 2188.3091924865, -574.16657809014
3043, 1121.7161273338, 3452.1400747763, 1165.3579620354
3044, 995.79948577527, 3407.684610433, 1274.633137075
3045, 985.9387651651, 3535.6508274165, 1282.2757119063
3046, -1475.3727289674, 287.18681983173, 663.00947249596
3047, -1564.6514049554, 269.2908468064, 410.08807708979
3048, 1584.6269498567, 6801.1271810985, 324.44364655195
3049, 1512.5402707577, 6723.844400293, 573.17377760685
3050, 589.54735997842, 5731.5826791615, 1506.2337668312
3051, -694.09796403672, -31.079716793754, 1461.0045401436
3052, -882.4043029742, 9.5262484311388, 1355.6064680034
3053, -1149.7671540447, 1697.9763361822, -1137.691408722
3054, -947.88359694459, 1941.1152957831, -1310.6574444314
3055, -1074.1269620881, 1923.0590548237, -1209.362443321
3056, -942.08979424688, 2177.2276646385, -1314.828152108
3057, 722.71603422583, 5911.4253263319, 1447.061776108
3058, 1614.1693891494, 3780.2241644062, 103.74696686148
3059, 1608.7550983987, 3990.4935011579, 167.96810225832
3060, -1614.9516757215, 4201.9131392685, 90.759765778843
3061, -1545.4371639621, 4301.7235063379, 477.42038314755
3062, 1562.08006493, 2070.6138409972, -419.77627463711
3063, 1616.750118588, 721.57260857178, 49.247376027621
3064, 1595.0435637177, 773.00766762717, 268.59314928479
3065, -1302.8123848131, 5738.8915145211, 958.63764790325
3066, -1287.6335421678, 5944.5083494774, 978.9311064035
3067, -1394.068875383, 5966.0148635839, 820.29154615188
3068, 1492.4055470952, 1049.3740898002, 623.72424435773
3069, 1391.7192642476, 1141.9747163953, 824.27164182811
3070, 1511.874470707, 1202.6962709361, 574.92767790781
3071, 1566.4125981504, 986.80850750133, 403.30859444818
3072, 100.32374954269, 3796.4918690793, 1614.3857640842
3073, 143.09296071512, 4005.2387210826, 1611.1581718111
3074, 307.30448819239, 3836.6707685107, 1588.0397355031
3075, -53.707184243463, 4020.4459923105, 1616.6081121783
3076, 1433.8571379068, 6896.4313107064, -748.57194582341
3077, 1530.3593413792, 6895.8064968936, -523.74281498988
3078, 1590.1069078616, 7164.5371661206, -296.42245456572
3079, 1531.0223151996, 7150.7685675254, -521.80161015559
3080, 1397.6223576351, 3423.8982836736, 814.22232555889
3081, -553.27006696273, 1431.0818578661, -1519.9337100686
3082, -388.60619000702, 1316.4365173188, -1570.124669919
3083, 270.38089184723, 2463.9900555545, 1594.7414910649
3084, 139.75790881397, 2198.7147486421, 1611.4508918748
3085, 72.708559470046, 2357.0264634033, 1615.8650053082
3086, 298.85430383899, 4427.2788739176, 1589.6516458259
3087, 310.44167934115, 2252.5207563104, 1587.4294358263
3088, 424.91221592448, 2426.0402580807, 1560.6908274089
3089, 432.65233582477, 2228.8412916899, -1558.5628656892
3090, -464.37024275569, 5931.470332622, 1549.408444421
3091, 226.14566951804, 5719.2652647895, -1601.6130575636
3092, 207.97073023072, 5944.3905285282, -1604.0743204002
3093, 554.8592358627, 1101.2141003482, 1519.3542965279
3094, -669.31095276446, 5748.5100881388, 1472.5247361282
3095, 1614.9403262545, 1578.2277919239, 90.961489857519
3096, 1613.4571216855, 1470.3599159752, -114.29071039337
3097, 1586.5459977686, 2329.8635333109, 314.9254625534
3098, 1521.0767439841, 2454.441846189, 550.1197950544
3099, 1573.9180708102, 2507.3028935766, 372.94524581629
3100, 1605.1807599535, 2524.3048854052, 199.2510423442
3101, -221.92466525086, 5461.1192914425, -1602.2033868873
3102, -1356.5542683744, 1760.3077118276, 880.94651764746
3103, -1283.5098440003, 1783.1147485178, 984.3316160494
3104, -1252.6059093149, 1899.129680916, 1023.36928132
3105, -1424.5211116713, 1532.5248768229, 766.18917533647
3106, -1444.8023724621, 1719.7230726657, 727.22235562983
3107, -1525.7292524158, 1674.5422464606, 537.08146339518
3108, -1554.0073432907, 6237.4932835784, -448.73982105302
3109, -1599.6917304185, 6327.2543480686, -239.35876342975
3110, 1232.2643964551, 5327.2337930995, 1047.7741680483
3111, 1352.4675194924, 5404.1767529514, 887.20790050476
3112, 1431.6329210868, 5658.1771876446, 752.81699586315
3113, 1450.4463302743, 5452.0034442333, 715.89921985829
3114, 1513.2762264016, 5680.9677455017, 571.22789901033
3115, 1617.2993925173, 2476.9364098818, 25.474005639664
3116, -823.62035351983, 3086.8967093872, -1392.1047960796
3117, -1006.6725729226, 3129.7850448498, -1266.0634189982
3118, -1580.7630342379, 1151.199496382, -342.77467757538
3119, -1609.9134339513, 1012.4589089552, -156.47678800057
3120, -1560.4552491464, 926.51056554676, -425.77654398936
3121, 1590.5710824546, 5445.9980895008, -293.92155698311
3122, 1550.2953971603, 5549.3991362184, -461.40051099203
3123, 1532.268093597, 5298.1253335843, -518.13197097335
3124, 1590.7590395985, 5248.919462517, -292.90259120666
3125, 1566.2698727909, 5096.4965498193, -403.8625206522
3126, 1447.5075032719, 2319.0053089457, -721.82288545836
3127, 1032.4806969264, 6565.0361315904, 1245.1063651248
3128, -268.98185088115, 4139.0938264149, -1594.9780606317
3129, -1507.3933029804, 3647.2571093007, -586.57623556506
3130, 14.566724705269, 3552.5728788273, 1617.4344068714
3131, -1455.4512810432, 3778.0577733144, -705.66834880819
3132, -1517.5637018371, 1322.5562548882, -559.73802878362
3133, -1543.4495560094, 1564.5815096955, -483.80752170088
3134, -1587.6610570634, 1313.6344259155, -309.25493995149
3135, 1589.7909469891, 6938.6059314343, -298.11238630999
3136, 1600.4145839034, 6737.1053279075, -234.47688506387
3137, 1555.2434324765, 6582.5991895922, -444.43685236362
3138, -1595.6050878579, 1520.8329625644, -265.23697630957
3139, -1571.7595712623, 940.83215740693, 381.93991693123
3140, -1518.1035159958, 756.95873873647, 558.27230337986
3141, -1565.6008953924, 747.56092774827, 406.44813487896
3142, -1562.0017704149, 530.10136597584, 420.06751745479
3143, -1462.035547115, -341.29169590735, -691.92362943619
3144, -1520.3246416601, -343.0877621335, -552.19492388213
3145, 805.99309873539, 84.785200709814, 1402.3841751784
3146, -800.69229497928, 4145.2842666151, -1405.4174108644
3147, 1197.8819761361, 1831.6554419252, -1086.9153698647
3148, -719.58514574838, 2431.1361272355, -1448.621230004
3149, -696.26060459747, 2675.6271500502, -1459.9751437903
3150, 1442.3814735986, 5307.098162505, -732.01225032074
3151, 1345.2036502004, 5545.8848753552, -898.18338299459
3152, 1455.7003956006, 5531.2889300887, -705.1543152021
3153, -811.46403215671, 5806.7547658739, 1399.2256338832
3154, -1128.5142986064, 5986.9458452454, 1158.7759610213
3155, -1452.1709135524, 7179.776046315, -712.39447487504
3156, -1465.2457885606, 6969.6690045387, -685.09928412259
3157, -1411.8535947846, 998.67102441932, -789.28808232082
3158, -1453.4876834588, 1135.1744649094, -709.70402565688
3159, -1510.989029816, 1032.1277689851, -577.25072695992
3160, 443.26661024018, 7156.2945762617, 1555.5773726325
3161, -1493.5244033007, 5775.4885358061, 621.04034228479
3162, -1371.2535197578, 1224.729678894, -857.88695907547
3163, -476.65352704714, 2721.4550451729, -1545.6738547163
3164, -1016.5323949307, 5541.2955181285, -1258.1606177498
3165, -895.23564611589, 5414.9311398987, -1347.1671714837
3166, 308.53774296015, 1275.9909999312, 1587.8005892331
3167, -1128.4970409195, 5379.4263851256, -1158.7927677699
3168, -1021.6751384092, 5231.0694665595, -1253.9881026376
3169, -1039.7417819646, 6978.9622887314, -1239.049343988
3170, -1596.0182937973, 5026.5407244269, -262.73914033551
3171, -1601.3617639591, 5112.2416192147, 227.91829880417
3172, 1368.5744735089, 894.29475505891, 862.15437159474
3173, 1467.3384028538, 853.6384876832, 680.60580478754
3174, -123.9639542568, 3346.5770268875, 1612.7427532142
3175, 1354.4919266054, 741.24006984764, 884.11417292156
3176, -652.16509448766, 4743.6980303011, 1480.1982771007
3177, -535.68087935119, 4989.3314609682, 1526.2215584565
3178, -979.47687673132, 954.10992522475, 1287.2184344347
3179, 1433.3419270603, 2619.0027705821, -749.55798316816
3180, -751.7088281425, 923.64437679446, 1432.215098263
3181, -571.02523021983, 4306.6594951489, 1513.3527138286
3182, -740.23581054493, 4260.0922228176, 1438.1784293984
3183, 464.23189319554, 2662.9169272698, -1549.4499021718
3184, -52.049122437039, 1979.3599512279, 1616.6623453441
3185, -222.55306496355, 2090.9915117583, 1602.1162202772
3186, 5.6918522100632, 1778.4739160446, 1617.4899853843
3187, -202.27659241996, 1854.7556027821, 1604.8023025155
3188, -1608.8329811157, 5280.2520997285, 167.22047982885
3189, -1615.4502800666, 5226.3037878948, -81.404192968649
3190, 1613.4213353178, 4935.0565717789, 114.79479405222
3191, 1607.338859454, 5037.3163535361, -181.01944892488
3192, 1613.4855028233, 4797.6549913957, -113.8893418155
3193, -1564.4654339866, 1765.1364947942, -410.79697645068
3194, -1504.229673035, 1821.9191260671, -594.64219557729
3195, -1467.6808907481, 1638.3854040739, -679.8669376672
3196, 1587.8617586963, 6011.1096743919, 308.22278512432
3197, 1616.566244835, 6058.7379321715, 54.952944054068
3198, 1606.0345804452, 5753.2740218863, 192.2476954721
3199, 1586.853457903, 6282.1164452894, 313.37254688514
3200, 5.5714422727117, 2147.5849713188, 1617.4904046179
3201, -84.653782612934, 2240.02880311, 1615.2832528969
3202, -1336.8650677695, 1165.4700347068, 910.54820881572
3203, -1180.0328717142, 1046.9051941619, 1106.2679023066
3204, -1296.873065033, 976.59842463233, 966.65738666387
3205, -1235.7670104271, 1241.350251126, 1043.6408127034
3206, -1355.0638870312, 2062.9946676169, -883.23729091551
3207, -1402.7938458518, 2310.4385668084, -805.27987435441
3208, -1415.3133166987, 2157.8036006782, -783.06734421456
3209, -1298.7560412331, 2257.3180964559, -964.12602670014
3210, -1477.3788932458, 4757.4500186154, -658.52703497414
3211, 1552.3135360804, 6259.6161538858, -454.56455614307
3212, 1458.4695376803, 6231.6767570089, -699.40893450004
3213, 1471.4876947544, 5968.1816760784, -671.58783058231
3214, -1517.1478464333, 4944.9924337841, -560.86421000332
3215, -1441.0039738908, 5036.157351462, -734.72021697442
3216, -1617.195583062, 875.85885700195, 31.379868145359
3217, -1598.6882800188, 919.5727263778, 245.97161082214
3218, -1603.1214232963, 776.26461166907, 215.19282555028
3219, -1422.4012639585, 1433.3688891298, -770.11745486596
3220, -669.11596037025, 2024.3704427211, 1472.6133510117
3221, -623.70347848638, 2259.5356448343, 1492.4142256505
3222, -480.4335654636, 2047.1830734219, 1544.5031042947
3223, -1540.9522232298, 1158.6777915892, -491.70366657468
3224, -1420.4113552891, 1084.2157494871, 773.78151423118
3225, -1385.0363530023, 1347.8606096534, 835.45230316397
3226, 1608.8771658358, 6544.5043980688, 166.79482981279
3227, 1237.5511523261, 588.33549080813, -1041.5245534198
3228, 1177.9923478466, 720.08167225731, -1108.4404712996
3229, 1189.5001138506, 436.67009026734, -1096.0819901583
3230, 1004.1538794502, 570.38958455369, -1268.0620002134
3231, -730.93330199169, 263.29429384862, -1442.9285353196
3232, -1310.6040103907, 1544.6919429677, -947.95747686689
3233, 746.96238309115, 4684.0349890606, 1434.6962912919
3234, 620.33040795453, 4728.9386540112, 1493.8194117653
3235, 1597.0410159455, 1973.7393809866, -256.44929983902
3236, 1616.6486510045, 2018.0168866356, 52.472747261958
3237, 1612.3441229521, 2180.600009315, -129.04526020691
3238, 1106.8783083333, 6790.1384809256, -1179.4603259717
3239, 877.04078645483, 1664.910909269, 1359.0826718396
3240, 720.47797632185, 1867.6804475208, 1448.1773840366
3241, -1529.5678410774, 726.77246689585, -526.04987362589
3242, -1288.1339518272, 1425.1066134372, 978.27254492292
3243, 1616.5995271697, 4034.5787519596, -53.96497711153
3244, 1591.4448537478, 4059.0624599102, -289.15312116531
3245, 744.50950905086, 3403.336746021, 1435.9706964046
3246, 556.6860210717, 3391.44110451, 1518.685920111
3247, -975.76541163322, 3516.0966451708, -1290.0341512767
3248, -1137.3753551422, 3487.4689963328, -1150.0798022378
3249, -1099.4639088572, 3343.620799855, -1186.3748830451
3250, -969.97242806115, 3322.9892227598, -1294.395510963
3251, 1377.2648533072, 4194.3699369179, 848.20267262295
3252, -801.53887041469, 3545.6542877975, -1404.9347633304
3253, 1189.2247293005, 7165.071245425, 1096.3807701798
3254, 225.3057234291, 609.45881787925, -1601.7314322289
3255, -1486.674430776, 5214.7022367908, -637.26398523433
3256, -1521.9791862887, 5400.8564335416, -547.61812105136
3257, -1554.373824647, 5130.2700610775, -447.46872879801
3258, -1436.953104397, 5457.0958716382, -742.61162512027
3259, 161.72008847227, 2025.0191181058, 1609.3951854608
3260, -1583.1678885231, 5327.114994077, -331.49010053006
3261, -1504.3948907771, 1468.9476922315, 594.22408450319
3262, -1467.8965306226, 1270.750632833, 679.40122562893
3263, -850.74259042046, 4752.8784185109, -1375.6973849087
3264, -1051.0436708686, 4665.1540529166, -1229.4769017461
3265, 1542.0949655586, 2658.2490165229, -488.10794625662
3266, -503.15191719084, 3179.543849129, -1537.2522233606
3267, -708.31551132492, 3839.6100776117, -1454.1648415556
3268, 1595.0152432122, 1394.6551859004, -268.76127682548
3269, 1607.2679267068, 1633.9478129282, -181.64818132736
3270, 1584.0130547819, 4567.6373647584, -327.42769015564
3271, 1511.1979672396, 4505.258261405, -576.70352332117
3272, 1533.6360350334, 4272.6230054682, -514.06883006767
3273, -1500.1897933807, 2522.1822511357, 604.76179925355
3274, -1449.052879208, 2691.0086780439, 718.71552317934
3275, -1362.7799074451, 2577.4889435043, 871.28478344559
3276, -1550.9372252998, 2646.9850794889, 459.23847092708
3277, -1373.6156720943, 6930.4734255983, 854.09966360901
3278, -1332.1419790093, 7179.9897384239, -917.44427501682
3279, 1614.9916332599, 6973.4752094581, -90.045957713842
3280, 1616.4806029567, 7177.3839384737, -57.416985854868
3281, 281.66368642184, 2241.56530556, -1592.787436462
3282, -799.71504231308, 578.27601279897, 1405.9737199173
3283, -197.43331932608, 1286.7196718718, -1605.4053489446
3284, -1606.8513157443, 6985.0665416201, 185.29732618355
3285, -1615.1641724211, 7166.9098047289, 86.896180164446
3286, 1318.301357561, 7164.0039371795, -937.22344222327
3287, 217.73947461968, 3712.7939920682, -1602.7775176837
3288, 1602.3128503075, 1758.6801898898, -221.13294584843
3289, 1541.3993389386, 3208.6485722238, -490.30024262651
3290, -1262.0078037875, 4618.0315625992, 1011.7522192609
3291, 1161.4923627682, -704.54145221017, 1125.7183223307
3292, 1277.1291314822, -735.90989523089, 992.59630843537
3293, -1065.2635126738, 18.486782216565, 1217.1770202259
3294, 1199.3044504086, -537.66825866036, 1085.3456063532
3295, 1608.9275494714, 6034.1730849496, -166.30811932077
3296, -898.90383276773, 3966.911824787, -1344.7223317233
3297, -1576.6927931711, 594.09175161274, -361.03474342808
3298, -1616.1921548464, 672.31602771329, -65.032058347784
3299, -1607.2491779124, 460.36403774178, -181.81399863526
3300, -1617.4843734524, 339.68857029496, -7.1099674557991
3301, -1179.7151245878, 7181.1229493703, -1106.6067390083
3302, -1609.2196262381, 524.50898837688, 163.45777598491
3303, 443.01630350544, 5154.7834425089, -1555.6486765425
3304, 634.91058996663, 5552.6996122445, 1487.681011759
3305, -898.30702815314, 2668.6608028714, -1345.1210849476
3306, 1359.6769176613, 57.281461897837, 876.11924392695
3307, 1182.594245339, 58.628432785508, 1103.5293837914
3308, 1453.1839756581, 463.06283425552, 710.32568789985
3309, -1545.1675767924, 4657.6701388419, -478.29218018857
3310, -1433.4026482106, 4561.5360789906, -749.44185772009
3311, 1513.7100552521, 405.88907926282, 570.07729180247
3312, -1570.9344229564, 4842.9290603363, -385.31972278939
3313, -280.2067189884, 1489.0471973557, -1593.0443950605
3314, -1602.2650296402, 4745.1011135633, -221.47917462382
3315, -195.31826123094, 10.712190133426, -1605.6640454434
3316, -1605.312165726, 5566.4192503997, -198.18955717196
3317, -1616.9059881483, 5420.9646687841, -43.832356657771
3318, -975.44580779098, -62.319092709357, 1290.2758333252
3319, -270.69873232995, 3014.5140149692, -1594.6875701262
3320, -198.35181131415, 3211.1364974861, -1605.2921257355
3321, 647.84023509116, 6342.425563085, 1482.0962451194
3322, -477.02175202069, 2948.085010943, -1545.5602537912
3323, -462.16417153776, -412.62365507821, -1550.0679109467
3324, -1541.9541076374, 5609.4281481958, -488.55274018275
3325, -680.80892646768, 3050.7281207523, -1467.2441704236
3326, 383.48263889902, 2635.296554159, 1571.3838855172
3327, 362.48472351731, 2851.5830710542, 1576.3600715625
3328, -1590.5598641603, 4576.2033702952, -293.98225885623
3329, -1613.5281987759, 4537.7882804624, -113.28283963098
3330, 509.18742937323, 2514.0974726039, 1535.2636294032
3331, 1356.2010689243, -620.41985921661, 881.49016480541
3332, 1438.7489516729, 7150.4660831749, -739.12631130291
3333, 1566.0012354783, 4859.7161603119, 404.90292723112
3334, 1246.2984150449, -364.58766362939, 1031.0414689315
3335, -1326.004244113, 3876.3568050068, -926.2931472241
3336, -1178.9279176997, 3685.8731933591, -1107.4453552515
3337, -1207.3438222314, 3875.9720744182, -1076.3954407743
3338, -1345.81727978, 3650.7692188033, -897.26367331216
3339, 1345.7006905437, -425.82871136281, 897.43852239045
3340, -469.62786108164, 5274.1897003597, 1547.8229621297
3341, -1585.5425938145, 6840.360169993, 319.93895230177
3342, -785.31046473276, 1334.1866546237, -1414.0699148137
3343, 731.48189173724, 1136.5508462718, 1442.6505093267
3344, -1562.9182947349, 3294.4945933316, -416.6445175243
3345, -1609.9908956743, 3221.6580405056, -155.67776284978
3346, -1567.4422003707, 3105.313758865, -399.28836509084
3347, -1577.4604961066, 7178.8254298293, -357.6655326184
3348, -1613.8434814314, 7094.1677860366, -108.69897626611
3349, -756.51627057221, 5284.2854221184, -1429.6815667692
3350, 1021.059536441, 820.55016307861, 1254.489407306
3351, 1258.1585139044, 683.98617993463, 1016.5349988515
3352, 1074.2718038135, 576.68103531794, 1209.2337828275
3353, 1214.6688346272, 929.67481980371, 1068.1225923017
3354, 1486.099889464, -65.730740721199, 638.60266875038
3355, -1491.8485529279, 2095.3481018425, -625.05531365382
3356, -1488.4874635044, 2318.2121819048, -633.01763086832
3357, 265.66760994989, 2767.394578589, 1595.5334440317
3358, -699.52346073937, 1162.9292696247, 1458.4146111018
3359, -635.54169214578, 1367.5301167011, 1487.4115125091
3360, -547.90958894334, 1064.0471260197, 1521.8742827001
3361, -1556.0032583746, 2333.3347852238, -441.76929491262
3362, -420.6962234841, 1262.4120786275, 1561.8325574613
3363, 1433.6997931883, 635.57663125921, 748.87325563927
3364, 1546.6799611404, 629.58308791246, 473.37865161691
3365, -1433.8248009841, 1924.4566070425, -748.63388253733
3366, -1340.4201296744, 3040.7138850657, -905.30664747568
3367, -1455.2161020088, 2932.3448025587, -706.15320324578
3368, -1368.4248134773, 2825.6863581282, -862.3918945929
3369, -1462.75620569, 3151.2427954557, -690.39882149048
3370, -1375.7810988539, 3314.1639104015, -850.60720549278
3371, -1314.0136313433, 3186.2529030098, -943.22554388859
3372, 1527.730651974, 820.57625556181, 531.36174591237
3373, 893.10781036435, 2457.0569297548, 1348.578766356
3374, -1209.4340291762, 2971.7323424741, -1074.0463579709
3375, 1609.3213068491, 5528.8642932275, -162.45362821885
3376, 1617.4905506403, 5634.8562762548, 5.528886814181
3377, 925.11338841158, 2248.1317511279, 1326.8275956512
3378, 161.35079352186, 1437.9560648599, 1609.4322512706
3379, 67.050345103378, 1600.8607762893, 1616.1096810618
3380, -1507.0960764216, 5348.3604280999, 587.33948141994
3381, -1498.090816612, 5580.7166650368, 609.94274746316
3382, -1434.0538494359, 5414.6319552875, 748.19503267399
3383, 344.27896051752, 2069.4547054112, 1580.4360940402
3384, 357.41559544432, 1886.9516540169, 1577.5171447985
3385, 186.68943866911, 1849.034170909, 1606.6901703469
3386, -1577.6513749263, 5487.5478156699, 356.82262987794
3387, -1142.8685114108, 2135.6561822704, -1144.6212542259
3388, -1107.0727713976, 2444.4317988653, -1179.2777996851
3389, -924.20430773991, 2426.8666124474, -1327.4609777899
3390, -1617.0122726535, 1489.1005837846, -39.718510645085
3391, -1617.1184571177, 1236.0844829269, -35.130409182057
3392, -1611.9132822663, 1466.094628517, 134.3198438554
3393, -1517.8366017925, 2111.1846234725, 558.99758519958
3394, -1506.2957694559, 2270.4436637353, 589.38892500563
3395, -1593.2265494527, 1618.8669501729, 279.16914607255
3396, -1617.2703630265, 1693.4502251201, 27.254777125006
3397, -1586.4455436377, 1886.4719954041, 315.43111303761
3398, -1604.3007712844, 1318.89946387, 206.2165979166
3399, 194.64774207204, 869.94877195391, -1605.7454675341
3400, 416.41954673433, 921.84290964309, -1562.9782503597
3401, -1145.4942998273, 4480.8443651192, 1141.9934584152
3402, -964.87649769001, 4647.6910620889, 1298.1985958263
3403, -1400.6137665365, 297.69054825865, 809.06571240443
3404, 1234.4945888188, 3545.7755483018, 1045.1456167334
3405, 1068.0314462108, 3611.2827408905, 1214.7489781452
3406, 1489.8044534358, 2768.2063445014, -629.91185139101
3407, 815.7351380436, 5591.5790171149, 1396.7399308966
3408, 826.01387223572, 5349.7198359275, 1390.6859217214
3409, -906.43540199658, 5498.9083789393, 1339.6570874695
3410, -373.4438628197, 1683.554663658, 1573.7998383919
3411, -579.21476324171, 1802.6372455713, 1510.2372356828
3412, -371.55657234851, 1902.5031124256, 1574.2464748395
3413, -409.41187309469, 2947.9640157488, 1564.8284788337
3414, -382.33482761661, 2815.6492012759, 1571.6635548333
3415, -555.12620930154, 2831.6122368756, 1519.2567728157
3416, -573.15337272824, 2643.0246665483, 1512.5480029838
3417, -1237.8235106426, 4045.0829256251, -1041.2008482999
3418, -1101.5134902763, 3904.9475611432, -1184.4721527918
3419, -1080.2313575235, 4095.5607836149, -1203.9129803366
3420, 1209.4044671096, 400.110866229, 1074.079645527
3421, -1423.4866144979, 5564.1170997267, 768.10943773999
3422, 1591.5911724578, 816.20474547969, -288.34664859211
3423, -1330.0773965219, 5534.6144666776, 920.43488051115
3424, 1538.7273932897, 2872.1978455688, -498.62236125129
3425, 1564.5405772068, 2768.4054773069, -410.51069690519
3426, 1540.6855789033, 757.74595979634, -492.53852332513
3427, 1549.109803771, 558.57917807792, -465.36551855551
3428, -565.55149866393, 1552.9864439316, 1515.406794349
3429, -506.76178944964, 1681.0000881924, 1536.0659942704
3430, 1540.6619237476, 975.35485421532, -492.61251173142
3431, 1591.9132629042, 1024.0320744139, -286.56310542285
3432, 1443.9057712186, 959.70403057639, -729.00094227769
3433, -1543.8222159058, 5607.6267394129, 482.61704867922
3434, -1594.5934879214, 5710.6798725451, 271.25238852138
3435, 1102.4549366074, -152.01702600232, -1183.5959457306
3436, 1112.9498134859, 70.368116509531, -1173.7329179424
3437, 567.61318698319, 693.21919734138, -1514.6357713862
3438, -1553.9016324358, 5757.6250813667, 449.10574112694
3439, 419.2580867072, 750.55975477802, -1562.2192249267
3440, 18.412114851494, 2816.2790227454, 1617.395203414
3441, 127.66644680804, 2644.6956746731, 1612.4538841032
3442, -140.3335858246, 2696.3634665073, 1611.400860956
3443, -33.752123105276, 2519.552638092, 1617.1478114835
3444, -743.3401616741, 2890.8201077858, 1436.5763655449
3445, -776.41528284813, 2698.5832943467, 1418.9734171435
3446, -528.78098383327, 2998.8080115985, 1528.6258277081
3447, -1535.7641823073, 2524.21972952, -507.67570982065
3448, -1484.6811853071, 2464.6850191496, -641.89409406457
3449, 1571.9471201975, 187.15608689205, -381.16728781824
3450, 1187.0318389439, -281.05925222252, -1098.7545965017
3451, 1005.6982028426, -283.67664203584, -1266.8375487011
3452, -334.48165141472, 3878.1890729202, 1582.5385539907
3453, -240.09571254941, 4063.6274358283, 1599.5812885925
3454, -133.50685207155, 3849.6162435936, 1611.9808219858
3455, -811.10572196356, 1479.6078763865, 1399.4333702602
3456, -870.66076928504, 1255.3967810365, 1363.1786657764
3457, -1008.1996392248, 1389.9423238226, 1264.8477131525
3458, -1048.7796325945, 1140.1528449173, 1231.4087592083
3459, -717.27121901395, 1669.9612141459, 1449.7683430032
3460, -1078.9809199219, 3264.7943474607, 1205.033785603
3461, -977.1801490266, 3396.9265746243, 1288.9628413373
3462, -883.61762775909, 3158.2268278414, 1354.8159055434
3463, -1155.1866882613, 3490.269572736, 1132.1881315682
3464, 1608.6238991493, 262.37598694911, -169.21997838809
3465, -832.6655179524, 3831.9728603913, 1386.7135195177
3466, -928.84718567757, 4079.7884492174, 1324.216430822
3467, -718.79408176255, 4049.9696248599, 1449.0139122945
3468, -986.75296797549, 3899.4588029651, 1281.6492617684
3469, 987.0153621236, -686.05312979623, 1281.447199432
3470, -1270.4168609399, 2913.1329022468, 1001.1729368293
3471, -1140.1282220089, 2837.9987483248, 1147.3508126893
3472, -1308.8304209942, 2749.0981102822, 950.40474487459
3473, -1192.0681708381, 2660.2465580487, 1093.2884916959
3474, -1350.4401927225, 2964.1120349591, 890.2907030176
3475, -1243.2589796849, 3096.1503991546, 1034.7044792755
3476, -1379.4231279176, 3158.7907390711, 844.68815794116
3477, -459.22823893794, 3145.2601210778, 1550.9402549944
3478, -326.79340560132, 3025.6270311649, 1584.144033873
3479, -1270.5457632365, 1911.5431926867, -1001.0093473698
3480, -1374.858267524, 1753.3995891707, -852.09799566769
3481, -1605.4910013903, 1733.8818125935, -196.7355952919
3482, -1590.0893348396, 3679.8550633127, -296.51670649296
3483, -1558.5173506635, 3524.9494649706, -432.81626318876
3484, -1218.0586888171, 3247.0697781797, 1064.2552704108
3485, -1102.1163404595, 3031.8969633094, 1183.9112391105
3486, 1194.2041725952, 5015.5391565776, -1090.9549230634
3487, -808.82858051087, 2287.7651867368, 1400.7507192034
3488, -809.97362740199, 2133.7747003854, 1400.088916074
3489, -803.62877426896, 2490.3990755369, 1403.7403759837
3490, -1587.803419702, 1126.4503629924, 308.52317641106
3491, -1538.3233918651, 1193.3679377308, 499.86737445111
3492, -1610.9714101505, 1032.1194487802, 145.18045900823
3493, -1205.3838999147, 3734.0635196621, 1078.5897755062
3494, -1311.8755935041, 3624.2456079608, 946.19695474474
3495, -1025.5229420412, 3718.7322587835, 1250.8432936812
3496, 1232.1853083745, 3250.934345831, -1047.8671747058
3497, -698.79727814567, 3075.0901201893, 1458.7626997069
3498, -1036.6302549452, 5426.9304368471, 1241.6537216681
3499, -1209.147263923, 5487.1323550054, 1074.3691842879
3500, 1366.008317802, 1160.9511724054, -866.21448019283
3501, 1490.8111492928, 1174.2461876354, -627.5255908282
3502, -931.00705386075, 2962.7967158192, 1322.6988000529
3503, -972.82337820227, 2761.5923720993, 1292.2542028653
3504, -333.19013274255, 2564.3655043969, 1582.8109759043
3505, -231.77273480751, 2875.2596338409, 1600.8084361971
3506, -1613.7564004921, 2831.3513751505, 109.98422555421
3507, -1617.3663045928, 3029.6281578645, -20.796316211269
3508, -1608.8338879866, 3152.9774097808, 167.21175456826
3509, 652.39527308631, 5178.6466100153, -1480.096840634
3510, 449.25767466635, 5372.1480624064, -1553.8577128403
3511, 864.71223731575, 5200.3321783202, -1366.9597640883
3512, 47.771717059454, 4665.22444998, 1616.7943941792
3513, -40.314144489488, 4880.897510694, 1616.9975323896
3514, 1324.8037108449, 5609.6722630546, 928.00936295477
3515, -1113.373521626, 1325.1814411751, 1173.3310067249
3516, -1175.2289471036, 1509.5091808323, 1111.3699527564
3517, -1543.7420768567, 3203.3220296102, 482.8733272217
3518, -1592.21425135, 3257.1423224758, 284.8859908769
3519, -1474.6885133873, 3350.9154202216, 664.52993798883
3520, -1469.6139711091, 3000.81282581, 675.67819701465
3521, 1306.1780952794, 5829.3819592956, 954.04666207288
3522, 1475.0215095174, 485.47319660678, -663.79047632603
3523, -134.23749630195, 809.8776481138, 1611.9201421245
3524, -314.0291215553, 772.75921093601, 1586.7236560962
3525, -1566.5981284155, 1395.2381436431, 402.58732474462
3526, -1607.1534914395, 2338.7729624491, 182.65789047817
3527, -1610.5756294599, 2070.2954911128, 149.50716300558
3528, -1617.2584827539, 2180.7978579383, 27.950849010577
3529, -1582.828991185, 2149.8444709792, 333.10454014377
3530, 1553.6741024176, -173.47549792346, 449.89224651784
3531, 1603.9909998804, -237.01963969813, 208.61237332111
3532, 1567.6837572332, -206.65198891765, -398.33891010958
3533, 763.58756130041, 613.72657818979, -1425.9173490169
3534, 941.35065008968, 833.75057170683, -1315.3574432738
3535, -1006.9037629029, 4461.4727491188, 1265.8795607213
3536, -581.56534570363, 5125.8372311283, 1509.333627359
3537, -379.0096962708, 5074.077682094, 1572.4687278712
3538, -1253.5481833866, 2491.9584934478, 1022.214851158
3539, -1396.3048427245, 2855.8839169807, 816.47966060648
3540, -1401.0707039216, 5293.6154975827, -808.27416921032
3541, 950.57181422943, 4654.8879448874, 1308.7090876098
3542, 683.14899713697, 371.12021074891, -1466.1560959566
3543, -410.48366951503, 3661.0720534301, 1564.5476685168
3544, -303.49326334213, 3498.0291207257, 1588.7725101807
3545, -533.36535490574, 3428.271862784, 1527.0323009636
3546, -237.03802565997, 3694.438637114, 1600.0372571885
3547, -624.67648496731, 3250.4079488655, 1492.0072181893
3548, -665.23819721214, 3499.8680612467, 1474.369150169
3549, -810.00426136304, 3384.1427450361, 1400.0711933947
3550, 316.91827019223, 1547.8400126513, 1586.1491291863
3551, 238.68012042181, 1690.3516586344, 1599.7931272872
3552, -1597.5637271976, 803.4766905241, -253.17264374859
3553, -1501.0154050646, 949.37337085872, 602.70971765746
3554, 1310.5498427216, 828.0190752379, -948.03236218095
3555, 1343.0422945938, 628.67856452073, -901.41202839336
3556, 1457.1865793833, 697.40709679416, -702.07800340497
3557, 1251.0493727299, 1025.4110005439, -1025.2715332984
3558, 1108.1351284247, 917.18942574728, -1178.279587853
3559, 166.65024627614, 4225.9254603666, 1608.8921484724
3560, 151.27948841921, 4523.040961476, 1610.4101236591
3561, 9.6197485724353, 4384.0164838211, 1617.471394009
3562, -1412.171319482, 2560.9380441266, -788.71947765501
3563, 1303.9263907127, 1677.7021558942, -957.12184052129
3564, -1266.767088535, 2498.2280885458, -1005.7869522939
3565, 1470.9294629505, 1694.1646893949, -672.80960532986
3566, 1604.0372914353, 2170.8968699471, 208.25613480769
3567, 1605.9545312165, 1872.6639853636, 192.91524995508
3568, 1526.3370756046, 1819.4746926297, 535.3516429739
3569, 1200.865189133, 190.13034685111, 1083.6184972252
3570, 1337.4808956092, 4368.6797058572, 909.64339379798
3571, 1615.3643687695, 2305.5496220296, 83.091552577825
3572, 1605.1536226379, 2384.7576127787, 199.46954086357
3573, 1014.5050574655, 1290.1282486452, 1259.7959113987
3574, -1363.0027355659, 5494.5870887969, -870.93615887718
3575, -1323.9511062875, 5658.2923420163, -929.22533228497
3576, -1452.1911605512, 5645.8931459807, -712.35320116991
3577, -1223.4397525797, 5517.4430929827, -1058.0649421504
3578, 1614.9771805299, 857.3404724797, -90.304797035785
3579, 1395.9023584661, 5216.5039711684, 817.16758111719
3580, 1473.7569810677, 5269.6412346597, 666.59328736067
3581, -662.27986940056, 696.99540601179, 1475.7003844232
3582, -1000.7083908648, 3758.4148705841, -1270.7828163981
3583, -838.51457079974, 3705.9484122696, -1383.184573568
3584, -530.46317531979, 3932.2357678476, 1528.0428886748
3585, 826.53840043638, 1311.249237972, 1390.3742383272
3586, -558.94625950852, 4164.1425918846, 1517.8555033274
3587, -1447.3202977714, 3487.0306660686, -722.1981761669
3588, -1616.2627657934, 5658.1174215573, 63.252841120466
3589, 1529.0446069941, -358.8525661836, 527.56880103203
3590, 1581.821194079, -266.3456942148, 337.85789906772
3591, 848.34208589772, 3221.8515584863, 1377.1789844805
3592, 834.18477786711, 2946.1798206576, 1385.8001321889
3593, 625.16777389523, 3109.857554826, 1491.8014293072
3594, 981.44113831839, 3754.0930503378, 1285.7214091771
3595, 848.99230996287, 3601.4860459546, 1376.7782347292
3596, 1322.8153606839, 515.40141123254, 930.84143200588
3597, 698.60500643428, 3280.3830738958, 1458.8547888618
3598, -1613.1969747843, 4348.1312223285, -117.90576977729
3599, 856.4547363981, 3401.8597232853, 1372.1485103666
3600, 1354.3217310816, 2336.9715301148, 884.37486323405
3601, 1432.6666818189, -318.05690920241, 750.84780668658
3602, -1586.36198227, 5313.9516917187, 315.85109024391
3603, -1565.9183318621, 5197.6850836328, 405.22342965113
3604, -891.9897980423, 2102.0551780877, 1349.318513246
3605, -894.22259608454, 1846.6974778734, 1347.8398267791
3606, -1075.1998465165, 1990.699413824, 1208.4086808903
3607, -1148.5284238809, 1799.7222705369, 1138.9419254456
3608, -1211.391624037, 2073.976610141, 1071.8379463394
3609, -1013.735264629, 1599.3230588119, 1260.4154328028
3610, 1328.1527437382, 5057.5334386412, -923.20991074662
3611, 222.32903506356, 7167.9652582981, 1602.1473247388
3612, -334.12360321001, 4359.3243562241, 1582.6141879112
3613, -121.9839271806, 4538.0683135365, 1612.8937260432
3614, -1254.269841024, 1313.6662706187, -1021.3292397154
3615, -1331.5900146476, 1019.9091829865, -918.2452193672
3616, 1144.1326044311, 5759.152991032, -1143.3577014556
3617, 479.53922871743, 483.09694762562, -1544.7810129986
3618, 230.61539718302, 5507.4330886913, -1600.9755740117
3619, 652.54378621988, 610.98907676985, 1480.0313702979
3620, -1270.5325503063, 3419.1619579968, -1001.0261178471
3621, -1303.1532631079, 3416.0217897036, 958.17421320506
3622, -1430.1662168844, 3520.1346062169, 755.59965728055
3623, -1519.9733265773, 3471.7936772417, 553.16122106793
3624, -1582.2731272382, 2491.4296036255, 335.73501577854
3625, -1545.5790634132, 2359.8732242803, 476.96080419531
3626, -1430.0728664099, 2357.6185700869, 755.77632058582
3627, -1160.7294601996, 2427.2192969881, 1126.5049357303
3628, -1302.2190116042, 2308.0914885806, 959.44353445965
3629, -1597.012173883, 155.60709920771, 256.62884964392
3630, -1600.0418335123, 339.60631223172, 237.00713282615
3631, -188.8413963385, 4971.3611166462, 1606.4386627036
3632, 1398.6459422085, 2159.5496068798, 812.46278582075
3633, 1294.2064183762, 2088.9498636348, 970.22471450374
3634, -1271.7437403014, 4297.5837847144, 999.48692287808
3635, -894.17837410449, 4259.3754343382, 1347.86916475
3636, -1460.5403253004, 4003.4941010645, 695.07424651712
3637, -1394.6729054098, 3702.7471932863, 819.26414355558
3638, -1518.5965032916, 3365.4264612428, -556.92989701631
3639, -1588.727562982, 2604.7197781788, -303.72846527975
3640, -1562.4835885246, 2801.1249147577, -418.27178435939
3641, -1501.3068816991, 2707.0170944016, -601.98330289381
3642, 1325.4820038957, 1353.599966964, 927.04029435003
3643, 1221.1697988642, 1238.7001760246, 1060.6840115426
3644, 1100.6136234244, -351.04844984662, -1185.30835732
3645, -602.20732907088, 5136.4271249585, -1501.2170338806
3646, -489.68871960691, 5008.7907739054, -1541.5937233557
3647, -1376.1495038242, 4284.7096920752, 850.01105470709
3648, 1454.8083522492, 2000.1709205993, 706.99286292434
3649, -656.28613238239, 4620.5400422493, -1478.375717618
3650, 896.28774410233, 1456.1012868646, 1346.467426183
3651, 700.97199077785, 1473.8382898716, 1457.7189434678
3652, 1473.9563922021, -574.03185773907, 666.1522377704
3653, 1524.6529472017, -517.93184055785, 540.12928136617
3654, -1039.8978701748, 4862.5532176478, -1238.9183466258
3655, -874.8725717594, 1037.6380035627, 1360.479412995
3656, 486.78792992503, 1665.6976492613, 1542.5121591998
3657, -449.72983366107, 2418.117034512, 1553.7211225684
3658, -202.92003005062, 2387.752039648, 1604.721069658
3659, 1593.099419109, 1235.4244908065, -279.89371346032
3660, 875.93287845602, 5435.0689093995, -1359.7969857445
3661, 1054.0774781596, 5197.4530183768, -1226.8768968551
3662, 1236.145193365, 5619.2515878547, -1043.1928445501
3663, 1049.8011797345, 5650.3379387265, -1230.5379852033
3664, 1535.9486981314, 1647.1604814081, 507.1171922825
3665, 1533.1870125123, 1428.2627024848, 515.40647518586
3666, 1581.4167156504, 1558.4148072142, 339.74611323964
3667, -1147.1334384028, 4592.477038222, -1140.3469316389
3668, -1264.6472497294, 4487.8503161901, -1008.4510814868
3669, -1183.6652339339, 4311.2756085828, -1102.3805440846
3670, -1474.364585722, 575.8044263348, 665.24831331528
3671, -184.27893399179, 1713.1686229247, 1606.9684267237
3672, 356.34693004949, 1752.7715779882, 1577.758890149
3673, -240.99252759833, 2819.6498134555, -1599.4464203723
3674, 989.30376488465, 2811.659099787, 1279.6813317327
3675, 535.44747746987, 1886.032698088, 1526.3034589724
3676, -96.746582686949, 3212.474537578, 1614.6040842071
3677, -89.636443049975, 2983.8070582823, 1615.0144142011
3678, 1412.5839473662, 6571.2294252396, -787.98022922113
3679, -1549.0305798448, 5837.9418215866, -465.6291579205
3680, 1539.7382201573, 3070.2605230483, -495.49214260859
3681, 1497.670459334, 3014.4766942679, -610.97417722718
3682, 1613.8739083613, 1872.5697742204, -108.24628358872
3683, 185.75518555433, 4928.2373235376, 1606.7984506588
3684, -1266.8118943318, 4477.4242829236, 1005.7305177728
3685, -13.23441092239, 4155.1862646936, 1617.4458570127
3686, -554.38448629468, 4861.8698087966, -1519.5275882181
3687, -734.90936153597, 4952.3262222472, -1440.9075196996
3688, -890.79378274284, 5084.511137103, -1350.1083981024
3689, 1295.8482820957, 5741.7967693951, -968.03072254426
3690, 1614.7529869786, 6819.5493515382, -94.228663598612
3691, 1373.7509594244, 5742.789484538, -853.88204775636
3692, 1368.9628509764, 5938.821059033, -861.53755730472
3693, 1489.6035741892, 5147.4852628184, 630.38673983735
3694, 1538.093647198, 5285.3685268452, 500.5738531416
3695, 1535.038470747, 5110.3928111759, 509.86580913684
3696, 1595.211518849, 5287.9191316602, 267.59383425533
3697, 1584.3741380361, 5039.7638346173, 325.67597504623
3698, 1617.2736073116, 5146.8754692882, 27.061579654764
3699, -1372.1447658729, 4134.6106792975, 856.46073552015
3700, 1278.8298763384, 1109.4314246333, 990.40415860616
3701, 1545.8104308878, 1205.0433760694, -476.21041752405
3702, 1559.3200193192, 1246.341101512, 429.91548861432
3703, 1472.6339338018, 1312.1967339035, 669.0706592099
3704, -1563.6958689403, 3455.7389705704, 413.71666567698
3705, 1469.0334418432, 4751.0295666469, -676.93943358799
3706, 1524.3178050002, 4741.8709073929, -541.07437507191
3707, 1524.0998905146, 4922.9883843504, -541.6878932867
3708, 1559.899398007, 2697.2917221637, 427.80850634076
3709, 490.94782034538, 507.57657323998, 1541.1932025863
3710, -495.21634903772, 6292.4145182608, 1539.8269440576
3711, 704.9355526876, 1665.9085119861, 1455.8063458294
3712, 1557.2192598754, 4139.947663708, 437.46362897189
3713, 1201.0288479012, -16.452668260335, -1083.4371031625
3714, -667.66594211736, 3697.8441900999, 1473.2713394811
3715, 366.14653891969, 1052.8186822932, 1575.5135550154
3716, 1584.6487775528, 2199.2489845356, -324.33701885606
3717, -1410.274640403, 5763.6080012553, 792.10585696366
3718, 910.10315993712, -60.743962463719, 1337.1680852729
3719, 1135.1119129551, -123.58816211387, 1152.3138439971
3720, 1534.9156541244, 4342.2286735733, 510.23542088315
3721, 1604.7215807497, 4707.2652666306, 202.91598822186
3722, 1184.5402690671, 3081.695904925, 1101.4402393949
3723, 1095.1814714023, 2850.815943164, 1190.3292799462
3724, 1042.3976060534, 3032.1535308668, 1236.8158637785
3725, 1228.197722138, 2895.8388422514, 1052.5381728636
3726, -536.74276164455, 806.05911856855, 1525.84843868
3727, 1299.9805897083, -185.33821502849, 962.47426790619
3728, 1599.6357993193, 4339.9372376355, -239.73226636407
3729, 1616.6953767709, 5882.3559546815, 51.012829049992
3730, 1261.4572249132, 1798.3416561178, 1012.4386004664
3731, -729.54714841949, 3303.7761949263, -1443.6298723125
3732, 1577.7833512496, 5520.6485535493, 356.23860896838
3733, 1601.9534523514, 5566.2090907409, 223.72167194887
3734, 1613.8439770754, 5467.3556604968, 108.69161723576
3735, -423.82845486836, 931.38971904245, 1560.9854870702
3736, 1615.6306910424, 6736.5821529745, 77.741367122036
3737, 1237.6367917665, 2288.1151948371, 1041.4227871839
3738, 1090.320857008, 2255.7607675916, 1194.7831095113
3739, 891.35385768157, 6263.7112976878, -1349.7386970804
3740, -1617.1042015216, 6541.2705631972, -35.780601183597
3741, -409.59870877075, 6510.1093908921, 1564.7795844058
3742, -1607.6829931364, 3861.1511519672, -177.93718998546
3743, -1580.7472304782, 2733.3111898676, 342.84755115864
3744, -1582.2793121384, 2937.5963168465, 335.70586586871
3745, -37.313291699059, 3675.2488569105, 1617.0695619739
3746, -169.27900344243, 3517.1102991793, 1608.6176888849
3747, 1010.324437768, 3227.3830388455, 1263.1511312779
3748, 241.29750076177, 416.97198596449, -1599.4004395792
3749, -608.26701453143, 931.52063581813, 1498.7719936778
3750, 1591.3590526633, 1704.693027744, 289.62495663615
3751, 1130.8076699449, 1994.7919315651, 1156.538051079
3752, -683.78861966058, 2897.9498358899, -1465.857896804
3753, 1607.6292205624, 4621.3640745583, -178.42236181022
3754, 1579.449751758, 4767.5668314962, -348.77604801877
3755, -1535.2675605923, 7182.4291962993, -509.17557619433
3756, -332.54798219093, 4823.8920808784, -1582.9460159907
3757, 1447.1693786088, 4370.7342978762, -722.50054644757
3758, 893.71069284242, 601.5219179569, 1348.1793083634
3759, -1312.6469725982, 5390.9496236976, -945.12653932087
3760, 1390.9985138466, 6740.7864401321, 825.48736179089
3761, -1615.7385607831, 4105.4600520917, -75.466238800025
3762, 1602.808096196, 6279.6221622403, -217.51426796557
3763, 546.38783330502, 2937.1858664058, 1522.4212904503
3764, 1466.8001292535, 5745.7239654908, -681.76508477761
3765, 1576.4457767167, 1794.6192338097, -362.11181018036
3766, -1508.7770897726, 3609.5930761727, 583.00767008437
3767, -997.67965519612, 2228.3480126104, 1273.1620303825
3768, -1175.242568433, 2269.8636659198, 1111.3555485725
3769, 1258.1141209606, 5873.8986473149, -1016.5899412445
3770, -1371.2360507843, 5347.0048174268, 857.91488099318
3771, 1524.7321421124, 1889.6591099142, -539.90568140114
3772, 1448.0873969172, 2395.7026285237, 720.65882419468
3773, 1409.2562500657, 4620.0305546658, -793.91628755858
3774, -1469.107323532, 4280.0768799495, 676.77907912746
3775, -753.73622795856, 2185.9889231221, -1431.1491706537
3776, -401.80594976434, 2237.3249553641, 1566.7987199171
3777, -1527.764343436, 1896.4488971934, 531.26486889843
3778, -343.20613540387, 3301.8995674014, 1580.6694147168
3779, 1203.9027608407, 1517.3885318011, -1080.2427469972
3780, -204.52313810544, 3130.5181132719, 1604.5175399414
3781, -10.7850685836, 874.28438276526, 1617.4640435866
3782, 1617.4724509987, 4676.7662205571, 9.4403527624999
3783, -1331.51563924, 1596.9027457081, 918.35306525279
3784, -1611.3228130499, 1987.3572744746, -141.22691721097
3785, 1574.5469732682, 4960.8351212071, -370.28108103453
3786, 1617.4986753055, 1739.9521297313, 2.0701171375577
3787, 230.69768033586, 5338.9113430217, -1600.963719229
3788, -1518.4665216209, 2822.0366871145, 557.28419385138
3789, 1505.1129518754, 4538.224177078, 592.40294740748
3790, -1034.8429412673, 2517.9949123862, 1243.143731396
3791, 1558.940571503, 5858.8188429241, 431.28939764619
3792, -1187.5610200405, 3212.0649568433, -1098.1826231008
3793, 1526.4521032785, 5483.0167465958, 535.02357555209
3794, -1614.5731802465, 1911.1163125807, 97.260966624946
3795, -1613.1405724547, 5459.6972635611, 118.6749489172
3796, -1535.1901515827, 2939.0098956357, -509.40892069485
3797, -424.7617542779, 4123.6198710658, 1560.731784165
3798, -132.78942713955, 4234.5654274076, 1612.040079539
3799, -1617.3948004545, 6097.0996725484, -18.447478489318
3800, 1616.0420344371, 5348.747443648, -68.661437010749
3801, -864.55955617575, 3590.8986443436, 1367.0563352785
3802, -1601.6147901043, 2908.5650142615, -226.13339894667
3803, 1345.0216217391, 2945.9769791424, 898.4559460843
3804, -603.06005304254, 2451.1782001875, 1500.874685783
3805, 1574.3075601981, 3934.815737946, 371.29766482311
3806, 1567.8391334851, 5713.4278899953, 397.72691826505
3807, -906.12242848161, 3712.2691254837, 1339.868797533
3808, -607.50251280839, 5975.1692826657, -1499.0820347571
3809, 1541.5042877804, 2885.1770590279, 489.97018353649
3810, -1237.4968147087, 1673.5332818625, 1041.5891145677
3811, -1010.3300464879, 3539.6208252403, 1263.146645154
3812, 1415.6367936098, 1468.5259543612, 782.48240783946
3813, 1613.3094232694, 3810.1718525167, -116.35701435696
3814, 1139.5125125883, 1288.9584200464, -1147.9623180465
3815, 1115.522652397, 1160.2106136931, -1171.2879500743
3816, 1025.0555072658, 1187.2793398537, -1251.2263812053
3817, 1050.7182816206, 1316.027146207, -1229.754992943
3818, 1600.2734874174, 7187.5868855146, 235.43792275059
3819, 1586.7217638673, 7103.7890178823, 314.03868244181
3820, 1603.3801929321, 7003.6493189271, 213.25620017521
3821, 1611.9434952411, 7087.4471865594, 133.95677717114
3822, -815.32209624311, -682.24630792443, 1396.9810769576
3823, -698.98120436073, -596.44131765082, 1458.674578496
3824, -779.17764486694, -497.02117624369, 1417.4584465654
3825, -891.89999113417, -582.8261665173, 1349.3778773253
3826, -304.01711277805, 4402.6014600147, -1588.6723529847
3827, -454.02371694663, 4522.7145743508, -1552.4718079405
3828, -336.97215949909, 4633.5774790672, -1582.0101180847
3829, -184.68342265079, 4513.4643647311, -1606.9219904519
3830, 1592.9852453978, 3643.6010982078, 280.5427916465
3831, 1566.1500248774, 3707.7027948155, 404.32703295288
3832, 1549.7128878984, 3591.2835925133, 463.35322927715
3833, 1581.2170532348, 3527.1818959055, 340.67415598984
3834, 788.14285703784, 1808.099167618, -1412.4932165856
3835, 763.47811560131, 1620.4823110231, -1425.9759524613
3836, 584.06208567976, 1646.4779343763, -1508.3692286942
3837, 610.18571596899, 1834.0947909713, -1497.9918698135
3838, -1556.4731487859, 6472.2017243001, 440.11088047046
3839, -1501.3876085032, 6477.8372362252, 601.78193644618
3840, -1510.0120128321, 6632.4645946385, 579.80166531565
3841, -1562.7317286264, 6626.8290827134, 417.34373643835
3842, -1558.0676014649, 4752.6006881132, 434.43250254251
3843, -1590.9532958672, 4643.7367670247, 291.84561050187
3844, -1568.7587986559, 4527.9691411438, 394.08385102612
3845, -1526.7242258149, 4636.8330622323, 534.24656134596
3846, 1426.7750639927, 3449.0545377348, -761.98370505462
3847, 1461.8645738607, 3328.6035682066, -692.28478077379
3848, 1405.2458706566, 3269.3121238129, -800.99331645322
3849, 1364.979323984, 3389.7630933411, -867.83506214967
3850, 1614.7718868622, -439.10326034987, 93.904224609591
3851, 1604.6412225246, -544.00739063512, 203.55047770685
3852, 1614.3350129016, -651.83376629552, 101.13711544209
3853, 1617.4753416328, -546.92963601026, -8.9313610334584
3854, -514.20984822196, 6122.3255167244, -1533.5887590849
3855, -595.28451666575, 6293.4011850811, -1503.9755962841
3856, -480.05534703348, 6377.0576381263, -1544.6207022388
3857, -396.97659178928, 6205.9819697697, -1568.0292840286
3858, -1278.339724186, 103.25727068098, -991.03672967659
3859, -1204.2449510265, 110.66154014308, -1079.8612632775
3860, -1198.6349448829, 5.3681426910152, -1086.0849501331
3861, -1273.1888487541, -2.0361267710869, -997.64543070581
3862, -1393.8267177139, -135.58567025986, -820.7029492983
3863, -1422.1750214687, -5.5338910191995, -770.53517655623
3864, -1358.4915713739, 65.016064140463, -877.95609258437
3865, -1326.3574325039, -65.035715100203, -925.78734666321
3866, -1607.8592661067, 4340.5083007263, 176.33726320568
3867, -1593.1265174621, 4437.39642504, 279.73943118408
3868, -1607.3963664511, 4537.8473110082, 180.50809156286
3869, -1615.69506306, 4440.9591866946, 76.391839902255
3870, 559.2526138648, 295.29340073718, 1517.7426540377
3871, 466.62206406813, 202.27118343575, 1548.7317712647
3872, 559.72068613149, 108.38545388215, 1517.5700983864
3873, 650.30057042176, 201.40767118359, 1481.0183719688
3874, -487.47045968641, -759.55397539498, -1542.2965995337
3875, -722.5769662621, -752.29958800518, -1447.1312234305
3876, -594.75374581777, -644.35356340016, -1504.1855709439
3877, -101.12987693492, 6296.5478376528, -1614.3354663734
3878, -289.81500167116, 6280.5760265295, -1591.3244530285
3879, -301.6957298217, 6435.1560581426, -1589.1148280119
3880, -113.18778673177, 6451.1278692659, -1613.5348694512
3881, -1549.6842547416, 7073.3260079323, 463.44898382233
3882, -1529.4992423968, 6929.1600677126, 526.2492921683
3883, -1468.6727562795, 6986.1257301832, 677.72161317331
3884, -1495.0843729524, 7130.2916704029, 617.27543913032
3885, -1204.2900314359, 261.1926442583, -1079.8109881753
3886, -1298.283811177, 234.60910393736, -964.76183363345
3887, -1314.8487068202, 375.74085576205, -942.06110639032
3888, -1222.8678652129, 402.324396083, -1058.7258541424
3889, 1553.7506052435, 2154.498324846, 449.62796477263
3890, 1512.8073099638, 2242.4890412707, 572.46859557544
3891, 1489.3415251799, 2148.9011633613, 631.00560328311
3892, 1535.0422636276, 2060.9104469366, 509.85438987718
3893, 1367.6511869091, -607.69828011303, -863.61824954439
3894, 1440.7631769088, -721.29188149072, -735.1923000574
3895, 1296.2558997431, -753.90639862232, -967.48482798503
3896, -322.92821903282, 4655.9304914558, 1584.9364704468
3897, -269.52357005706, 4803.1945879377, 1594.8866088797
3898, -394.72565157231, 4847.2029527073, 1568.5974340126
3899, -447.17689327922, 4699.9388562254, 1554.4578077636
3900, -700.1226145842, 1639.7548179812, -1458.1270776403
3901, -825.53393595957, 1608.6641862862, -1390.9708733755
3902, -854.22160257028, 1739.1751058376, -1373.5398442354
3903, -730.23091429713, 1770.2657375325, -1443.2841237278
3904, -1054.2608797206, 4207.5983028067, 1226.7193026486
3905, -1097.9248663931, 4296.106280551, 1187.7993255411
3906, -1161.1804198632, 4240.3036726973, 1126.0400892181
3907, -1119.7080431844, 4151.795694953, 1167.287517293
3908, 984.5318422862, -303.33376534334, 1283.3562644584
3909, 855.38062107734, -386.52515102343, 1372.8183576444
3910, 933.6835854944, -491.21218487377, 1320.8108161952
3911, 1057.4198343513, -408.02079919369, 1223.9973627098
3912, -1197.3229697167, 776.03770537057, 1087.5311288366
3913, -1218.4310894145, 598.45824258623, 1063.8289008804
3914, -1098.0088209951, 561.84197892853, 1187.721717835
3915, -1074.4929636255, 739.42144171287, 1209.0372703599
3916, 469.80269093591, 6946.0373565949, 1547.7699058934
3917, 303.00712908548, 6957.6585757589, 1588.8652962801
3918, 275.83816986751, 6810.6897915978, 1593.8066237923
3919, 443.31099649953, 6799.0685724338, 1555.5647239452
3920, 1131.953912374, 4083.1510420065, -1155.4161978531
3921, 986.77714826227, 4034.8115593688, -1281.630644791
3922, 949.85320026947, 4183.2032182347, -1309.2307466363
3923, 1098.5677909072, 4231.5427008724, -1187.2047248817
3924, 117.22721244234, 3038.581237861, 1613.246425895
3925, 260.85856804572, 2984.531957109, 1596.326738947
3926, 293.2601904272, 3115.8122781552, 1590.693154166
3927, 150.00252478167, 3169.8615589072, 1610.5295689801
3928, -1278.5614820886, 6119.0580063376, -990.75061772338
3929, -1200.5844309886, 6019.3950491766, -1083.9295521701
3930, -1274.9319172494, 5901.0870825794, -995.41692590529
3931, -1346.0550871227, 6000.7500397403, -896.90688057965
3932, -1569.9858716906, 4062.5172088032, -389.16656163133
3933, -1533.8747238271, 4189.1947207704, -513.35619369427
3934, -1490.1026382443, 4101.2889685498, -629.20614864866
3935, -1535.6095191905, 3974.6114565826, -508.14334057576
3936, -197.76005152275, 2212.9083294104, -1605.3651335512
3937, -308.64459252885, 2104.6537658526, -1587.7798227408
3938, -365.30996149387, 2209.0414577076, -1575.7077400436
3939, -255.12633746089, 2317.2960212654, -1597.2528922916
3940, -1462.7093184983, 3962.6076818679, -690.49815320398
3941, -1433.7796903122, 4151.207301333, -748.72027463421
3942, -1401.4754722441, 4012.5260146511, -807.57213343344
3943, 301.33041095116, 6831.755542082, -1589.1841408207
3944, 480.66597923827, 6763.4302563593, -1544.4307904218
3945, 446.86292364748, 6652.2505522619, -1554.5480942928
3946, 266.59381960825, 6720.5758379846, -1595.3789472557
3947, 594.27624279872, 6952.8689765712, -1504.3742876176
3948, 628.03995118246, 6794.375990204, -1490.5945356531
3949, 445.72603680521, 6921.9232427264, -1554.8744483443
3950, 627.27842590244, 2313.18206429, 1490.915164051
3951, 710.88236654115, 2252.3113716785, 1452.9117354268
3952, 752.9918646642, 2341.8094179751, 1431.5409535705
3953, 670.53292368256, 2402.6801105866, 1471.9686981243
3954, -1386.6849021103, 2114.4479758581, 832.71317526457
3955, -1441.9361199741, 2014.259581704, 732.88912934629
3956, -1402.8100972807, 1920.396527334, 805.25156377832
3957, -1342.5551255759, 2020.584921488, 902.13745337936
3958, -966.68081019747, -470.19489267177, 1296.8556053763
3959, -856.55830928807, -420.08674229002, 1372.0838577833
3960, -904.58279903662, -293.0952427042, 1340.9087253378
3961, -1011.973811444, -343.20339308595, 1261.8301212728
3962, 1040.4766208116, 4378.8516787228, -1238.4323362802
3963, 910.18834102787, 4336.3739560022, -1337.1101053604
3964, 871.87990390437, 4482.3014415716, -1362.3992378036
3965, 1004.9158056271, 4524.7791642922, -1267.4582729229
3966, -1459.2902397196, 312.02728447576, -697.69495215261
3967, -1391.4716389822, 348.63629850659, -824.68959488285
3968, -1376.1129702879, 196.36789739684, -850.07019886916
3969, -1446.2492206732, 159.75888336601, -724.34069449551
3970, 1596.9284954592, 252.65602539138, 257.14904314513
3971, 1558.3123111778, 219.19672721542, 433.55390764203
3972, 1572.2072595557, 86.610450983549, 380.09286102249
3973, 1604.7776203184, 120.06974915952, 202.4723174291
3974, 1333.8602126216, 5037.8043216328, 914.94436070462
3975, 1222.2270254967, 5065.5193086572, 1059.4655955459
3976, 1212.3631798701, 4909.4063779261, 1070.7388897837
3977, 1325.3299534604, 4881.6913909017, 927.25765807611
3978, -808.64820893312, 7065.8627714911, 1400.8548547902
3979, -928.78942162973, 7139.2619327041, 1324.256946468
3980, -968.46431634881, 7045.5737843454, 1295.5242637477
3981, -850.69771987467, 6972.1746231324, 1375.7251322121
3982, 1614.6619907465, 279.57027390461, 95.775287201524
3983, 1610.6753654914, 419.84232017603, 148.42882806015
3984, 1587.6838796256, 392.92807166281, 309.13774984153
3985, 221.42596631198, 6361.8410501711, 1602.272383661
3986, 260.68199970029, 6221.6837133642, 1596.3555822661
3987, 410.6320637833, 6290.2450535056, 1564.5087274263
3988, 372.11244664408, 6430.4023903126, 1574.1151727407
3989, -736.99838039001, 5384.6931056871, 1439.8401429681
3990, -856.00907922781, 5347.7772663174, 1372.4265759156
3991, -822.52544141393, 5203.0207294092, 1392.7520052855
3992, -701.91725140229, 5239.936568779, 1457.2640193815
3993, -634.68408585133, 6549.7885548, -1487.7776585119
3994, -583.89281111076, 6732.606263894, -1508.4347633004
3995, -450.17925705593, 6695.395418991, -1553.5909649958
3996, -502.57787918472, 6512.577709897, -1537.439990814
3997, -156.76985020698, 6399.5207874942, 1609.8849226159
3998, -252.75791042867, 6302.7298839578, 1597.6293965484
3999, -179.32573680817, 6220.1583620819, 1607.5287027354
4000, -82.877122453517, 6316.9492656182, 1615.375384415
4001, -1336.8709304911, -618.27777472328, -910.53960112
4002, -1383.3642385215, -493.61188865217, -838.21813007104
4003, -1305.4073727227, -379.42056080359, -955.10095866416
4004, -1252.8135775705, -504.08644687471, -1023.1150423364
4005, -1009.1071255054, 4504.1871788459, -1264.1238306646
4006, -890.08822521319, 4509.5968161673, -1350.5736563908
4007, -884.55308954229, 4363.0779734227, -1354.2053322082
4008, -1003.9248181877, 4357.6683361014, -1268.2433557589
4009, 1265.2349300131, -541.65814606916, -1007.7136606571
4010, 1311.6915433981, -390.72004105039, -946.45208276907
4011, 1407.1447776362, -456.76017509426, -797.65269683684
4012, 311.25376492999, -219.46841045621, -1587.2704066469
4013, 105.38501942236, -180.56732692128, -1614.0632725149
4014, 129.05778319223, -41.039428749551, -1612.3431206159
4015, 334.51121660955, -79.94051228448, -1582.5323048717
4016, -1534.1201786677, 6128.9844918848, 512.62220728784
4017, -1572.8085756418, 6167.4991882896, 377.59692052198
4018, -1574.4441100764, 6029.7271852894, 370.71821407328
4019, -1536.3463085297, 5991.2124888847, 505.91132648635
4020, -1424.805803064, 5001.8803898059, 765.65963296693
4021, -1373.3862832527, 4909.293869221, 854.46847043844
4022, -1319.1023977755, 5009.5629020113, 936.09567576337
4023, -1375.8073113738, 5102.1494225962, 850.56480762512
4024, -8.6161815025862, 6292.2671350938, 1617.4770512797
4025, 53.501257439545, 6401.9990533852, 1616.6149403777
4026, -20.785616230238, 6426.6811839095, 1617.3664421392
4027, 400.75034045831, -360.82435148758, 1567.0690522828
4028, 494.15012273976, -465.31776903402, 1540.1694407422
4029, 630.40234908343, -373.29284678977, 1489.5969684012
4030, 539.79412173503, -268.79942924333, 1524.7716406532
4031, 753.8089721174, 2046.9816641009, -1431.1108564871
4032, 861.64662944409, 2131.3443113978, -1368.8942018899
4033, 917.62009968204, 2018.9678963952, -1332.0208717057
4034, 812.45266607771, 1934.6052490983, -1398.6518206413
4035, -1205.2930059458, 4778.6250153571, 1078.6913459457
4036, -1100.5517409398, 4816.0908220823, 1185.3658150607
4037, -1124.0135415395, 4969.5897556607, 1163.1422133324
4038, -1226.6027400303, 4932.1239489354, 1054.3964947543
4039, -1492.9377180654, 5065.2811249485, 622.44937141723
4040, -1527.0222932492, 4882.0286580756, 533.39400626543
4041, -1467.4476638731, 4818.627922933, 680.37019613842
4042, 1125.8245497269, 4591.5090208347, 1161.3893977613
4043, 1136.344942883, 4447.6819154038, 1151.0979197203
4044, 1232.6935006539, 4451.5244811258, 1047.2692984355
4045, 1223.1138123645, 4595.3515865568, 1058.4417093081
4046, 1225.178469122, 4742.1389041882, 1056.0511203535
4047, 1102.436270798, 4904.0711482564, 1183.6133316371
4048, 1116.6197763671, 4736.8036745185, 1170.2420796681
4049, -1308.8335279904, 235.23045854698, 950.40046612373
4050, -1311.7543839907, 70.34956567408, 946.36498565896
4051, -1220.9033955241, 70.105833816875, 1060.9906450095
4052, -1217.6299438817, 234.98672668978, 1064.7457770579
4053, -729.82144014009, 4551.4140493611, 1443.4912246051
4054, -839.53873403817, 4505.1514113319, 1382.5631862774
4055, -808.87712514492, 4406.5361495721, 1400.722687193
4056, -697.84421407831, 4452.7987876013, 1459.2188673662
4057, 474.45815453634, 5040.0970027798, 1546.3491551373
4058, 617.65897060978, 5072.6624456158, 1494.9259667372
4059, 590.18435187163, 5225.9072825386, 1505.9842896942
4060, 446.06601679561, 5193.3418397026, 1554.7769482019
4061, 375.89492989308, 1391.0955890556, -1573.2162126296
4062, 230.62112969965, 1450.4603098241, -1600.9747482506
4063, 302.07894443859, 1555.4970974454, -1589.0420262935
4064, 445.96404298025, 1496.1323766769, -1554.8062009037
4065, 1438.9639124307, 3937.589151566, -738.70772889021
4066, 1493.8469447095, 4044.2639342588, -620.26410163907
4067, 1525.9320118299, 3945.929140259, -536.50512138546
4068, 1477.6988023926, 3839.2543575661, -657.80886236611
4069, 1415.6284952677, 3743.6031018278, -782.49742068971
4070, 1508.8044139663, 3735.3531041604, -582.93695233354
4071, 1453.0600617018, 3639.7018484221, -710.57913499278
4072, -500.20553380335, 247.88432135565, -1538.2134682652
4073, -334.53919975158, 297.55583521271, -1582.5263896155
4074, -293.11900742868, 121.91065791539, -1590.7191761854
4075, -459.88552983966, 72.239144058336, -1550.745481839
4076, -403.17977791167, -55.061918862716, 1566.4457592534
4077, -408.51348549682, 193.97183360088, 1565.0632518104
4078, -533.91528123814, 66.409914738165, 1526.8401103129
4079, 882.98512686835, 428.57590744134, 1355.2282153679
4080, 726.17564752567, 399.69287067588, 1445.3287442449
4081, 759.35172732117, 261.92536727214, 1428.1775814703
4082, 914.03917244093, 290.8084040376, 1334.4806634955
4083, 266.82858255115, 1943.7107331748, -1595.3396997297
4084, 432.3889214026, 1867.1941358477, -1558.6359647616
4085, 392.29427966511, 1741.6368722743, -1569.2072674258
4086, 225.8475126048, 1818.1534696013, -1601.6551286248
4087, -82.455451556245, 7180.7295333287, -1615.3969631359
4088, -105.16505207047, 6946.1967377186, -1614.0776195162
4089, -187.3093073921, 7128.7622085473, -1606.618023478
4090, -1590.2558591544, 3917.6177086953, 295.62231381454
4091, -1558.7939628219, 3982.1177037511, 431.81897997879
4092, -1579.9509851344, 4118.2777554459, 346.49839043328
4093, -1603.9674122085, 4053.7777603901, 208.79365549042
4094, -1372.0142300265, 6648.4367271111, 856.66983290225
4095, -1289.8483933758, 6546.2784871099, 976.0109487633
4096, -1246.3491467965, 6650.3578673181, 1030.9801425245
4097, -1333.6085604639, 6752.5161073194, 915.31112604259
4098, -1214.5854225053, 6457.5355016487, -1068.2174410847
4099, -1138.9760431298, 6574.0987212527, -1148.4945899639
4100, -1045.3083629914, 6475.5528175738, -1234.3567864521
4101, -1126.9859427514, 6358.9895979698, -1160.2624422262
4102, 947.79473862219, 162.21859735005, 1310.7217032765
4103, 1067.4386838022, 191.27152835122, 1215.2698903217
4104, 1036.0798917982, 319.86133503877, 1242.1130012247
4105, 809.98556681279, 4133.4934813129, -1400.0820088677
4106, 767.66068909064, 4286.6642190804, -1423.7286667146
4107, -780.65952791496, 6637.0167717939, -1416.6428454186
4108, -712.22863740802, 6412.1432864871, -1452.2522570325
4109, -854.25130727578, 6499.371503481, -1373.5213700622
4110, -909.44931703914, 6465.9744084925, 1337.6128699056
4111, -1036.8490250116, 6451.4519149943, 1241.4710424865
4112, -1042.3495207346, 6284.451648197, 1236.856388844
4113, -915.37782755032, 6298.9741416953, 1333.5627779858
4114, -919.0524162769, 6142.4679059264, 1331.0330221807
4115, -791.23618036421, 6161.2386937033, 1410.7627571221
4116, -787.3421769468, 6317.7449294721, 1412.9396825062
4117, 485.66502031977, 2913.037479375, -1542.8660791001
4118, 449.02156539691, 3084.0538577273, -1553.9259582775
4119, 597.07548745283, 3125.3803303176, -1503.265482968
4120, 632.47875518906, 2954.3639519654, -1488.7165190977
4121, -521.51007486054, 810.66611344146, -1531.1216450103
4122, -367.77579183657, 866.61319239063, -1575.1340314205
4123, -321.26604899284, 693.89645669546, -1585.2742273072
4124, -476.22888226989, 637.94937774629, -1545.8047424212
4125, -1490.3863245239, 6323.467690659, 628.53389222221
4126, -1423.3132705197, 6340.8868596758, 768.43059801284
4127, -1436.8269466309, 6495.256405242, 742.85568950863
4128, 876.96472719956, 4973.179444423, 1359.131751247
4129, 761.32096371505, 4958.3329531131, 1427.1288099566
4130, 770.33813670083, 4835.158013188, 1422.281760111
4131, 885.54922471986, 4850.0045044978, 1353.5541439477
4132, 997.55149505132, 4860.7137119059, 1273.2624492699
4133, 1077.4041369, 5013.0748866381, 1206.4437723287
4134, 970.66470448625, 4969.7174502876, 1293.8764552555
4135, 686.27528252118, 3690.7978509927, -1464.6953562432
4136, 760.88213232582, 3612.5835578691, -1427.3628237793
4137, 688.09572062144, 3525.9797337259, -1463.8410191214
4138, 611.70486899145, 3604.1940268494, -1497.3721659134
4139, -1010.6695987318, -668.1165868493, 1262.8749788476
4140, -1124.2983079298, -763.1458875164, 1162.8669591945
4141, -930.9051567249, -772.4706993329, 1322.7705164476
4142, 602.22886211091, 3263.2394172338, -1501.2083958067
4143, 457.58705671662, 3323.0106106684, -1551.4252594068
4144, 521.34338184308, 3477.576318277, -1531.1784116191
4145, 663.78514848738, 3417.8051248424, -1475.0239071444
4146, 278.96636520599, 3269.5001117169, -1593.2620679235
4147, 337.86198541213, 3404.8509205128, -1581.8203212797
4148, 399.73630311726, 3187.6598018725, -1567.3280250063
4149, 528.17715784271, 6502.4560743595, 1528.8345691844
4150, 469.09205679968, 6648.6846401896, 1547.9854302439
4151, 311.40397307446, 6576.6309561427, 1587.2409443917
4152, 858.33973689194, 6208.9950919665, 1370.9701477685
4153, 976.25453653984, 6223.978756458, 1289.6640376026
4154, 973.55251401839, 6350.5758621561, 1291.7049788742
4155, 855.46776021142, 6335.5921976646, 1372.7640588385
4156, 627.27228493873, 6841.4874513888, 1490.9177477473
4157, 651.95399298887, 6691.1035191446, 1480.2912689825
4158, 79.135223562127, 1933.2826126012, -1615.5630183907
4159, 78.093441545121, 2022.6957368268, -1615.6137113765
4160, 265.7998021404, 2033.1238574004, -1595.5114274684
4161, -1528.4426241523, -218.06877343057, 529.31030093355
4162, -1483.0373392897, -130.7179601577, 645.68297195482
4163, -1508.5247643697, 3.18278183447, 583.66024816109
4164, -1549.0676999067, -84.168031438398, 465.50565099231
4165, -879.44776763462, 6699.3287738063, -1357.5263805917
4166, -821.95671203642, 6794.016156032, -1393.087726433
4167, -720.7846201049, 6731.7041540196, -1448.0247861899
4168, 1065.5223140956, 7075.6687919055, -1216.9504707113
4169, 1000.5362971842, 6956.0573329406, -1270.9183168155
4170, 922.77040669803, 7016.0451477251, -1328.4581387919
4171, 990.86643697386, 7135.6566066899, -1278.4717259598
4172, 607.49457473539, 3931.5209264874, 1499.0852516342
4173, 716.80865059377, 3974.0381572993, 1449.9971063536
4174, 680.50240974165, 4070.5030168954, 1467.3863568726
4175, 570.00059354849, 4027.9857860835, 1513.7389383095
4176, 652.47069562024, 6259.4348310355, -1480.0635936867
4177, 519.07039888874, 6257.3333986326, -1531.9504466521
4178, 506.7991002344, 6421.3179950826, -1536.0536846092
4179, 640.61019262595, 6423.4194274856, -1485.2356146766
4180, -1468.5923466589, 6630.2442940359, -677.89583959097
4181, -1467.9564438591, 6443.328024167, -679.27176367962
4182, -1526.9968978688, 6436.7599111092, -533.46670364623
4183, -1527.4961404409, 6623.6761809781, -532.03551661349
4184, 456.81131329813, -544.88046761914, -1551.6538512319
4185, 318.31769604871, -675.84874773145, -1585.8688767935
4186, 195.19624035313, -600.59818463879, -1605.6788837598
4187, 335.91418167216, -469.62990452648, -1582.2351002779
4188, 209.8997040198, -780.90709465824, -1603.8230464276
4189, 483.5228691718, -762.44165307321, -1543.5387539637
4190, -786.54350230301, 1881.1879260221, -1413.3844377893
4191, -700.06900373885, 1951.1503408262, -1458.1528177815
4192, -642.05927208666, 1840.2281523366, -1484.6097605524
4193, 1121.4913470979, 7178.8450909597, -1165.5742826541
4194, 1190.6966058462, 7078.1734605012, -1094.7820983311
4195, 1137.9754251122, 6974.997161447, -1149.4860511728
4196, 878.76062203236, 7067.0017347716, 1357.9712880489
4197, 981.47642841121, 6976.3265259013, 1285.6944701107
4198, 1055.3330860664, 7084.6949268675, 1225.7970172314
4199, 957.04206988758, 7175.3701357378, 1303.9849410424
4200, 392.27038935747, 4284.6400995633, -1569.2132396948
4201, 500.32645416886, 4471.2354387164, -1538.1741413958
4202, 596.28926227915, 4391.3088715501, -1503.5775223415
4203, 490.40461095526, 4204.713532397, -1541.3661367611
4204, 648.24135276448, 4228.2707847761, -1481.9208476049
4205, 717.6609444694, 4449.7023058543, -1449.5754615691
4206, 474.86664010822, 2017.4934843833, -1546.223762627
4207, 650.93785195766, 1984.3941395069, -1480.7383843504
4208, -954.12384692428, -115.67750621964, -1306.1217151286
4209, -1009.8902803907, 44.251917130845, -1263.4982673404
4210, -915.71738569686, 95.096050041868, -1333.3296364862
4211, -857.01005544005, -64.833373308615, -1371.8017403673
4212, -1135.0468715278, -43.491887951605, -1152.3779108586
4213, -1089.9979570479, 96.940612763845, -1195.0776977383
4214, -1057.6232637482, -96.180583584604, -1223.8215891128
4215, 1168.8714127361, 3493.6994490879, -1118.0545024677
4216, 1117.0744222256, 3618.7006741161, -1169.8080975995
4217, 1216.5896529002, 3699.050424695, -1065.9342692944
4218, 1263.5837020475, 3574.0491996668, -1009.7833816814
4219, 1566.0913958356, 3443.4596890661, 404.55406300003
4220, 1590.7206380429, 3359.7045660785, 293.11107400518
4221, 1601.3040294663, 3443.4267729179, 228.32357568803
4222, 677.80328001658, 6554.9841468514, 1468.6350682177
4223, 827.55743150417, 6592.4190508547, 1389.7679473791
4224, 803.06767156141, 6728.5384231479, 1404.061453389
4225, 921.46266777887, 6880.5697595687, 1329.3655636768
4226, 1067.4294691479, 6785.0947516341, 1215.2779839998
4227, 1122.0558575639, 6880.8515179666, 1165.0308590361
4228, 929.77577946894, 6735.7165619201, 1323.5645998261
4229, 794.25256995319, 6873.3916207965, 1409.0667497045
4230, -963.51656298801, 6912.0192049422, 1299.2082523013
4231, -924.75959065635, 6791.8563600596, 1327.0742064742
4232, -809.73199488255, 6852.0117782498, 1400.2286764895
4233, 244.32529299921, 6671.6228586718, 1598.940712222
4234, 95.376625553736, 6561.6267748431, 1614.6855883725
4235, 163.24994382626, 6466.634872314, 1609.2407233974
4236, 1258.2875423251, 6159.2883178843, 1016.3752805088
4237, 1360.3851098019, 6111.9245212864, 875.01920152036
4238, 1394.4784544397, 6284.4040493686, 819.59507691506
4239, 1298.1489880755, 6331.7678459666, 964.94323913822
4240, 1193.685624933, 6346.1293788182, 1091.5222759194
4241, 1092.3654313979, 6361.0752131311, 1192.91408504
4242, 1069.4343282957, 6219.7610927469, 1213.5140985842
4243, 1172.6682936092, 6204.8152584339, 1114.071507204
4244, -215.86554279869, 697.87702652221, -1603.0309783133
4245, -126.720266888, 875.11603617465, -1612.5285188051
4246, -89.615351213989, 631.55005284756, -1615.0155847009
4247, 1336.2899100752, -247.13837982444, -911.39208150568
4248, 1357.3992530573, -57.566242031482, -879.64397218396
4249, 1450.2431861409, -76.759477811631, -716.31065261661
4250, 1432.9576456899, -266.33161560459, -750.29236678699
4251, -1233.5587085704, -102.13485152623, -1046.2500477946
4252, -1289.4728689736, -165.13443985535, -976.507025157
4253, -508.22158670209, 448.74961316051, 1535.5836248183
4254, -368.47349909964, 396.2672611527, 1574.9709617835
4255, -351.67861966964, 522.2866348333, 1578.8060040636
4256, -491.83826989519, 574.76898684112, 1540.909266072
4257, 1391.836110953, 3721.4630362137, 824.07432325444
4258, 1423.0871488267, 3884.7804761096, 768.84928096762
4259, 1347.1687698414, 3948.5526013359, 895.23324087309
4260, 1311.0190885181, 3785.23516144, 947.38334349994
4261, 1273.4138882007, 4228.8690560982, 997.35817003605
4262, 1232.6536781326, 4341.3262393565, 1047.3161699249
4263, 1162.458871698, 4276.4313234164, 1124.720241487
4264, 1206.3596961998, 4163.9741401581, 1077.4982753511
4265, 1550.826273747, -524.96137690504, -459.613009668
4266, 1498.3902645753, -604.30111546795, -609.20675064045
4267, 1471.3427017252, -487.18233064666, -671.90542792863
4268, 1530.0457865752, -407.84259208375, -524.65811819065
4269, -1075.3140522676, -496.22908421742, -1208.3070549309
4270, -977.12383788885, -411.31234457957, -1289.0055296349
4271, -909.63983887173, -549.75518117173, -1337.4833133678
4272, -1011.8446315302, -634.67192080958, -1261.9337112715
4273, 218.04709435267, 7305.4668695383, -1602.7356970644
4274, 445.10512157833, 7306.9092286294, -1555.0523080414
4275, 286.99412675431, 7227.3760981678, -1591.8356137518
4276, -261.98449634978, 7221.5640471264, -1596.1423412943
4277, -429.5139035198, 7296.8892012977, -1559.4306835134
4278, -208.94385388636, 7309.6748458287, -1603.9478532431
4279, 607.22461051524, 6004.5363832963, -1499.194624585
4280, 521.93233791772, 5837.7128891042, -1530.9777544549
4281, 401.79236185312, 5929.7145207969, -1566.8022044778
4282, 489.29000791939, 6096.538014989, -1541.7203177458
4283, 861.62144327943, 7115.2203366964, -1368.9100549273
4284, 876.6991668037, 7262.3970156929, -1359.3030644142
4285, 1004.9366644798, 7282.8332856863, -1267.4417345126
4286, 256.15774932585, 6537.6743774942, -1597.0878051818
4287, 85.17641913335, 6402.0969947796, -1615.2557777713
4288, 171.70081257036, 6617.9601952147, -1608.3609921167
4289, -473.57480866125, 7282.9682018739, 1546.6199114849
4290, -342.65540713755, 7183.1116617754, 1580.7888922811
4291, -244.8255084819, 7285.1434599015, 1598.8641969838
4292, -427.89329392923, 7104.3326453693, 1559.8761422018
4293, -330.33115469764, 7011.948997362, 1583.4101105639
4294, -243.96040035666, 7090.7280137681, 1598.9964268434
4295, 668.32620805146, 7287.7583928917, -1472.9719378289
4296, 702.0931184178, 7165.1554085846, -1457.1792968164
4297, -548.88699836758, -310.30545048244, 1521.5220382969
4298, -355.04693475889, -189.86780940563, 1578.0519396136
4299, -595.19882602189, -175.49955993952, 1504.0095104427
4300, 478.20733014883, 811.53462919619, 1545.1938387762
4301, 339.44367319085, 844.21760923256, 1581.4816605736
4302, 301.75447610659, 731.89991094019, 1589.1036738204
4303, 441.34151791726, 699.21693090382, 1556.1246462165
4304, 1316.3620399314, 2839.2967082898, -939.94533342514
4305, 1311.8566863704, 2663.500161253, -946.22316840442
4306, 1221.9319346878, 2665.3116424564, -1059.8059242098
4307, 1226.9809250265, 2841.1081894932, -1053.9563841171
4308, -671.31882309708, -393.3533501361, 1471.610440217
4309, -596.22637062248, -524.72372251143, 1503.602462413
4310, -471.43256179104, -441.67582285777, 1547.2742451431
4311, -1187.3717208007, -627.36521782139, -1098.3872935549
4312, -1147.7438897691, -372.95031327074, -1139.7325183997
4313, -273.26598696775, 3413.3844180826, -1594.2496512048
4314, -420.51334429421, 3528.8870392393, -1561.8818064343
4315, -306.06979407299, 3642.407791544, -1588.2781655479
4316, -156.86189537294, 3526.9051703873, -1609.8759566439
4317, -317.75515999162, 1879.3797367327, -1585.9816859909
4318, -410.34423961816, 2007.1169903363, -1564.5842435012
4319, -214.86885841496, 1976.916512249, -1603.1648772611
4320, -551.53164572305, 7174.7706482833, 1520.5653862186
4321, -606.39233306365, 7035.4376638568, 1499.5314562895
4322, -484.26325444264, 6964.9996609428, 1543.3066287671
4323, -1564.8846506051, -542.38720879579, 409.19711668177
4324, -1566.0623998208, -371.34874327307, 404.66629445455
4325, -1591.9402492125, -572.70889395197, 286.41315077561
4326, 527.932529558, -767.9265781685, 1528.9190607205
4327, 438.58733449101, -666.28375586011, 1556.9031440729
4328, 285.96515798709, -765.85717769162, 1592.0207845432
4329, 1429.6574843659, 2789.8643722706, 756.56178029064
4330, 1399.628561556, 2667.9581573533, 810.76885712062
4331, 1459.7667949518, 2607.8345773342, 696.69731903912
4332, 1485.3821305229, 2729.7407922515, 640.27039313354
4333, 79.651099717355, 6948.454839991, 1615.5376666342
4334, -62.439368857693, 6900.4697642316, 1616.294396209
4335, -25.056635001263, 6783.607880983, 1617.3059126345
4336, 116.97836349226, 6831.5929567424, 1613.2644893119
4337, 1205.0084419395, -651.24731998928, -1079.0092237115
4338, 1131.585717573, -764.84092136696, -1155.7768010238
4339, -324.50562158292, 6789.6628250514, -1584.6142595474
4340, -197.14064994237, 6664.9435359737, -1605.4413144492
4341, -324.88756794815, 6570.6761299133, -1584.5359946031
4342, -441.07446330408, 6925.8432091356, -1556.2003623637
4343, -307.71332648706, 7038.3021635105, -1587.9605658524
4344, -189.15711322434, 6902.1217794263, -1606.4015178394
4345, -507.41643315468, 7087.5723948084, -1535.8498668049
4346, -584.22925505042, 6861.3874636841, -1508.3044876759
4347, -648.38515505768, 7023.1166493569, -1481.8579353976
4348, 41.561180839853, -458.09576748712, 1616.9659607571
4349, 171.53575122527, -346.71222306275, 1608.3786046984
4350, -32.82707277489, -386.1098451297, 1617.1668538815
4351, -1288.0895067689, -745.4522825973, -978.33106490178
4352, -1420.9306596138, -740.32549212598, -772.8274778821
4353, -1446.7631799953, -609.5490796419, 723.31359105848
4354, -1514.6575982084, -723.808855785, 567.5549402389
4355, -1421.1969620944, -753.24022385691, 772.3376495637
4356, -239.54354162651, -349.37997774812, 1599.6640715053
4357, -359.7214126777, -402.02147646038, 1576.9929471184
4358, 506.29448946424, 4142.4329242046, 1536.2200818692
4359, 377.81116745427, 4077.0906880613, 1572.7571242079
4360, 443.15500566904, 3962.6435499401, 1555.6091703736
4361, -419.63305336373, 6829.4613654323, 1562.1185456055
4362, -264.16569736748, 6876.4107018515, 1595.7827967284
4363, -501.49583594792, 3431.4772731062, -1537.7932814676
4364, -604.5030671094, 3519.4358454002, -1500.2940684597
4365, -525.33813274294, 3616.8456115333, -1529.8124382702
4366, -108.43555758649, -556.01917066368, 1613.8612021642
4367, -35.577686956228, -658.06844115376, 1617.1086785343
4368, 114.40653614689, -560.14503797721, 1613.4489128841
4369, -1518.5621001512, -518.90761040717, 557.02369607084
4370, -1562.0055180493, -747.28845417362, 420.05358180054
4371, 812.32776383941, 7277.5681410915, 1398.7243667341
4372, 689.96961562519, 7240.198095672, 1462.9587073852
4373, 759.63864486313, 7029.6316893521, 1428.0249925091
4374, 590.71111495947, 6997.7275199444, 1505.7777487609
4375, -1290.666003475, -757.55396816627, 974.9294935911
4376, -1339.5809724656, -643.29419202317, 906.54788522613
4377, -1019.3420592375, 5016.9706548519, 1255.8853515626
4378, -1055.7547770274, 5153.930236593, 1225.4338418633
4379, -1157.6598103196, 5106.5493374017, 1129.6592466628
4380, 314.00872414809, 7142.5283727948, -1586.7276928191
4381, 119.06062098968, 7091.6738316654, -1613.1121531157
4382, 91.625734447914, 7176.5215570383, -1614.9027756453
4383, -539.04054239834, -776.98100867909, 1525.0382105544
4384, -647.55261579836, -686.75661727061, 1482.2219333732
4385, -725.0846288843, -777.27560859152, 1445.8763885463
4386, -543.28974748192, -615.03902213122, 1523.529619102
4387, -423.27527571417, -740.95304088235, 1561.1355773824
4388, -427.62555806847, -579.01105433449, 1559.9495607508
4389, 85.112369308957, 6692.5260238163, 1615.259154003
4390, -554.37503383583, 7253.3575940164, -1519.5310368201
4391, -381.38811847699, 7131.1040020896, -1571.8935565376
4392, 496.55409162949, 7209.6676215211, -1539.3960777155
4393, 95.734923397753, 6842.8890802699, -1614.6643844595
4394, 541.45688405284, 7093.7057988061, -1524.1819749334
4395, 360.37710982675, 7026.5665500798, -1576.8432353005
4396, 1196.7296195255, 1464.4631444164, 1088.1840229255
4397, 1205.9388842654, 1598.711563619, 1077.9692284183
4398, 1106.776048682, 1617.0112742414, 1179.5562843985
4399, 1096.7066021716, 1482.7628550388, 1188.9242527399
4400, 214.32711759763, 6936.3988494353, -1603.2373924851
4401, -1387.4614494513, -555.69198158764, 831.41865283766
4402, -1406.0866267169, -424.46789653213, 799.51650900271
4403, -1462.904107526, -478.3249945864, 690.0853731122
4404, -202.19540749584, -761.15932569766, 1604.812533347
4405, -248.88004092588, -634.61236658001, 1598.2380846509
4406, -84.313424270804, 6696.1984792077, -1615.3010544439
4407, -1284.6958300069, 6974.9694405322, -982.78322857217
4408, -1213.8699892074, 6875.6300666017, -1069.0303547148
4409, -1293.1577711301, 6766.0468073053, -971.62195784466
4410, -1357.0780781442, 6865.3861812358, -880.13938658625
4411, -729.30867547133, -204.45057766043, 1443.7503613445
4412, -883.43637389922, -181.1269041822, 1354.934102926
4413, -751.86734545525, -316.41891618243, 1432.1318880739
4414, 1163.2465053002, 2409.0200978081, -1123.9056089845
4415, 1165.7166095207, 2246.1550509223, -1121.3434069399
4416, 1079.9991512766, 2236.2534709094, -1204.1212909179
4417, 1077.3471190681, 2399.1185177952, -1206.4946891867
4418, -315.12100082306, -539.3567079371, 1586.50717138
4419, -694.10550066236, 7276.8024464093, 1461.0009595994
4420, 590.07778652488, -650.85858264347, -1506.0260475337
4421, 721.78353014721, -755.91692957026, -1447.5271277625
4422, -124.22736959237, 7180.5046203713, 1612.722484076
4423, -147.40430590107, 6984.8887504212, 1610.7694498599
4424, -27.062710908988, 7074.6653570244, 1617.2735883821
4425, 914.24569691697, 1606.63924646, -1334.3391831423
4426, 907.23002594934, 1418.1355268366, -1339.1190873167
4427, 755.98357924935, 1431.9785913997, -1429.9633134823
4428, -179.82760884301, 6791.9917156619, 1607.4726377447
4429, 1344.5710422062, 3660.6275394322, -899.1301143108
4430, 1386.8584788013, 3553.8364042227, -832.42405646213
4431, 1311.3691382553, 3467.2580644573, -946.89874497309
4432, -1554.0217442908, 4418.3529055766, -448.68994670195
4433, -1500.3507636796, 4336.2996194377, -604.36233827557
4434, -1578.1193926223, 4271.2480069093, -354.74699805538
4435, 752.47838381778, 7024.3185863496, -1431.8109274227
4436, 1301.5279998978, 3765.0711563147, -960.38071382241
4437, 1377.9059684925, 3848.0467187104, -847.16078284626
4438, 816.58991501806, 6925.1433973783, -1396.2403663735
4439, -777.71443673946, 6946.8969312777, -1418.2617899693
4440, -836.64332160781, 7068.3291223526, -1384.3172332992
4441, -710.10159520525, 7144.5488404318, -1453.2934922055
4442, -1341.4877029003, 4146.4413028239, -903.72395838953
4443, -1431.093958037, 4293.7289334195, -753.84105305424
4444, -1338.2484437835, 4288.9629349104, -908.51381536603
4445, -5.6178594032681, 7280.3611604699, 1617.4902440682
4446, -1207.8555341981, 5831.5986067182, -1075.821201923
4447, -1108.699643974, 5884.2683326099, -1177.7484236677
4448, -1070.0047536501, 5762.3539982442, -1213.0111611878
4449, -1172.4072658158, 5709.6842723525, -1114.3461998241
4450, -1592.0471715401, -571.88745727296, -285.81821773856
4451, -1567.0211567653, -370.40518953476, -400.93758148856
4452, -1566.0056154282, -540.62223122437, -404.88598697328
4453, -175.44760591377, -460.76351202077, 1607.9565875916
4454, 203.18336951993, 4758.445819626, -1604.6877479281
4455, 100.10138443255, 4582.2107890119, -1614.3995672803
4456, 103.48542731499, 4853.3834681141, -1614.1861777173
4457, -665.95942426067, 6935.8142486112, 1474.0435187736
4458, -751.89772134547, 7165.4861867367, 1432.1159403608
4459, 831.64557447035, 4770.8595264941, -1387.3254443222
4460, 965.42036250579, 4794.8429649388, -1297.7941954174
4461, 985.12713167173, 4669.3128805112, -1282.8993664525
4462, 852.73522673777, 4645.3294420665, -1374.4631253986
4463, -1404.2649511946, 6545.3318422649, -802.71177694521
4464, -1429.8506806495, 6739.4200658046, -756.1965888882
4465, -1358.8782808742, 6654.5076140336, -877.35743444067
4466, -1466.8851894066, 598.86282341275, -681.58205015937
4467, -1411.1060293685, 608.7107820174, -790.62381944881
4468, -1405.9779115415, 488.45703492444, -799.70767300152
4469, -1462.4591275716, 478.60907631979, -691.02789392514
4470, -1061.132809448, -193.27505721398, 1220.7798371177
4471, -1202.4136217267, -268.70736381148, 1081.9000565145
4472, -1158.6417319013, -418.63569968345, 1128.6521107484
4473, -1316.2992866294, -428.74803192682, 940.0332111255
4474, -1309.9566211431, -289.39822516888, 948.85188555612
4475, -1400.6856046618, -285.1180897742, 808.94133711492
4476, 1403.0844674874, 7154.252472738, 804.77340108613
4477, 1443.4372368432, 7292.4545640194, 729.9282110553
4478, 1332.8269859363, 7246.7979087186, 916.44883957583
4479, -1075.855974921, 7049.2417412041, 1207.8245614438
4480, -1071.2418989028, 6915.6871618009, 1211.9187448155
4481, 40.102917976723, -764.4091154561, 1617.0027847749
4482, 200.0316788971, -662.76629314772, 1605.083666803
4483, -1593.8093017066, -673.48207429563, -275.82269629848
4484, -1562.1623851565, -746.46701877752, -419.46982299327
4485, -1600.60743885, -794.5150555181, -233.15676421262
4486, -1600.5757137385, -793.65321012938, 233.37445145208
4487, -1593.668505259, -673.441664303, 276.63503998131
4488, 1615.7747073377, 1173.9655380282, -74.688319887733
4489, 1616.3893505328, 1316.1782706598, 59.93093929084
4490, 1608.6257364576, 1207.7179127584, 169.20251182057
4491, 1617.1245160882, 1065.5051801268, 34.850386891956
4492, 1616.0639907316, 4366.6228668712, 68.142702182935
4493, 1603.0166806302, 4442.7533218638, 215.97169171326
4494, 1593.3134352978, 4308.1609307774, 278.67283129075
4495, 1612.1482820485, 4232.0304757849, 131.46926138052
4496, -1613.9665708336, -668.26505225144, -106.85578239643
4497, -1617.5, -741.24999673334, 2.515460556255e-05
4498, -1613.952019737, -667.40320686271, 107.07533790151
4499, 172.8106399771, 4248.9483227218, -1608.2421250268
4500, 288.45572715015, 4396.4057895687, -1591.5714069668
4501, 277.96844706384, 4137.1826327163, -1593.4364726706
4502, 84.787664297619, 6176.7492423535, 1615.2762308605
4503, 273.14601610366, 6089.660771716, 1594.270210437
4504, 1422.979136119, 1932.6605935676, -769.0491714904
4505, 1340.4949637737, 1918.8381123103, -905.19583632354
4506, 1333.5849926937, 2070.4864819906, -915.34546334273
4507, 1417.1002788801, 2084.3089632479, -779.8288591723
4508, 1306.0432691181, 1717.4177913746, 954.23122417537
4509, 1394.4476330085, 1687.163328244, 819.6475149703
4510, 1403.1827911226, 1821.5582888532, 804.60195419694
4511, 1316.231072145, 1851.8127519839, 940.12872242047
4512, 697.31180255609, 4612.7303063492, -1459.4733639282
4513, 77.418572489209, 4084.8329418543, -1615.6461910436
4514, 297.2826579222, 4036.0300314131, -1589.9463108227
4515, 97.017039197698, 3983.680340551, -1614.5878558026
4516, -1446.3453018654, 742.65568053438, -724.14882294439
4517, -1384.9003942895, 800.75604320683, -835.67765789014
4518, -1344.5412458374, 666.81114468985, -899.17467059625
4519, -608.11212329776, 6737.3442766507, 1498.8348459715
4520, -754.64740517913, 6653.5418062893, 1430.6689148284
4521, -356.34153002723, 2498.4898828469, -1577.7601097689
4522, -204.12623825944, 2450.6875232488, -1604.5680817136
4523, -406.41060673295, 2365.0983808634, -1565.6106376539
4524, 493.37654382616, 3901.5605104656, -1540.4174226495
4525, 297.32357191419, 3896.0798220325, -1589.9386603213
4526, 493.33690409933, 4041.5107198461, -1540.4301181987
4527, 921.29847313592, 1288.2644805451, -1329.4793617794
4528, 1037.6940752035, 1445.8981924986, -1240.7647868503
4529, -1590.5338190856, 7120.0313983973, 294.12313806469
4530, -1574.5483526849, 7016.5713478827, 370.27521528894
4531, -1570.179431047, 7176.7860584469, 388.38486623059
4532, -1112.7284713563, 712.30295681097, -1173.9427579882
4533, -1050.7745476813, 883.25934467558, -1229.7069162793
4534, -947.10765873201, 811.5987294363, -1311.218262827
4535, -1013.3983429301, 640.64234157168, -1260.6863402712
4536, -1259.1047747137, 6253.3610935019, 1015.3627018426
4537, -1157.4798537252, 6275.5935143963, 1129.8436344116
4538, -1165.5882839932, 6447.6567987356, 1121.4767952204
4539, -1266.3859425631, 6425.4243778412, 1006.2668107806
4540, 1111.4326716471, 2058.6223342338, -1175.1696330298
4541, 1009.6198507079, 2034.3961579159, -1263.714369253
4542, 975.88269118653, 2212.0272945915, -1289.9454341338
4543, -850.88753197281, 868.47432050802, -1375.6077413032
4544, -782.23699816225, 711.36512920009, -1415.7724141634
4545, -881.50604147322, 654.48953812837, -1356.1907494325
4546, -99.653745302092, 1789.7562065509, -1614.4272609961
4547, -115.69011326638, 2027.5118681981, -1613.3573837474
4548, -82.431384976859, 2283.6386487122, -1615.3981913976
4549, 365.15564333066, 3449.5784574333, 1575.7435089962
4550, 464.01873479423, 3594.4415112389, 1549.5137507489
4551, 349.51585738867, 3655.7184398363, 1579.2862044081
4552, 248.99996329263, 3510.8553860307, 1598.2194055511
4553, 771.0785497912, 2991.7511300447, -1421.8804872604
4554, 792.88639087818, 2825.6222478835, -1409.8359554076
4555, 655.3324208615, 2788.2350698042, -1478.7987246978
4556, 1036.5168985308, 3078.8407768787, -1241.7483517445
4557, 1033.2218159681, 2866.5061803186, -1244.4914338828
4558, 913.86344917384, 2859.1446253062, -1334.6010063926
4559, 917.39780005328, 3071.4792218664, -1332.173985055
4560, -424.4432197143, 466.01875758251, -1560.8184401905
4561, -323.5819527664, 502.67710112606, -1584.8031328351
4562, -232.47194538718, 334.21417875625, -1600.7070452172
4563, 392.39673503588, 6498.7555155808, -1569.1816505214
4564, 338.36380461791, 6295.5259313798, -1581.7130541677
4565, 201.24810998221, 6334.4447932932, -1604.9316023521
4566, 1608.2652060512, 2479.744827402, -172.59570390071
4567, 1592.2720440559, 2386.3472630789, -284.56280100898
4568, 1576.8377535851, 2476.7292455765, -360.40109443314
4569, 1598.168392428, 2570.1268098995, -249.32717349749
4570, 1083.763111622, 5703.5213128906, 1200.7346783897
4571, 1017.4519915588, 5552.1388016019, 1257.4170727619
4572, 1114.6214867953, 5491.5935396042, 1172.1455503368
4573, 1176.1940632129, 5642.9760508929, 1110.3484928898
4574, -1194.4244420342, 5238.0222360483, 1090.7137581746
4575, -1283.5008170973, 5178.3409940902, 984.34338648181
4576, -1250.2089224805, 5046.8680954436, 1026.2962048796
4577, 195.38005978725, 4488.4355448794, -1605.6565268567
4578, 95.637120688859, 4325.4825683675, -1614.6701802989
4579, -141.83825168202, 1717.2359260885, -1611.269114816
4580, -359.12120270522, 1806.8594562703, -1577.1297384069
4581, -1297.5249314421, 4894.8187555031, 965.78222301205
4582, 1000.0441272312, 2431.6470392294, -1271.3056255639
4583, 1031.2241666835, 2581.3769752198, -1246.1472497454
4584, 1106.898253315, 2548.8484537856, -1179.4416080537
4585, 1242.4685267971, 6793.3262268967, -1035.6535182766
4586, 1200.4721444571, 6909.1980332794, -1084.053910275
4587, 1260.5001645629, 6961.6523374254, -1013.6299054078
4588, 1299.6600049749, 6845.7805310427, -962.90711985568
4589, 569.63022969203, 4623.5975051445, -1513.8783476294
4590, 384.1567314661, 4562.8994612915, -1571.2192258464
4591, 455.08019793386, 4715.2615277196, -1552.1624475062
4592, 292.10294985068, 4654.9292166022, -1590.9060678395
4593, -964.32327207843, 6594.9005250118, -1298.6095937301
4594, -940.24653884348, 6380.023796043, -1316.1469128455
4595, 1025.3060371357, 2568.7213640915, 1251.0210950312
4596, 1123.3345742789, 2476.5665970489, 1163.7979567905
4597, 1169.5735670433, 2580.2838228524, 1117.319972646
4598, 1075.1601836036, 2672.438589895, 1208.4439703989
4599, -1054.8817864301, 6682.7008510887, -1226.1854128386
4600, -974.4453698279, 6787.1290998832, -1291.0315531469
4601, 112.01636150956, 6297.2052312423, 1613.6166164099
4602, 1520.0084081218, 5984.7275018333, 553.06481468188
4603, 1482.7461835451, 6127.08703656, 646.35130167915
4604, 1426.6031509118, 6024.5616994391, 762.30551605539
4605, 1471.1713898932, 5882.2021647124, 672.28044115515
4606, -1293.8750497016, 5181.9441191085, -970.66657805842
4607, -1196.5827705706, 5153.5658668502, -1088.345498072
4608, -1218.297826238, 5010.3261322019, -1063.9815113919
4609, -1313.1959920603, 5038.7043844602, -944.36356157825
4610, 1537.5145225908, 3467.8834195624, 502.34982116299
4611, 1529.8128076645, 3363.897364836, 525.33705704581
4612, 1559.8521953167, 3339.4736343397, 427.98058222979
4613, 1509.6435911604, 3631.5765132926, 580.76025834097
4614, 1494.4924086906, 3508.1763403418, 618.7072735682
4615, 1508.7878122359, 3120.0777773931, 582.97992045042
4616, 1456.9636030087, 3181.3086295093, 702.54061057553
4617, 1427.3145375655, 3088.7842280619, 760.97270703638
4618, 1483.9385565112, 3027.5533759457, 643.60905097691
4619, -1254.985769804, 528.7606664299, -1020.4493949185
4620, -1157.2734879268, 588.20500376216, -1130.0550093432
4621, -1121.8167637326, 461.76873341525, -1165.2610860268
4622, 307.75463787589, 1122.2790989209, -1587.9525600174
4623, 94.238569602514, 1140.4036519058, -1614.7524088848
4624, 130.60014162262, 1275.114717945, -1612.2189221716
4625, 343.45811156121, 1256.9901649602, -1580.6146828379
4626, 100.60230003005, 1499.915904379, -1614.368429829
4627, 742.23202826863, 3262.7177709371, -1437.1492150129
4628, 737.29758210373, 3124.8586840209, -1439.6869539674
4629, -814.59367745977, -262.61155903001, -1397.4059505536
4630, -718.65118293199, -23.960464762926, -1449.084789538
4631, -673.93275464847, -221.73865048432, -1470.4152108204
4632, 916.56217718748, 1759.2892963088, -1332.7490481517
4633, 1041.5264253783, 1751.0940057204, -1237.5495768811
4634, 1039.3751260755, 1598.4439558716, -1239.3569289336
4635, 854.97873614304, 1181.5785349548, -1373.0686839132
4636, 771.15965424233, 992.53709382497, -1421.836501736
4637, 626.867713212, 1075.4738757232, -1491.0878981912
4638, 715.09607360353, 1264.515316853, -1450.842464059
4639, -702.93203410165, 5565.8693398552, -1456.7747957161
4640, -755.31469711927, 5755.1450231231, -1430.3167335648
4641, -651.7260278561, 5785.3443984709, -1480.3916490628
4642, -597.59504888749, 5596.068715203, -1503.0590166541
4643, 962.4491800923, 1080.5933942634, -1299.9991637458
4644, 184.63702605846, 2557.421659921, -1606.9273221301
4645, 68.958392128836, 2481.2340843845, -1616.029390251
4646, 115.96150617436, 2690.2110130366, -1613.3378998479
4647, 581.91067527143, -400.02716726852, -1509.2005221325
4648, 428.72113014169, -302.00396058086, -1559.6488202701
4649, 518.32243240474, -172.31581188683, -1532.2036764301
4650, 668.3333764965, -270.33901857449, -1472.9686852954
4651, -1336.8120601113, 4903.0091255915, -910.6260296856
4652, -1247.1148448302, 4858.40508714, -1030.0537917042
4653, -1274.9959557079, 4717.3095758559, -995.33489988467
4654, -1361.3717664299, 4761.9136143074, -873.48335048103
4655, -391.8524878828, 5638.8845894517, 1569.3176471766
4656, -543.86079649836, 5604.826432745, 1523.3258627202
4657, -518.08956887266, 5489.3516427034, 1532.2824310894
4658, -365.32714343791, 5523.4097994102, 1575.7037565061
4659, -1172.7066948617, 960.67258212929, -1114.0310847667
4660, -1131.9487210755, 1118.3577595544, -1155.4212837124
4661, -1005.9416100289, 1040.9445221007, -1266.6442780878
4662, 918.72413278525, 4262.949880291, 1331.2596357728
4663, 932.05176503414, 4105.277613306, 1321.9628426309
4664, 1065.2718634992, 4100.9413901256, 1217.1697116002
4665, 1052.9902728833, 4258.6136571107, 1227.8101380967
4666, 1132.7028864444, 3928.4722137016, 1154.6819566619
4667, 1149.8133142867, 4075.520925125, 1137.6447566306
4668, 1046.9837383447, 3953.8926787022, 1232.9360492912
4669, 406.56578856041, 5878.4173544922, 1565.5703464144
4670, 444.0247352762, 6060.8518256666, 1555.3611427777
4671, 347.87619133573, -562.34565739444, 1579.6481904214
4672, 263.39432197405, -459.72440222393, 1595.9102985919
4673, -917.43476740178, 6139.9215593255, -1332.1485268402
4674, -779.5699062925, 6011.5373338644, -1417.242749568
4675, -882.03676004844, 5865.4630682608, -1355.8456416286
4676, -1013.2457061219, 5993.8472937219, -1260.8090216307
4677, -1112.1829297824, 6128.9740102886, -1174.459612205
4678, -1205.1445094111, 6238.628062853, -1078.8572479417
4679, -1027.5845629772, 6249.3355454053, -1249.1501975066
4680, -1405.230286052, 5873.6225116306, -801.02065713818
4681, -1464.4999487774, 5968.1782933617, -686.69217996931
4682, -1413.1402977637, 6095.3058214714, -786.98205115254
4683, -1472.8038848122, -318.51641896343, 668.69646842353
4684, -1413.1114978522, -97.31963096847, 787.03376334054
4685, 1575.1212954202, 3722.2811845477, -367.83033414052
4686, 1536.9081361889, 3622.8249239751, -504.20197432807
4687, 1554.0125346172, 3834.809364733, -448.72184285221
4688, 412.93964123052, 3573.1428638501, -1563.9012445485
4689, 505.44489877719, 3699.7605724226, -1536.4998224211
4690, -1439.8063101832, 7240.3774834338, 737.0644742196
4691, -1376.3539901946, 7126.4315866972, 849.67990659745
4692, -1307.2568659258, 7271.0541032633, 952.56796948552
4693, -253.43262801416, 991.93024737509, 1597.5225047109
4694, -137.36138420851, 977.14791455656, 1611.6569424441
4695, -116.1121918032, 1114.8818595519, 1613.3270619793
4696, -232.35961135703, 1129.6641923704, 1600.7233555521
4697, 1532.7787192557, 6955.3697891312, 516.61944194619
4698, 1566.7963780974, 6824.9694197334, 401.81508132602
4699, 1585.4054136238, 6910.7954699333, 320.61803513263
4700, 1557.3433989281, 7041.1958393311, 437.02149582727
4701, -1012.2731076752, 1932.0871753034, -1261.5900306667
4702, -932.31927740754, 1809.1323399771, -1321.7741921275
4703, -1037.7867791815, 1687.5628601766, -1240.6872494533
4704, -1112.5243566964, 1810.5176955029, -1174.1361955742
4705, -1615.2658819081, 4273.6313744421, 84.984591212746
4706, -1609.0206150607, 4175.6481629407, 165.40529105748
4707, -1597.068974628, 4242.5250892249, 256.27512614508
4708, -1356.697204707, 6443.1764105794, -880.72637336479
4709, -1291.3353073144, 6557.7181803939, -974.04279889705
4710, -1286.766886582, 6342.9937318341, -980.07001259914
4711, 562.52188124826, 5839.208694073, 1516.5340032841
4712, 680.98839913165, 5755.1305492387, 1467.1608808335
4713, 746.38654852145, 5845.0518728239, 1434.9959477944
4714, 630.26433394569, 5929.1300176582, 1489.6553693241
4715, 364.83428966305, 5752.3768092342, 1575.8179435094
4716, 522.03795533854, 5713.168148815, 1530.9417438903
4717, 1607.2354238927, 812.86977933765, 181.93554403848
4718, 1604.8111762402, 700.13809508735, 202.20617847761
4719, 1614.8591042643, 674.42056555965, 92.392225725916
4720, 1615.8965755451, 787.15224980995, 72.003521731132
4721, 721.95600822341, -476.02519925909, 1447.4411118212
4722, 582.33518709717, -569.25586749969, 1509.0367722055
4723, 670.68070648888, -671.16641125347, 1471.9013689591
4724, 806.40867881562, -577.93574301287, 1402.1452466599
4725, -28.147858005193, 6535.9773526307, 1617.2550658723
4726, -164.09662622605, 6508.8169562154, 1609.1546063885
4727, 311.08951902234, 4911.7170795591, -1587.3026054141
4728, 398.87537354106, 4808.2004765353, -1567.5473474133
4729, -553.47374007692, 420.2136782778, -1519.8595556976
4730, -603.82257124967, 592.14429844158, -1500.5680765795
4731, 357.50664795781, 5020.4325297421, 1577.4965124101
4732, 369.64167685319, 4879.3876279968, 1574.6972028721
4733, 486.3499040029, 4899.0521010345, 1542.6503235913
4734, 307.65314164677, 6134.7305477363, -1587.972227224
4735, 1398.95078032, 4032.5700039637, -811.93778347973
4736, 1347.971040595, 4118.0851693562, -894.02478920731
4737, 1404.9781975676, 4216.2125187377, -801.46273423023
4738, 1450.3290343442, 4130.6973533453, -716.13681803001
4739, 469.87518002314, 4574.1311170746, 1547.7479010479
4740, 337.76508350367, 4511.9859721233, 1581.8410155151
4741, 395.70090518887, 4394.6062703861, 1568.3516964102
4742, 526.46806058441, 4456.7514153373, 1529.4239540378
4743, 106.25615810682, 2277.8706060227, 1614.0061582486
4744, 225.41999663169, 2225.6177524763, 1601.7153539623
4745, 290.43429779974, 2358.2554059324, 1591.2115411414
4746, 171.86955406585, 2410.5082594789, 1608.342969141
4747, -545.01951315737, 5906.4811180185, 1522.9116784232
4748, -646.81423421182, 5815.0009957769, 1482.5442982997
4749, -588.79947056632, 5720.6396335211, 1506.5262803751
4750, -485.51502638548, 5812.1197557627, 1542.9132863366
4751, 540.82662660121, 1320.690453166, -1524.4057235392
4752, 583.87208682998, 1488.1537277128, -1508.4427851996
4753, -489.87678726118, 5645.8740367645, -1541.5339708559
4754, -429.91296376365, 5474.0004971286, -1559.320715436
4755, -539.03818115862, 5424.1951755671, -1525.0390451569
4756, -525.68218906023, 1915.889483738, -1529.694245954
4757, -590.48834125679, 2054.3511606702, -1505.8651230571
4758, -476.74453564163, 2145.5786672685, -1545.6457866328
4759, -338.58369552966, 5185.2662733969, -1581.6659985981
4760, -328.91072196947, 5407.2703934176, -1583.7057766434
4761, -202.91625149633, 5344.835912512, -1604.7215474588
4762, -212.72002004371, 5122.8317924914, -1603.4514158753
4763, -1321.0438104034, 1771.7112301727, 933.35389911595
4764, -1268.2080915137, 1841.1222147169, 1003.9693653789
4765, -1304.7454984594, 1913.2515342811, 956.00493421845
4766, -1354.9126264461, 1843.8405497368, 883.46931168935
4767, -1478.2259207046, 6213.0547386342, -656.62346695579
4768, -1427.2574262737, 6341.1725924815, -761.07981785522
4769, -1352.978771357, 6223.4236753186, -886.42805362719
4770, 1615.0044735977, 2628.8297357876, -89.815367612473
4771, 1617.4498473518, 2590.9682049409, 12.737397759077
4772, 1615.9714249978, 2441.8832965552, -70.303652754513
4773, -848.16474143408, 2987.576094826, -1377.2882128981
4774, -963.9949671571, 2903.8857477578, -1298.8533224717
4775, -1028.9924329677, 3024.6505300503, -1247.9907142664
4776, -917.3138265231, 3108.3408771185, -1332.2318092845
4777, 1161.2997457509, 4446.2164135337, -1125.9170264806
4778, 1213.8662690373, 4298.9074356833, -1069.0345789045
4779, 1360.7441481407, 4299.9082740907, -874.46075572368
4780, 1276.1575461585, 4192.7966338409, -993.84514255634
4781, 1305.5021156044, 4406.0190759331, -954.97145305634
4782, 1572.6642555552, 5497.6986128596, -378.19755326951
4783, 1590.6651426191, 5347.4587760089, -293.41208914535
4784, 1565.5691256046, 5273.5223980507, -406.57048952632
4785, 1541.5427445502, 5423.7622349014, -489.84917752789
4786, 1412.7122944695, 2234.7702636777, -787.7501019071
4787, 1481.6760686276, 2253.6572507161, -648.80064554243
4788, 1485.285080681, 2103.1959502863, -640.49549499298
4789, 1438.5404861024, 3505.0281952491, 739.5319599884
4790, 1457.3582120503, 3682.2910409246, 701.7216626054
4791, 1369.846270458, 3544.2001905382, 860.13222548187
4792, 1523.0016558371, 3239.642388819, 544.76802982327
4793, 1492.9841713301, 3390.351984872, 622.3379420843
4794, 1484.941244329, 3266.097008855, 641.29225076463
4795, 474.68622131575, 194.01866695203, -1546.2791602078
4796, 487.12555761681, -23.477151869209, -1542.4055695946
4797, 321.75362425803, 137.55530653676, -1585.1753389694
4798, -1526.3955992712, 3823.6566418003, -535.18475737411
4799, -1480.7691007255, 3816.2861719249, -650.86797458197
4800, -1482.6185416785, 3712.6574413075, -646.64403644604
4801, -1527.9150716059, 3720.0279111829, -530.83121984257
4802, 1595.4200705736, 6837.8556296709, -266.34760823209
4803, 1581.3175443448, 6659.8522587499, -340.20739843109
4804, 1543.3108819785, 6739.2028432429, -484.24969960405
4805, 1564.1488829673, 6917.206214164, -412.00063338818
4806, 1564.6280221526, 7157.652866823, -410.17728154394
4807, 1589.9491519506, 7051.5715487775, -297.26746241658
4808, 1530.6911360161, 7023.2875322095, -522.77231766971
4809, -1557.6554963373, 1318.0953404019, -435.9077938397
4810, -1591.7852344557, 1417.2336942399, -287.27341918222
4811, -1573.3274564198, 1542.7072361299, -375.42904106573
4812, -1530.9774334243, 1443.5688822918, -521.9332795919
4813, 1073.047451782, 3760.3408673004, -1210.3203775134
4814, 1011.1794648838, 3557.2957910487, -1262.4667677992
4815, 963.79815962105, 3698.9359842331, -1298.999367787
4816, -1477.5974421127, -454.6316371155, -658.03651043227
4817, -1416.9533525036, -357.68224447986, -780.09579336702
4818, -1449.0207513143, -590.5612812878, -718.78029484718
4819, -1484.4753798811, 4696.6326974965, 642.36990630548
4820, -1406.9009114516, 4661.715687598, 798.08274969252
4821, -1385.8905637194, 4783.7109130346, 834.0345288976
4822, 1315.1365813544, 5421.7684827248, -941.6591858966
4823, 1403.773815007, 5538.586902722, -803.57036176098
4824, 1449.1031596526, 5419.1935462968, -718.61414033193
4825, 1368.8400390697, 5302.3751262996, -861.73267167937
4826, 471.62961160954, 7270.6472881308, 1547.2141931397
4827, 545.31337913458, 7125.8453838028, 1522.8064777039
4828, -707.94563706027, 2553.3816386428, -1454.3449470354
4829, -588.02037151488, 2698.5410976116, -1506.8305454441
4830, -472.03168063096, 2578.5747808967, -1547.0915753376
4831, -595.59254889095, 2433.415321928, -1503.8536383922
4832, 454.47667039832, 1450.5891188933, 1552.3392689949
4833, 347.34071805643, 1358.5009921622, 1579.766019251
4834, 419.97166074522, 1279.1263327049, 1562.0275459066
4835, 525.72575393226, 1371.2144594359, 1529.6792741135
4836, -956.91943356985, 5478.1133290136, -1304.0749394327
4837, -959.58705893468, 5323.0003032291, -1302.1132540317
4838, -1076.1392280439, 5305.2479258426, -1207.5721973717
4839, -1073.6648977071, 5460.3609516271, -1209.772680065
4840, -1604.0587070087, 4927.2051682681, 208.09112059296
4841, -1597.0680651613, 5026.5578866658, 256.28079374354
4842, -1611.5789158242, 5071.2492551148, 138.27381556437
4843, -1615.0108396807, 4971.8965367171, 89.700823372814
4844, -886.63095633587, 5845.2750201292, 1352.8458142992
4845, -765.8384745473, 5886.3693274726, 1424.7096830242
4846, -787.1373190049, 6021.4156373803, 1413.053817457
4847, -906.83750415419, 5980.3213300368, 1339.38493013
4848, 1480.1452429725, 951.5062887417, 652.28545109172
4849, 1445.5444636914, 1095.6744030978, 725.74613570531
4850, 1380.2768399774, 1018.1347357271, 843.29241371063
4851, 1420.8590468823, 873.96662137106, 772.95913145048
4852, -500.05210905304, 292.73909475358, 1538.2633513907
4853, -672.5098060668, 4833.9142528272, 1471.0665555113
4854, -565.98083426657, 4772.5113849044, 1515.2464965288
4855, -506.89204025846, 4895.328100238, 1536.0230172503
4856, -615.05161745673, 4956.7309681608, 1496.0005875212
4857, -824.93041682927, 4783.8298309547, 1391.3288818212
4858, -714.12314188839, 4729.8538063143, 1451.3216005488
4859, -784.98034068387, 4887.8902774676, 1414.253200364
4860, -746.80858444271, 4324.7096651669, 1434.7763547685
4861, -656.70706750938, 4283.3758589832, 1478.1887827619
4862, -606.32567249324, 4411.4649814176, 1499.5584112917
4863, 1586.8525236772, -622.51384416524, 313.37727757338
4864, 1551.9267915856, -732.40382273565, 455.88319069555
4865, 1600.5542188333, -757.61002142959, 233.52182462262
4866, -659.45957837884, 5549.7282809435, 1476.9628683499
4867, -774.07934475812, 5503.5452151004, 1420.2490690083
4868, -620.94680248881, 5430.8761715302, 1493.5632957725
4869, 932.80559879865, 2695.6920712546, -1321.4310291687
4870, 812.91390483393, 2662.1696938319, -1398.383793287
4871, -1537.0986243939, 1793.5278104307, -503.62095755283
4872, -1486.5661485273, 1730.1522650705, -637.51653786593
4873, -1508.7532818505, 1601.4834568847, -583.06927933588
4874, -1554.3862233016, 1664.8590022449, -447.42565729967
4875, -39.556567319493, 2193.8068872144, 1617.0162423371
4876, 72.727395116028, 2173.1498599805, 1615.8641576567
4877, -5.9796904560657, 2298.5276332566, 1617.4889468871
4878, -1240.418690964, 1011.7518093971, 1038.1077598723
4879, -1208.3057583768, 1144.1277226439, 1075.3155091756
4880, -1288.0362427913, 1203.4101429164, 978.40118931655
4881, -1317.1678700926, 1071.0342296695, 938.81577106251
4882, -1409.0973507989, 2234.1210837433, -794.19827875129
4883, -1353.1078941204, 2283.8783316322, -886.2309387903
4884, -1327.5261955259, 2160.1563820364, -924.11062659867
4885, -1386.0937801217, 2110.3991341476, -833.69675704527
4886, 1600.5273393673, -540.00177179773, -233.70598181873
4887, 1576.4667525442, -641.27477601644, -362.02048025324
4888, 1582.8407982466, -423.68837268633, -333.048431022
4889, -1498.059446587, 4851.2212261997, -610.01979024564
4890, -1481.6281671903, 4990.574892623, -648.91002780683
4891, -1415.8510817462, 4945.8260266006, -782.09460061949
4892, -1435.7807677343, 4806.4723601773, -744.87571916676
4893, 729.76835520002, 86.34643457256, 1443.5180628412
4894, 835.78904931758, 146.86413066111, 1384.8331722777
4895, -752.76087555983, 6481.1389878167, 1431.6624302629
4896, -676.96388618055, 6302.8359957081, 1469.0221736949
4897, -641.05183773824, 6466.2300540526, 1485.0450469034
4898, 1213.8321921247, 512.50279053773, -1069.0732712783
4899, 1100.1925929335, 503.52983741052, -1185.699164398
4900, 1093.9882528847, 645.2356284055, -1191.4260163982
4901, 1208.2350910825, 654.20858153272, -1075.3949110336
4902, -1032.8235411664, 1396.3090111785, -1244.8219884033
4903, -1130.4095279286, 1543.9013823645, -1156.9272013261
4904, -933.71078274261, 1539.9704889906, -1320.7915899907
4905, 591.07555436324, 4640.2539089157, 1505.6347296188
4906, 676.97245902001, 4531.0330867379, 1469.0182230757
4907, 767.71814978524, 4597.2659993582, 1423.6976829687
4908, 684.28523289269, 4706.4868215359, 1465.6261358358
4909, -771.23998094957, 150.84458315424, -1421.7929321054
4910, -637.10409673054, 201.16031871826, -1486.7429569126
4911, -582.22657343675, 26.355270801092, -1509.078681575
4912, 939.25687466808, 6844.8491533875, -1316.8533606248
4913, 1090.3668785408, 6880.4047466819, -1194.7411101076
4914, 1032.5925543681, 6769.1965671288, -1245.0136009954
4915, 1155.4686724252, 6814.6056185143, -1131.900347665
4916, 116.45430947266, 6156.8399860137, -1613.3024030867
4917, 295.58745818786, 5997.8592634867, -1590.2623382832
4918, 104.20181560969, 6019.9687017641, -1614.140090458
4919, -35.89282706478, 6171.8111462051, 1617.1017144773
4920, -1562.632873748, 1154.9386439856, -417.71372000706
4921, -1526.56998788, 1095.4027802871, -534.68712543329
4922, -1537.5885654879, 979.31916726591, -502.12314553374
4923, -1571.1573452153, 1038.8550309644, -384.40973787873
4924, -361.39919439147, 3869.224911495, -1576.6092960189
4925, -490.82779100795, 4009.7903717933, -1541.2314328401
4926, -392.83991272453, 4144.3556364689, -1569.0707609826
4927, -261.4410834186, 4003.7901761707, -1596.231439955
4928, 809.00435163388, 1857.0227473133, 1400.6492098443
4929, 909.47859527464, 1943.9308238178, 1337.5929630262
4930, 839.0415805278, 2053.5539858629, 1382.8649522442
4931, 735.43889043137, 1966.6459093585, 1440.6373202306
4932, 613.49228560745, 3454.1206945501, 1496.6407269282
4933, 577.78626964354, 3608.2548436975, 1510.784324982
4934, 500.67632930583, 3440.3073620915, 1538.06029247
4935, -1058.8851590261, 3501.7828207518, -1222.729925206
4936, -972.8713638345, 3419.5429339653, -1292.2180773503
4937, -1036.1268272531, 3333.3050113074, -1242.0738495945
4938, -1118.5668538201, 3415.5448980939, -1168.3811208398
4939, 1479.3964799218, 4170.4249155473, 653.9818844547
4940, 1423.5248767448, 4232.7842250241, 768.03852461243
4941, 1392.5572453505, 4092.7534570563, 822.85513209916
4942, 1452.8251944266, 4030.3941475794, 711.05921303319
4943, 1346.3422891179, 6985.5474775968, 896.4757054894
4944, 1277.2230151394, 7136.8335314311, 992.47550075471
4945, 1198.4949764449, 7088.9136312218, 1086.2394033713
4946, 1274.6775108888, 6937.6275773875, 995.74268424845
4947, 1166.7253499254, 7275.0356227125, 1120.2938042502
4948, 54.955737652838, 2002.1895346668, 1616.566149868
4949, 150.74250294508, 2111.866933374, 1610.4604769462
4950, -23.242528023101, 2063.4724612733, 1617.3330006189
4951, -1523.4825836859, 5172.4861489341, -543.42162931339
4952, -1569.8422726581, 5228.6925275772, -389.74541559288
4953, -1556.3297913253, 5363.9857138093, -440.6175559749
4954, -1504.9944325846, 5307.7793351662, -592.70397998449
4955, -1466.9799710514, 1500.7362845272, 681.37802616026
4956, -1486.7558171314, 1369.8491625323, 637.07408535097
4957, -1428.5987870347, 1309.3056212432, 758.55899947393
4958, -1405.2055479697, 1440.1927432382, 801.06405359063
4959, -1488.3053864462, 1697.1326595632, 633.4455988284
4960, -1515.331449082, 1571.7449693461, 565.75334680675
4961, -1434.7940330965, 1626.1239747443, 746.77461967491
4962, -214.45356950652, 4267.03510625, -1603.2204828176
4963, -480.20781933902, 4279.9219902336, -1544.5733068539
4964, -1235.2227637829, -278.84515954275, -1044.2849102772
4965, -1354.771376356, -265.70984111619, -883.6858988388
4966, -1172.1756739747, -150.99488216885, -1114.589807661
4967, -1079.2757937783, -245.10003589684, -1204.769692084
4968, 1522.9626988415, 2575.701957756, -544.87692916601
4969, 1566.2196282384, 2622.9215823734, -404.05733023996
4970, 1537.5086510527, 2429.5096209592, -502.36779150162
4971, -589.67270875251, 3854.7866873377, -1506.1846986849
4972, -695.26833982639, 3943.3572270084, -1460.4479400633
4973, -599.16535194551, 4098.360911464, -1502.4337359857
4974, -1217.2355977452, 6968.8234137184, 1065.1965779056
4975, -1276.0844033216, 6860.7683685887, 993.93905527415
4976, -1218.270857453, 6783.1012775524, 1064.0123908492
4977, -1155.5143815404, 6891.1563226821, 1131.8536849139
4978, 724.0101115537, 2433.5848567678, -1446.4147428618
4979, 678.04736291286, 2597.5194184832, -1468.5223946699
4980, 856.59826431488, 2498.2351321165, -1372.0589140313
4981, 542.10092623325, 2568.5148110828, -1523.9530293868
4982, 518.5477782548, 2759.2304624038, -1532.1274267067
4983, -1458.7721927366, 7074.7225254269, -698.77746078308
4984, -1395.9265475145, 7179.8828923695, -817.12625948757
4985, -1343.0361062894, 7075.8545043236, -901.42124847541
4986, -1413.0405824228, 6970.694137381, -787.16107781451
4987, 1484.9936542562, 7130.9185239665, 641.17087957807
4988, 1407.1032508311, 7002.1681606459, 797.7259501235
4989, 1488.1908404358, 6978.8342118744, 633.71466169176
4990, 611.38207176446, 2342.7550829345, -1497.5039940932
4991, 519.22600028442, 2220.1193813316, -1531.897715459
4992, 449.23456919976, 2308.6340206557, -1553.8643930009
4993, 542.85530370408, 2431.2697222585, -1523.6844716805
4994, -220.06866529164, 942.20002797682, -1602.4593700175
4995, -93.850336836075, 1133.7636793022, -1614.7750197089
4996, -616.35753645832, 297.98076719752, 1495.4630176808
4997, -764.66696218475, 332.79971671942, 1425.338797249
4998, -790.72726401296, 187.09051775983, 1411.0480657818
4999, -643.73134883904, 152.27156823793, 1483.8855078886
5000, -192.40982972462, 1179.3110152381, -1606.0151641331
5001, -98.901714045139, 1370.1176484359, -1614.4735058089
5002, -1255.8219034746, 7162.1319717535, 1019.4202257918
5003, -1173.5225100476, 7276.0778684901, 1113.1716706832
5004, 938.59191248886, 2567.6662279284, -1317.3273973506
5005, 920.73994945625, 2362.2159434175, -1329.8662321735
5006, -1606.7558340753, 7177.8267738423, 186.12345275333
5007, -1611.7588677836, 7075.9881731745, 136.16020755359
5008, -1598.8969702443, 7018.1927977296, 244.61138269416
5009, 129.7424539928, 3528.8399253736, -1612.2881707784
5010, 109.11831914625, 3743.6626210341, -1613.8151822395
5011, 238.21361187591, 3626.9166089077, -1599.8626582045
5012, 314.9804535496, 3705.3176263369, -1586.5350812011
5013, 205.71788793341, 3823.8663990851, -1604.3647966046
5014, 405.38477158723, 3777.5310492843, -1565.8765714338
5015, 149.54342022914, 3218.2464247514, -1610.5722633481
5016, 239.69136546111, 3120.6374989644, -1599.6419284713
5017, 90.772389397316, 3032.1957617131, -1614.9509662287
5018, 622.00371603365, 6167.8029991006, 1493.1234467519
5019, 462.53544618275, 6193.8417402866, 1549.9571642547
5020, 604.15921685832, 6034.8130844806, 1500.4325678567
5021, 1580.3998656757, 5825.9528789833, -344.44522724572
5022, 1590.5657397927, 5987.265923418, -293.95046759253
5023, 1612.3977856938, 5925.9508391862, -128.37301386848
5024, 1607.49284775, 5764.6377947515, -179.64686034759
5025, 446.15988286077, 1654.4565833405, -1554.7500149303
5026, 247.11676442889, 1642.6773863792, -1598.5116686275
5027, 113.35150945372, 5778.4607573947, -1613.5233761259
5028, 217.06168843533, 5831.8278966589, -1602.8694498972
5029, -312.4761446666, 6036.8604301777, -1587.0302167931
5030, -230.02424684046, 5846.6093746126, -1601.0606159248
5031, -364.49466452072, 5795.7018328714, -1575.8965351621
5032, -445.46605641084, 5985.9528884365, -1554.948951762
5033, -1521.7979071269, -511.89100160866, -548.12168344649
5034, -1534.3921372523, -399.44909351359, -511.80759972711
5035, -1492.815829795, -342.18972902042, -622.7416384934
5036, -471.60630188062, 1373.7591875925, -1547.2212983366
5037, -404.15732809183, 1226.96647203, -1566.193827133
5038, -516.96013286767, 1185.3901926775, -1532.6638480193
5039, -582.85116894451, 1332.18290824, -1508.8375541655
5040, -293.55026520678, 1301.5780945953, -1590.639648631
5041, -304.34102469839, 1104.6993926727, -1588.6103331798
5042, -624.29786857998, 453.99128560446, 1492.1656815805
5043, 1163.2450766417, 7281.0118052733, -1123.9070876495
5044, 1253.1199433284, 7170.5137738631, -1022.7397800186
5045, 1313.4605669246, 7274.5019685897, -943.99554508171
5046, 560.04084292974, 6574.8130317637, -1517.4519775764
5047, -742.05998453129, 4096.19432151, -1437.2380559105
5048, -805.47062065975, 3903.2609511993, -1402.6843298668
5049, -850.33976886956, 4056.098045701, -1375.9464115578
5050, 310.31843973831, -247.8121723264, 1587.4535319052
5051, -1614.7312451155, 400.02630401837, -94.600507651012
5052, -1615.6045352067, 432.09877933592, 78.283049375919
5053, -1616.7474108494, 598.41250804508, 49.336188664042
5054, -1612.7780417121, 566.34003272754, -123.50400062803
5055, -93.569453090084, 3711.9182870249, -1614.7913200932
5056, -63.47079709153, 3460.5728208625, -1616.2542213144
5057, -1259.4848695672, 7180.5563438971, -1014.8911830001
5058, -1194.2846729513, 7079.6712801057, -1090.8667975301
5059, 516.06128822851, 905.21760933403, 1532.9667304909
5060, 582.8014772408, 773.08337770984, 1508.8567487094
5061, 619.73022223743, 866.76635784768, 1494.0685063428
5062, 235.37291409035, 5027.9554278732, -1600.2830503735
5063, 354.1387665349, 5155.0105560135, -1578.2559944563
5064, 428.67557056604, 5038.7722076995, -1559.6613431126
5065, -733.51007652607, 545.88535562091, -1441.6203444856
5066, -654.63477658994, 757.62407202076, -1479.1076902237
5067, -204.22126681657, 6111.4544869375, -1604.5559897304
5068, -103.50113399262, 6039.3988367847, -1614.1851706859
5069, 1529.1194446205, 7223.4639599471, 527.35185036502
5070, 578.29949378636, 5351.4335401836, 1510.5879469552
5071, 645.18579533853, 5479.0289476288, 1483.2537003134
5072, 548.65539462558, 5549.184092187, 1521.6055691106
5073, 480.15260214685, 5421.5886847418, 1544.5904727958
5074, 368.43943304537, 5565.3342860647, 1574.9789313439
5075, 388.3096023077, 5328.7543986771, 1570.1980457113
5076, -1331.4633462131, 515.56159217991, -918.42888003967
5077, -1269.5396138824, 680.01021893985, -1002.285098554
5078, -1229.8494075332, 804.10817198866, -1050.6077692413
5079, 1133.5389221346, 2855.2383710583, -1153.8612403603
5080, 1142.823263144, 2987.9634901954, -1144.6664314187
5081, 1235.4551476104, 2973.8333086303, -1044.0099751645
5082, -1262.546689238, -516.35024236235, 1011.0796741574
5083, -612.33932588694, -50.601777259593, 1497.1128213907
5084, -745.75212505365, -79.552794980496, 1435.3257532623
5085, 1344.3427783384, 309.31267225108, 899.47136937732
5086, 1327.1961457902, 155.04436943018, 924.58457731015
5087, 1414.7349929274, 148.14286139847, 784.11169471371
5088, 1429.2254211841, 302.41116421937, 757.37767688329
5089, 1565.6399489185, 7286.0571384983, 406.29767455712
5090, -339.91731428657, 5652.2737247601, -1581.379925713
5091, -237.68445613507, 5585.5436210491, -1599.9413580853
5092, -513.81565240838, 5789.3021448758, -1533.720875955
5093, -876.32206461165, 6880.4277335, -1359.5462070392
5094, -1048.1481353757, 6880.8203866862, -1231.9463203843
5095, -954.19173003068, 6974.119020303, -1306.0721237133
5096, -1562.3872249413, 60.735264047212, -418.63159142628
5097, -1560.1055539105, -177.1555447977, -427.05609778758
5098, -1594.2599421608, 69.561259157342, -273.20594214167
5099, 1489.8234556535, 322.44667008096, 629.86690735787
5100, 1485.1035151849, 434.47595675917, 640.91637456488
5101, 1423.559965252, 414.44045089758, 767.97348608636
5102, -1140.6548804704, 6777.8595035016, -1146.8272292106
5103, -1127.1837889556, 6978.5909497863, -1160.0702374924
5104, -1218.9207115768, 6669.2573736656, -1063.2678631883
5105, -771.7350832444, 7276.1912464154, -1421.5242563142
5106, 861.0191905091, 3979.1211311466, -1369.288940865
5107, 705.17142187835, 3910.695622059, -1455.6921088493
5108, 651.0602372258, 4065.0679722253, -1480.6845773167
5109, -216.71174335393, -100.41738465679, -1602.9168008017
5110, -333.11018479237, -193.65155158938, -1582.8278032646
5111, -402.45229710523, -85.152099601491, -1566.6328218682
5112, -287.05082619804, 8.0820673310991, -1591.8253902922
5113, -526.24509831215, -131.03597285874, -1529.5006853553
5114, 1486.7966691119, 3534.9199819342, -636.97873961201
5115, -1191.9285006595, -653.19985568267, 1093.4407616856
5116, -839.83694334217, -59.249812368051, 1382.3820595616
5117, -929.49921004507, -26.396422139109, 1323.7588407733
5118, -971.18615400003, -148.27351395326, 1293.4851001379
5119, 337.14910750552, 3494.7418464209, -1581.9724173664
5120, 130.46901468264, 3438.9489994655, -1612.2295389329
5121, -899.78473847737, 1184.3293697706, -1344.1330568077
5122, -898.6172918111, 1030.4425948358, -1344.913831016
5123, -1007.041054974, 1194.8312970355, -1265.7703439395
5124, -761.54740859819, 1082.670806318, -1427.0079868233
5125, -711.02231464188, 920.7025319902, -1452.8432531011
5126, -997.21495401817, 490.02075049568, -1273.5260442891
5127, -962.57726961972, 275.72373395948, -1299.9043234067
5128, -1090.0478475496, 247.47171687906, -1195.0321920569
5129, -821.33885446828, 331.47226707186, -1393.4520932349
5130, -1045.6009196797, 6769.3012452331, 1234.1089768594
5131, -1032.9925255394, 6615.8221121387, 1244.6817634157
5132, -911.21173661837, 6638.3772269651, 1336.4128931767
5133, -688.49668000046, 373.48967564041, -1463.6524763851
5134, -864.1136837144, 503.86794705237, -1367.3382140559
5135, -814.44579883822, -409.32694507771, -1397.4921433607
5136, -717.25921845826, -497.13033749664, -1449.7742802025
5137, -816.32352964548, -637.55857359067, -1396.396127518
5138, 885.69374181164, 3204.5867758425, -1353.4595840718
5139, 987.57744252573, 7282.8019946463, 1281.014069015
5140, 457.04920432485, 5620.211095299, 1551.5837956185
5141, 612.29924789771, 5642.141145703, 1497.1292132024
5142, 423.20065590051, 7074.1552204533, 1561.1558073573
5143, -899.54421345558, 7273.6837403274, 1344.2940370464
5144, -234.58520258773, 3112.8252562276, -1600.398710549
5145, -374.66632352262, 2981.2995129561, -1573.5092614974
5146, -490.10443917221, 3063.814430036, -1541.461607924
5147, -352.39782541242, 3195.3401733076, -1578.6456292166
5148, 1036.6347991183, 3363.0174983706, -1241.6499278206
5149, 915.45971719937, 3325.8334649414, -1333.5065639828
5150, 888.16209875266, 3520.1117576196, -1351.8410913785
5151, -244.30788451243, -337.73536202385, -1598.9433722196
5152, -357.15901184758, -438.27370983945, -1577.5752566062
5153, -444.5938105052, -294.18989940498, -1555.198570492
5154, -125.65238799093, -407.82125730035, -1612.6120821178
5155, -119.35875940631, -152.6875422235, -1613.0901204065
5156, 290.07664851156, 3017.0315548192, -1591.2767791897
5157, -95.168141921293, -659.59423678012, -1614.6978896262
5158, -220.31526504509, -586.75143158046, -1602.4254846913
5159, -1595.6326403032, 5446.7671222384, -265.07117383647
5160, -1580.3160897032, 5587.9236992977, -344.82938770528
5161, -1532.2512807016, 5505.1422908687, -518.18168897442
5162, -582.52765328458, 1688.5933870547, -1508.9624856698
5163, -523.68841470521, 1534.4689922073, -1530.3779579906
5164, -643.16279433427, 1485.6304231338, -1484.1320257929
5165, 1221.1261465143, -720.22567372053, 1060.734266581
5166, 1317.836533824, -678.16487722375, 937.87692162604
5167, 1281.811754938, -579.04405893849, 986.54187691283
5168, 1180.5710005439, -621.10485543526, 1105.6936115736
5169, -1558.7443304366, 4750.2995995891, -431.99810454632
5170, -1546.5338639609, 4893.9607470602, -473.85573503155
5171, -1513.9577079975, 4707.5600787286, -569.41927293957
5172, -103.99444641719, 201.215935651, -1614.1534639291
5173, -97.838275984582, 87.387345066712, -1614.5382998716
5174, 1318.0217973444, 7053.9926507872, -937.61654834208
5175, 415.11169147277, 2574.8806807504, -1563.3261123651
5176, 415.88557643268, 2437.6355919262, -1563.1204167675
5177, -665.20224291321, 6180.7155625795, 1474.3853722902
5178, -660.91921245592, 6040.8925062565, 1476.3102806005
5179, 1510.132759613, 4756.2522698164, 579.48709937645
5180, 1555.541813525, 4801.880893076, 443.39138058313
5181, 1541.4008905328, 4908.1149277438, 490.29536471875
5182, 1491.8912004792, 4862.4863044842, 624.9535150174
5183, 773.8871958848, 3383.964460036, -1420.3537791852
5184, -595.20042544862, -384.89257703057, -1504.0088774824
5185, -1193.2368702381, 3780.9226338887, -1092.0128302837
5186, -1266.7393823928, 3668.3212060812, -1005.8218465986
5187, -1335.9896112894, 3763.5630119051, -911.83222608475
5188, -1268.8954964633, 3876.1644397125, -1003.1004282
5189, -240.369518425, 6093.0735267339, 1599.5401666142
5190, 240.8432950685, 2850.9556870587, -1599.4688984849
5191, 179.70455394378, 2982.6595384033, -1607.4863991001
5192, 350.51735941175, 2885.3277034746, -1579.0642262907
5193, 1350.9744138885, -523.12428528971, 889.47983845539
5194, 1297.7200305436, -395.2081874961, 965.5200527829
5195, 1223.1028487882, -451.12796114487, 1058.4543784623
5196, 885.04702761995, 6740.9643275883, -1353.8825683571
5197, 974.44284357639, 6620.5809522027, -1291.0334599083
5198, 887.38743444851, 6536.7518850322, -1352.3497296125
5199, 794.05015080249, 6657.1352604179, -1409.1808287124
5200, -1122.5296639587, -749.41293522409, -1164.5743443562
5201, -934.14394961204, -752.75898558549, -1320.485263607
5202, 1547.0683009408, 3306.3828477083, -472.10795611206
5203, 1499.2269076919, 3214.1293853054, -607.14489971715
5204, 1517.3859138959, 3420.8570306095, -560.21981249345
5205, -566.25029604332, 5309.5291784168, 1515.1458188012
5206, -462.05371093301, 5368.0046495901, 1550.1008413045
5207, -127.10364068557, 5773.8121003278, -1612.4983455881
5208, -1597.6159771103, 6912.7133558066, 252.84271728091
5209, -1572.6204933516, 6911.0919059597, 378.37948397152
5210, -334.60275740028, 1402.7418573372, -1582.5129524715
5211, -140.63595022184, 1471.2814111778, -1611.3745000791
5212, -699.99430290083, 1283.7353066187, -1458.1886798033
5213, -758.17039865628, 1437.1828215125, -1428.8050589921
5214, -869.5750474934, 1368.4891242169, -1363.8715066959
5215, 219.00258221557, 2158.8299521069, -1602.6054158722
5216, 357.56772116719, 2235.203298625, -1577.4826701994
5217, 403.57054350938, 2109.4972039185, -1566.3451300437
5218, 298.71860995303, 2562.1488551521, -1589.6771502628
5219, 267.31506608277, 2718.788860905, -1595.258256661
5220, 384.20511159724, 2731.5206865034, -1571.2073963111
5221, -1604.7301928404, 7053.1382454445, -202.84786956363
5222, -1607.3355943134, 7239.5838930183, -181.04843896945
5223, -1588.3849957982, 7281.9127149147, -305.51490163837
5224, -1584.0919766532, 7095.4670673409, -327.04565354549
5225, -450.40001185879, 1029.1125570865, -1553.5269805567
5226, -579.99598919235, 973.7445734109, -1509.9373836424
5227, -644.55627959271, 1130.0222090018, -1483.5273682806
5228, 759.25968024785, 6821.2585715791, -1428.2265184311
5229, 664.39907461414, 6630.2526790428, -1474.7474765708
5230, -1593.379051369, 3163.4858996853, -278.29741044135
5231, -1602.4149403192, 3306.2931237879, -220.39194413963
5232, -1578.9563901429, 3342.7114002009, -351.00280344584
5233, -1565.2043049827, 3199.9041760983, -407.97271191063
5234, 1170.1884472549, 630.33360762628, 1116.6759816129
5235, 1236.6826973241, 806.83049986917, 1042.5555889923
5236, 1121.7412735268, 875.11249144116, 1165.3337570269
5237, 1047.9100029344, 698.61559919827, 1232.1488853828
5238, -373.0276429492, 5317.0948501799, 1573.8985442511
5239, -1077.1853803878, 7250.5781923767, 1206.6390952885
5240, -1172.2959726038, 7074.7414173175, 1114.4632800666
5241, 1382.0789486246, 7157.2350101772, -840.33566493911
5242, 1439.9779995383, 7267.7330415875, -736.72899416661
5243, 417.755437505, 2814.6778693767, 1562.621721478
5244, 314.22244201048, 2809.4888248216, 1586.6853837283
5245, 324.79964853624, 2701.345566374, 1584.5540187418
5246, 428.16982064652, 2706.5346109291, 1559.8002611513
5247, 961.06667913546, 6619.5984618267, 1301.021555646
5248, 1096.0995750925, 6668.9766515407, 1189.4839097197
5249, 1215.289237077, 2367.4036804486, -1067.4166572828
5250, 1272.2482786942, 2329.6512120957, -998.84461622397
5251, 1225.7217913831, 2208.4025825693, -1055.4204565616
5252, 1253.8314839924, 2474.4086695969, -1021.867339604
5253, 1318.9303678673, 2505.9250949656, -936.33804510844
5254, 1335.7774478746, 2361.1676374644, -912.14300400185
5255, 1203.9076224451, 2516.0250869563, -1080.2373288396
5256, 1504.0854400567, 184.7862270127, 595.00692349699
5257, 1427.835753812, -4.224639411681, 759.99428296276
5258, 1513.9647008133, 32.418726202553, 569.4006802695
5259, -1533.4416206469, 2116.0054671426, -514.64846844018
5260, -1561.5695426176, 2234.9988088332, -421.67145216269
5261, -1525.245855724, 2325.7734835643, -538.4527180697
5262, -1490.1733262728, 2206.7801418736, -629.03871714321
5263, -1095.2389776779, 7180.9458270859, -1190.2763678134
5264, -1022.3923946991, 7079.8654967664, -1253.4033832974
5265, -624.52308671499, 1113.4881978222, 1492.0714340004
5266, -484.71483461673, 1163.2296023236, 1543.1648580442
5267, -529.42823553951, 1314.9710976643, 1528.4017774831
5268, -667.69000717763, 1265.2296931629, 1473.2604332959
5269, 758.04838476729, -770.73983308498, 1428.8697968505
5270, -111.22560790958, 5520.4424582212, -1613.6713154001
5271, -1455.7264456289, 2126.5758512604, -705.1005357371
5272, -1396.0675298572, 1993.7256373297, -816.88536654678
5273, -1464.1410653074, 2009.9023544425, -687.45704657127
5274, -1413.9800695449, 2879.0155803435, -785.47222288867
5275, -1459.0074185077, 3041.7937990072, -698.28618970993
5276, -1405.7011543013, 3095.9783402607, -800.19404821321
5277, -1354.5924296678, 2933.200121597, -883.96017980822
5278, -1161.8785686215, 7283.0614746851, -1125.3197064737
5279, -1320.4684488746, 7282.494869212, -934.16771809283
5280, -221.56250659424, -788.53954928012, -1602.2535085534
5281, -333.89736992494, -680.5935246751, -1582.6619336918
5282, 1496.5427455354, 632.57985958584, 613.73126104629
5283, 1537.4786711736, 725.07967173714, 502.45953636716
5284, 1499.3925797049, 837.10737162251, 606.73564418603
5285, 1450.9206611443, 744.60755947121, 714.93739940273
5286, 1616.9431970364, 5726.2924348388, -42.437572475811
5287, 1615.5906728648, 5581.8602847412, -78.56861811347
5288, 1603.0758051934, 5620.2056446539, -215.53239386123
5289, 847.90006300459, 2249.5215793972, 1377.4511726943
5290, 909.17564874797, 2352.5943404414, 1337.7988973398
5291, 816.80413750396, 2444.8821790193, 1396.1150564894
5292, 45.039331641332, 1231.0132853454, 1616.8728176963
5293, 202.35014804428, 1212.4262813245, 1604.793029517
5294, 235.19309381852, 1356.9735323956, 1600.3094883866
5295, 78.162849208139, 1375.5605364164, 1615.6103549444
5296, 253.4135289179, 2047.2369117585, 1597.5255344943
5297, 174.21001385515, 1937.0266445074, 1608.0911420291
5298, 272.44327554888, 1867.9929124629, 1594.3904514291
5299, 350.85031357088, 1978.2031797141, 1578.990280992
5300, -933.16842844625, 2302.0471385429, -1321.1748310315
5301, -1045.9471215623, 2156.4419234544, -1233.8155732911
5302, -1125.1040898766, 2290.0439905679, -1162.0873620098
5303, -1018.3374718754, 2435.6492056564, -1256.7000610226
5304, 1533.3746691863, 1018.0912986508, 514.84791336656
5305, 1562.9229285805, 1116.5748045067, 416.62713463894
5306, 1537.3080474169, 1224.518686224, 502.98132902458
5307, 1502.3381385579, 1126.0351803682, 599.40501118556
5308, 191.40275158891, 977.56553788273, -1606.1354976104
5309, 421.02621525715, 1040.6094018367, -1561.7436332722
5310, 306.28102549538, 895.8958407985, -1588.2374455419
5311, 97.501169899697, 903.84157347696, -1614.5586926056
5312, -1317.578244334, -103.91980001709, 938.23974551162
5313, -1408.2203262556, 76.949734722695, 795.7523249859
5314, 1230.8314705469, 3814.4680189327, 1049.4570696848
5315, 1206.9736793759, 3634.371680345, 1076.8104695321
5316, 1289.4314574319, 3605.1388228523, 976.56170649119
5317, 1124.6093528878, 3667.1252766394, 1162.5661501168
5318, 1095.1522620528, 3531.7114078334, 1190.3561538131
5319, 1179.6376506024, 3498.957811539, 1106.6893255477
5320, 1396.6819958094, 2690.4075432854, -815.83432912688
5321, 1402.7734296659, 2532.8324769979, -805.31543821253
5322, 1395.1709101681, 2837.9206647125, -818.41577539828
5323, 1461.517899964, 2841.1176789689, -693.01636206147
5324, 1462.7969748616, 2693.6045575418, -690.31243675299
5325, 693.6686626931, 2190.7031863904, -1461.2084164819
5326, 588.8235281811, 2128.1156617964, -1506.5168776553
5327, 1126.6072864899, 2698.1350092857, -1160.6301185252
5328, -978.00936947135, 7282.8843524007, -1288.3337778799
5329, 89.210919108017, 2822.3778391902, -1615.0379753776
5330, 323.73438072686, 2364.2048698955, -1584.7720027611
5331, -193.11034398505, 6675.2604362829, 1605.9310835294
5332, -38.425950031289, 6666.8766016039, 1617.043504784
5333, 209.93882277213, 2359.4776746645, -1603.8179262912
5334, 1109.1658525633, 7172.8376173588, 1177.3093737449
5335, 1148.6507302154, 7000.7709407304, 1138.8185764096
5336, 1315.9522197408, 2990.5113324397, -940.51900850502
5337, 1394.8140537316, 2989.1352888624, -819.02381254322
5338, 1159.3659938414, 333.57989442187, 1127.9081267214
5339, 1143.836084324, 488.39595077347, 1143.654345595
5340, 1019.0000187826, 474.67739139037, 1256.1628921924
5341, 1209.63928872, 189.59346050174, -1073.81518018
5342, 1162.9083630867, 331.00292468555, -1124.2554821138
5343, 1276.846256679, 408.14558104992, -992.96016375528
5344, 1317.8940840462, 266.7361168661, -937.79605098127
5345, -1472.7726737977, 5381.4961916937, 668.7652064176
5346, -1428.804927776, 5489.3745275071, 758.17064593857
5347, -1462.9278338219, 5572.4168823818, 690.03507376732
5348, -1502.6359480673, 5464.5385465684, 598.65804728232
5349, -468.62341970766, -532.11580293408, -1548.1273657233
5350, 1552.2593019614, 2820.3016614378, -454.74972179675
5351, 1553.8022500209, 2713.3272469149, -449.44946081852
5352, 1517.6068689231, 2713.2276805122, -559.62098012631
5353, 1515.6881338894, 2820.2020950351, -564.79707044835
5354, -129.07619961026, 426.00605560525, -1612.3416463933
5355, 1544.9574329884, 658.16256893713, -478.97054215679
5356, 1569.4626444125, 786.97535263802, -391.27133525705
5357, 1593.1983026009, 720.68795199233, -279.33030374403
5358, 1574.9547975685, 591.87516829144, -368.54258317863
5359, -381.91344736535, 1591.0242277144, 1571.7660031702
5360, -440.50704684462, 1682.2773759252, 1556.3610736845
5361, -536.25613991971, 1616.993266062, 1526.0195288391
5362, -478.73164422126, 1525.7401178512, 1545.0314763205
5363, 1591.7524674864, 920.1184099468, -287.45492211989
5364, 1540.6737517696, 866.55040700583, -492.57551767028
5365, 1569.6722315397, 999.69346431462, -390.42968065104
5366, 1534.717417067, 7267.8842837627, -510.83138093809
5367, 1488.8562223457, 7150.6173253502, -632.1498233667
5368, -61.03436987827, 2756.3212446264, 1616.3480614316
5369, -87.09027140557, 2607.9580522997, 1615.153718575
5370, 47.015777008358, 2582.1241563825, 1616.8165532033
5371, 73.081055707087, 2730.4873487092, 1615.8482011924
5372, 540.85876626081, 929.49824848931, -1524.3943206923
5373, 615.00583915148, 815.18639233845, -1496.0194075645
5374, 494.00888045817, 721.8894760597, -1540.2147499711
5375, 417.83898907176, 836.20133221056, -1562.5993821871
5376, -445.47311202622, 3752.736778051, -1554.9469304326
5377, -220.40826951465, 3758.8959249881, -1602.4126948853
5378, -127.34249211993, 3950.4542004632, -1612.4795005521
5379, 356.77963337407, 2943.9389489061, 1577.661098972
5380, 217.83409344074, 2850.0818330245, 1602.7646607456
5381, -1211.113451022, -83.228938659681, 1072.1522553973
5382, -909.1777266435, 7174.0755988161, -1337.797485188
5383, -824.7068293022, 6270.6098099632, -1391.4614244392
5384, -712.21330996411, 6151.8677085572, -1452.2597739764
5385, -234.4568651906, 3863.9026582569, 1600.417516889
5386, -93.63560648584, 3935.0311179521, 1614.7874854599
5387, -147.14793142048, 4042.0367140694, 1610.79289056
5388, -287.41503178448, 3970.9082543743, 1591.7596707746
5389, -1371.6031314353, 6493.6488405615, 857.32788350592
5390, -1437.1831259119, 6650.0442917916, 742.16636449933
5391, 880.82140801824, 5089.0680725781, 1356.6355063822
5392, 974.33566870898, 5085.6060784427, 1291.1143460908
5393, 1117.8267046077, 5121.4090957144, 1169.0892645414
5394, 1017.6986166953, 5193.9402875189, 1257.2174734613
5395, 1054.8979599751, -217.84683401908, -1226.1714986251
5396, 941.18708520038, -220.98912255088, -1315.4744849871
5397, 941.25417825709, -83.663620110068, -1315.4264790985
5398, 1054.9604980865, -80.521331578264, -1226.1176931588
5399, 1576.2754916745, 553.80698496678, 362.85234510259
5400, 1605.9305620603, 552.64970228431, 193.1146805416
5401, 1574.1953348149, 701.29537776982, 371.77318064499
5402, -1569.2356800971, 4974.038884924, 392.18060929887
5403, -1591.1440157024, 4844.6109149616, 290.80400838764
5404, -162.63796218084, 3307.8207571055, -1609.3026885138
5405, -460.45896965132, 3300.9038342847, -1550.5753084799
5406, -826.18039155405, 4064.8790370387, 1390.5870021727
5407, -958.03652234099, 3989.6236260913, 1303.2544923616
5408, -911.22474247473, 3865.7158316782, 1336.404025249
5409, -776.35498138542, 3940.9712426256, 1419.0064104429
5410, -281.39530443367, 1606.0563997663, -1592.8348729993
5411, 968.97401358621, -776.77656489812, 1295.1430851433
5412, 886.84875525154, -680.01639798309, 1352.7030477192
5413, -1516.6210689212, -717.73578916182, -562.28710042488
5414, 609.89513487751, 6277.6200506548, 1498.1102010375
5415, 559.63752892074, 6374.0233638738, 1517.600766415
5416, -1289.8734386248, 2831.1155062645, 975.97784930307
5417, -1252.488476168, 2704.6723341655, 1023.5130028809
5418, -1166.4114571368, 2749.1226531868, 1120.6206149541
5419, -1207.486601201, 2875.5658252858, 1076.2352707099
5420, 733.7564259767, 6192.0882647746, 1441.4949730533
5421, 722.06216201084, 6301.9053163288, 1447.3881594763
5422, -1256.9497400533, 3004.6416507007, 1018.0292731449
5423, -1314.7782740744, 3127.4705691129, 942.15940266074
5424, -1365.1220954088, 3061.4513870151, 867.61046249257
5425, -1311.6007934493, 2938.622468603, 946.5778407628
5426, 707.98851917986, 6426.5514363657, 1454.3240721069
5427, -1057.800057948, 4676.7445873965, 1223.6687817401
5428, -919.97806644632, 4749.6705708354, 1330.3934031923
5429, -966.60329423307, 4889.0168055212, 1296.91338245
5430, -393.36132137515, 3085.4435761213, 1568.9401265969
5431, -494.13058950698, 3072.0340663382, 1540.1757076754
5432, -469.44554229941, 2973.3860136737, 1547.8782680867
5433, -368.22931138298, 2986.7955234568, 1575.0280709366
5434, -741.29402303644, 5777.6324270064, 1437.6332708345
5435, -844.15894278422, 5720.2095091041, 1379.7470526576
5436, -807.33381410058, 5608.1185638173, 1401.6127719915
5437, -702.97239656458, 5665.5414817196, 1456.7553190801
5438, -1212.0846302397, 1804.7597644344, -1071.0541999061
5439, -1233.8380395824, 1621.3341395749, -1045.9206193968
5440, -1343.58630968, 1649.0457660692, -900.60095405255
5441, -1324.7959349113, 1832.4713909287, -928.02046359043
5442, -977.2602355024, -264.59695853188, -1288.9021227796
5443, -1610.1825420058, 1656.1585876465, 153.68289241076
5444, -1617.4879898114, 1591.2754044524, -6.2332027060764
5445, -1616.8062336016, 1477.5976061508, 47.369325380826
5446, -1604.2056181507, 1542.480789345, 206.95551380362
5447, 1593.9940437516, 7274.7685830603, -274.75305000023
5448, 1617.2451306593, 7281.1919692368, -28.713017235175
5449, 1607.7412010807, 7170.9605522971, -177.41048544979
5450, -1570.7520040437, 3736.3268881889, -386.06267858041
5451, -1534.8819388827, 3586.1032871356, -510.33683356364
5452, -1575.7777150625, 3602.4022641416, -365.00800362785
5453, 1025.7491307028, 2709.402818546, -1250.6578152566
5454, -1230.7475283884, 3171.6100886672, 1049.5555113312
5455, -1175.0583016943, 3064.023681232, 1111.5503756552
5456, -1090.5997686151, 3148.345655385, 1194.5285240197
5457, -1150.674753618, 3255.9320628202, 1136.7734432974
5458, -814.7728498139, 1236.3839039349, -1397.3014897316
5459, -952.41030382225, 1316.4345900526, -1307.3717387083
5460, 829.03824104056, -410.75603160189, -1388.8851086006
5461, 936.00683913003, -554.1529489381, -1319.165435835
5462, 823.39090061445, -649.40219962905, -1392.2405233239
5463, 711.00920601428, -506.00528229285, -1452.8496683976
5464, -1510.7832598565, 638.3485740073, -577.78905470535
5465, -1493.2571348952, 782.14143112894, -621.68269968247
5466, 1469.42282654, 2556.0788347856, -676.0937855381
5467, -1580.2079223681, 1033.6412601997, 345.32473425044
5468, -1601.4712966071, 1079.2849058863, 227.14738859059
5469, -1605.620922181, 975.84608757899, 195.67244122411
5470, -1586.6810452923, 930.20244189236, 314.24434841412
5471, 617.6198054537, 1291.4919451363, 1494.9421480149
5472, 542.10151181634, 1191.7378829134, 1523.9528210829
5473, 644.31299993212, 1118.88247331, 1483.6330436191
5474, 717.6874997389, 1218.6365355329, 1449.5623141895
5475, 1297.7416340592, 3284.9741975349, -965.49101561297
5476, 1238.4839035476, 3362.469168651, -1040.4152395334
5477, 327.14029657659, 2549.6433048567, 1584.0724340622
5478, 196.84891509598, 2706.045126631, 1605.477111212
5479, 199.22061431845, 2554.3428651138, 1605.1845366906
5480, 1332.3807344717, 3943.0275711081, -917.09750212761
5481, 19.488775782009, 2438.2895507476, 1617.382588511
5482, 1404.5134331509, 3141.9258813377, -802.27692606656
5483, 1296.8589432967, 3157.5879550597, -966.67633217705
5484, -541.97384220065, 2915.2101242371, 1523.9982297792
5485, -614.78232853941, 3036.9490658939, 1496.1112721037
5486, -721.15404539416, 2982.9551139876, 1447.8408382179
5487, -650.5480317204, 2861.2161723307, 1480.9096894898
5488, 1214.3060791837, 3140.9099312503, -1068.5349765251
5489, -950.75451309053, 5653.3975107768, 1308.5763660704
5490, -1029.4174940602, 5550.0306030332, 1247.6401215587
5491, -972.7678046295, 5462.9194078932, 1292.2960373987
5492, -891.46620427244, 5566.2863156367, 1349.6644978068
5493, 1474.5840619674, 1246.1307661641, -664.76168225294
5494, 1468.2353907401, 1066.9751091059, -678.66861381542
5495, 1406.631147695, 1060.3276014909, -798.55811581509
5496, 1414.1156727838, 1239.483258549, -785.22806495132
5497, -237.19300873599, 2630.3644854521, 1600.0142895008
5498, -186.12852637132, 2785.8115501741, 1606.7552463492
5499, -307.39938286218, 2845.4544175584, 1588.0213693197
5500, -357.80589496733, 2690.0073528364, 1577.4286644811
5501, 1175.6408282501, 3814.3378834468, -1110.9342433067
5502, 1264.4887927848, 3880.3586150665, -1008.6497622672
5503, 1119.6585567516, 5005.7334737135, -1167.3349846094
5504, 1209.5303562292, 4914.5018179458, -1073.9378787249
5505, 1137.9719580628, 4788.2900169358, -1149.4894834938
5506, 1042.2806123252, 4879.5216727036, -1236.9144574994
5507, -1616.6873898987, 122.98641618673, -51.265323001021
5508, -1604.0531646803, 195.87724794373, -208.13383886084
5509, -940.71587247552, 1322.6695524296, 1315.8114976214
5510, -1061.7730435924, 1357.5618824989, 1220.2230344902
5511, -1081.4665144653, 1232.6671430462, 1202.8035700355
5512, -961.97904923189, 1197.7748129769, 1300.3470916793
5513, 1294.8571932447, 5365.7052730254, 969.35602288449
5514, 1338.7910591397, 5506.924508003, 907.71402433123
5515, 1259.9243197965, 5573.2551668672, 1014.3455813407
5516, 1211.0880076066, 5432.0359318896, 1072.1809958358
5517, -1509.7589534118, 3102.0674277101, 580.46029372647
5518, -1427.0228413136, 3079.8017824406, 761.5195732017
5519, -1429.8959966767, 3254.8530796463, 756.1108970831
5520, -1511.945960704, 3277.1187249159, 574.73964706718
5521, 1315.5553204923, 5719.5271111751, 941.07409311091
5522, 1237.418574229, 5789.2479952008, 1041.682063853
5523, 1058.6285743701, 6109.69058061, 1222.9520806341
5524, 964.77700978337, 6113.9082443211, 1298.2725335589
5525, 1617.4884996898, -761.72374486593, -6.0994566343554
5526, -259.18768190808, 844.3130064761, 1596.598883736
5527, -254.42089294393, 688.60590600965, 1597.365411931
5528, -164.37559106095, 707.16512459854, 1609.1261339818
5529, -169.17788533559, 862.87222506499, 1608.6283265918
5530, -1526.5171571478, -359.09903478421, 534.83793707377
5531, -1608.5087800119, 1392.4970461935, 170.3107589806
5532, -1588.4868030985, 1357.0688037565, 304.98512485324
5533, -1581.1170135139, 1507.052546908, 341.13815321216
5534, -1567.5165449817, -230.31848191943, 398.99640500696
5535, -1615.0610664494, 2125.5466745256, 88.791900752371
5536, -1599.3390094073, 2110.069981046, 241.70432968416
5537, -1596.7641054525, 2244.3087167142, 258.16785535465
5538, -1614.0606283533, 2259.7854101937, 105.42550924528
5539, 1060.4086905702, 30.671239677662, -1221.408882792
5540, 959.40686460668, 110.24200370145, -1302.2460282702
5541, 1027.8295542425, 227.42270183043, -1248.948620811
5542, 1124.3532168806, 147.85193780665, -1162.8138688931
5543, 1465.7682515102, 79.12444110576, -683.98076205755
5544, 1520.8184255782, 50.141996337522, -550.83351969694
5545, 1508.2318787368, -105.74192257987, -584.41667495208
5546, 803.28305112708, 2281.5329602238, -1403.9382428625
5547, 1515.3170183065, 522.02618734235, -565.79199714258
5548, 1554.9921681295, 464.27706390681, -445.3151772125
5549, 1531.0805055709, 333.6667022134, -521.63084212951
5550, 1485.4989363399, 391.41582564893, -639.99934385351
5551, 1522.812984675, -119.60311932233, 545.295207851
5552, 1578.0430010956, -65.411394541336, 355.08666082141
5553, 1531.6413658463, -200.43931645987, -519.98170778245
5554, 1562.0530172192, -311.52813738663, -419.87691219744
5555, 1492.9272268798, -296.75377115699, -622.47453380927
5556, 871.50724866525, 811.34671314098, -1362.6376501198
5557, 973.03966175516, 702.07007813026, -1292.0913538335
5558, 887.38775522497, 592.05808137174, -1352.3495191247
5559, 781.50303091005, 701.33471638245, -1416.1776945985
5560, 141.37286076663, 2234.37640278, -1611.3100149377
5561, -424.4976788859, 5174.1336912269, 1560.8036297435
5562, -287.21592041115, 5119.8125405053, 1591.7956103289
5563, -1482.675180838, 5428.9761525899, -646.51415926257
5564, -1419.3916572144, 5375.3556846105, -775.65041960285
5565, -1446.4021264843, 5254.1588671868, -724.03531578346
5566, 1024.5396631562, 4429.8642490981, 1251.648804026
5567, -1515.02084783, 302.52846927658, -566.58457501107
5568, -1508.8106243097, 73.724981005567, -582.92087796716
5569, -1566.8192213147, 289.53875231822, -401.72599831067
5570, -599.87996353463, 3464.0699620153, 1502.1485543546
5571, -738.55610788277, 3442.0054031414, 1439.0417386265
5572, -718.81170631571, 3317.2753469508, 1449.0051693709
5573, -579.28569361756, 3339.3399058247, 1510.2100301514
5574, 239.41773173678, 1492.8980387556, 1599.6829059942
5575, 277.88294763132, 1619.0958356428, 1593.4513853318
5576, 153.08277783386, 1645.6062174618, 1610.2397067302
5577, 114.24936344891, 1519.4084205746, 1613.4600500017
5578, -1609.6291303626, 737.89635911869, -159.37475549229
5579, -1588.0442917037, 698.78422106842, -307.28094244092
5580, -1594.4910277728, 527.22789467726, -271.85402765464
5581, 710.2931215298, 6098.8108714288, -1453.1998938575
5582, 797.56849899205, 5974.9677423944, -1407.1925026149
5583, 697.49585780685, 5880.6932542619, -1459.3854111722
5584, 768.56581059311, 5678.1008004556, -1423.2402624952
5585, 635.33085451481, 5754.4908357651, -1487.5015816131
5586, 827.9022886654, 5804.3032189525, -1389.5625392269
5587, 927.61292945891, 6010.503099283, -1325.0813194294
5588, 956.13516950755, 5839.838575841, -1304.6500632855
5589, -1581.3661784456, 864.99362803543, -339.98126370187
5590, -1545.8248153294, 826.64151622131, -476.16372217114
5591, -1555.3203143626, 660.43210925429, -444.1677270254
5592, 958.54687565208, 399.9496145554, -1302.8791721329
5593, 647.24058283588, 58.3957030912, -1482.3582151188
5594, 623.15625160923, 247.89809954017, -1492.6428025755
5595, 800.09008429907, 300.31492765301, -1405.7603305707
5596, 822.74459096235, 110.81253120403, -1392.622557638
5597, -1543.7198154908, 752.25983324237, 482.94449086925
5598, -1509.7229665814, 853.1660547976, 580.55388567882
5599, -1540.3477983927, 945.10276413283, 493.59387150436
5600, -1568.7280955024, 844.1965425776, 394.20605320236
5601, 1246.8533389807, 774.0503737476, -1030.3703222981
5602, 1143.5969941334, 818.6355490023, -1143.8934237983
5603, 1182.0705325029, 971.30021314559, -1104.0903523663
5604, 1281.3817181227, 926.7150378909, -987.10037101646
5605, 225.30609475483, 4475.1599176968, 1601.7313799968
5606, 80.527054465327, 4453.5287226486, 1615.494241246
5607, 88.239325895393, 4304.9709720938, 1615.0913507804
5608, 232.95100510621, 4326.6021671421, 1600.637397795
5609, 1004.6046715568, 4729.8403581926, 1267.7048962145
5610, 1014.5824483311, 4584.5457045088, 1259.7335851435
5611, -1145.2405092456, 4593.3212389116, 1142.2479704438
5612, -1077.9801930914, 4471.158557119, 1205.9290830321
5613, -986.02255502775, 4554.5819056038, 1282.2112817225
5614, -1579.2902689894, -22.179084150415, 349.49749108588
5615, 591.40002888747, 4325.5281058563, 1505.5073084618
5616, 739.18314316336, 4399.8097772569, 1438.7197541089
5617, -1296.7730690038, 7056.2139681543, 966.79152742796
5618, -1451.1984729657, -227.55807362353, -714.37332121375
5619, -1407.1710928499, 7013.114196233, 797.6062721968
5620, -1332.0261247938, 6942.8965776901, 917.61247423229
5621, 83.418147352604, -651.96178215824, -1615.3475361953
5622, 1587.7448577865, 2770.1718581704, -308.82441058373
5623, 1596.0569247444, 2679.7661936289, -262.50436753626
5624, 1327.0008182688, 728.34881987931, -924.86489733034
5625, 1292.1971654855, 608.50702766443, -972.8991394339
5626, -721.10758611012, 6860.4853538097, -1447.8639781604
5627, -1343.8591148717, 2529.5830663362, -900.1938287815
5628, -1282.9306842242, 2377.7730925009, -985.08634620318
5629, -1407.5069385958, 2435.6883054675, -797.01346776861
5630, 1329.0040163296, 4175.3079685393, 921.98404247574
5631, 1278.4702637377, 4031.107112819, 990.86832361242
5632, 731.37262770509, 863.04822095532, -1442.7059053888
5633, 667.07690536746, 653.47288776558, -1473.5381407773
5634, 1480.3264319093, 3822.7784934447, 651.87414812263
5635, 1505.3190509436, 3968.3921649145, 591.87904580771
5636, -792.91264815969, 3116.6584740154, 1409.8211880903
5637, -907.45444012482, 3060.5117718303, 1338.9670231554
5638, -839.10766563232, 2926.8084118025, 1382.8248535071
5639, 790.40521088258, 854.88577728795, 1411.2284905747
5640, 690.25228232836, 943.95011867156, 1462.8253609849
5641, 722.2290531009, 777.70201646407, 1447.3048900826
5642, 1607.2106615353, 6034.9238032817, 182.15416395785
5643, 1616.7341333557, 6203.938871542, 49.769388609291
5644, 1607.4972198164, 6315.6281281009, 179.60773447269
5645, 1587.3596966782, 6146.6130598406, 310.79807490011
5646, -1475.8528278835, 6141.1503644203, 661.94008824689
5647, -1450.9254375252, 5997.8906536085, 714.92770595505
5648, -1377.8518459136, 6057.6128092821, 847.24880685224
5649, -1407.6167464333, 6200.8725200939, 796.81951856151
5650, 883.43474211837, 5826.091151456, 1354.935166869
5651, 903.37854028889, 5943.9460674031, 1341.7203370843
5652, 767.52949292646, 5962.906788771, 1423.7993986121
5653, 1153.0825593538, 5855.0830165832, 1134.3310192858
5654, 1069.3054409305, 5917.2779428282, 1213.627671074
5655, 995.42962266014, 5765.7162391356, 1274.9220040186
5656, 1548.3959491915, 903.69238153157, 467.73521839543
5657, 1598.331639068, 535.37821680287, -248.27851609483
5658, 1584.2371206313, 407.78011241824, -326.34183858911
5659, 1381.5752324857, 893.86155290714, -841.16355542914
5660, 1450.6086370347, 828.55556368527, -715.57028457058
5661, 1403.6573478037, 663.04283065744, -803.77378655731
5662, -1501.7384768813, 3921.4235089082, -600.90581379644
5663, -1438.7610297393, 3857.4703448846, -739.10280022702
5664, -1080.3757437125, -555.48531300377, 1203.7834117471
5665, 1357.7204649226, 4281.5248213875, 879.1481042068
5666, 1304.5614435193, 4335.0859089464, 956.25607976257
5667, 917.9747886641, 1105.8992982256, 1331.7764592367
5668, 808.08019851442, 1165.1273809507, 1401.1825872344
5669, 754.41989736921, 1048.2418459615, 1430.7888972359
5670, 866.86488115644, 989.01376323642, 1365.5956677647
5671, 1029.9302567341, 1069.4275053916, 1247.2168681764
5672, 1059.5269846759, 1205.4442893034, 1222.1738087292
5673, 949.63035322802, 1241.9160821374, 1309.3923942913
5674, -1580.32103343, 6282.3738158235, -344.80673035573
5675, -1552.7040462547, 6149.5550251287, -453.22885471295
5676, -1579.741402197, 6065.3473961171, -347.45266178935
5677, -1599.9814382859, 6198.1661868119, -237.41450490775
5678, 1582.1625481109, 879.90808756425, 336.25573802566
5679, 509.3588345989, 1186.5850290706, -1535.2067703134
5680, -985.37691125691, 542.40203977263, 1282.7075242477
5681, -869.34190985899, 512.99439210985, 1364.0201221986
5682, -848.7222885167, 672.52942918995, 1376.9447073049
5683, -965.96747850409, 701.93707685273, 1297.3870203114
5684, -825.31406641634, 845.21361118769, 1391.1013413031
5685, -731.82834900332, 637.63570940538, 1442.4747892407
5686, -707.32860236455, 810.31989140312, 1454.6451451392
5687, -921.3272026985, 3732.1816414268, -1329.459452397
5688, -950.52533528842, 3862.6633476855, -1308.7428460071
5689, -774.22889080191, 3772.7792449406, -1420.1675516106
5690, -1562.0036502889, 5547.5872775414, 420.06052716727
5691, -1548.9525532048, 5682.6259103898, 465.88865399411
5692, -1576.757221162, 5734.1524769559, 360.75326126499
5693, -1586.6993836318, 5599.1138441075, 314.15174037797
5694, -1385.3265386954, 4614.9343029331, -834.97103613612
5695, -1456.1005019467, 4659.493048803, -704.32774915553
5696, -1399.3092452546, 3568.899942436, -811.31984207517
5697, -1478.9122500372, 3567.1438876847, -655.0761838823
5698, -1403.9065423158, 3714.4134960588, -803.33845323311
5699, 1152.6540325916, -786.02072610508, 1134.7664654678
5700, 1077.072064335, -695.2972910032, 1206.740244721
5701, 132.50678778415, 5109.611022259, -1612.0633365942
5702, -1608.0144375579, 4752.774597855, 174.91660471564
5703, -1614.9106933364, 4835.3688511615, 91.486078437126
5704, 1593.0214391015, -425.70262960557, 280.33719796532
5705, 1569.9816561749, -504.20908313569, 389.18356758003
5706, 918.68149775782, 3568.5684366855, 1331.2890578974
5707, 1027.5399613874, 3573.4667841535, 1249.1868866394
5708, 1025.3505450215, 3682.6878956142, 1250.9846161421
5709, 916.34845365538, 3677.7895481462, 1332.8960055021
5710, 1030.33384495, 1901.2236393098, -1246.8834821067
5711, 939.47368398839, 1885.7953777891, -1316.6986925995
5712, 1138.7979383535, 1903.8840183845, -1148.6711912475
5713, 1220.1641690453, 2065.7849095976, -1061.8406898297
5714, 1244.8305584471, 1911.0465937483, -1032.8132119392
5715, 1578.6660653627, -338.72810750744, 352.30626459418
5716, 1604.9793906697, -338.6571890546, 200.86663616798
5717, 1594.2164016458, -251.68266695646, 273.45989600579
5718, 774.55087687894, 3251.117316191, 1419.9919679794
5719, 852.40212209082, 3311.8556408858, 1374.6697320648
5720, 801.11793554954, 3402.5982346531, 1405.1748301691
5721, 721.64797278374, 3341.8599099584, 1447.5947130938
5722, 628.3580444308, 3335.9120892029, 1490.4604718003
5723, 707.20423827861, 3460.0685153055, 1454.7056112358
5724, -1577.9017333796, 5078.4053927522, -355.7138875522
5725, -1536.8070723967, 5037.6312474308, -504.50993273812
5726, -1584.6620703914, 4934.7348923816, -324.27206580705
5727, 1460.4620218127, -191.89382496181, 695.23875959472
5728, 1485.0578501062, -338.45473769301, 641.02217733707
5729, 1541.8485892329, -266.16403205353, 488.88564908425
5730, -1617.4146537802, 5128.2803394548, -16.615888089103
5731, -1605.3842629208, 5196.2468594716, 197.60470228805
5732, -1616.9273929481, 5253.2779438117, 43.035519445793
5733, -1539.849225231, 7274.9141869691, 495.14706255376
5734, -1586.1195032854, 5154.9633514238, 317.06650926508
5735, -1576.7734930798, 5255.8183876758, 360.68213363149
5736, -1599.3250070263, 5297.1018957236, 241.79696420845
5737, -1145.3331522688, 2032.3380119825, 1142.1550771739
5738, -1232.2370973003, 1986.5531455285, 1047.8062731425
5739, -1201.9570626817, 1849.4259757265, 1082.4072567521
5740, -1112.4065186204, 1895.2108421805, 1174.2478389722
5741, 1617.4236599412, 4147.5423434674, -15.71477847251
5742, 1604.5925871217, 4097.0242588762, 203.93351699563
5743, 1616.4905468633, 4012.5361265587, 57.136344838416
5744, -1082.8365610329, 1699.5226646744, 1201.570319245
5745, -954.97987189792, 1723.0102683426, 1305.4959572016
5746, -987.17599771576, 1918.6984458487, 1281.323456249
5747, 1462.3094816969, 5360.8223394465, 691.3445087214
5748, 1404.07199898, 5428.0900985923, 803.04923365895
5749, 1374.6310989143, 5310.3403620599, 852.46442265803
5750, 1436.8035132642, 5243.0726029141, 742.90101243144
5751, 1612.3841203481, -652.48928690514, -128.5445387762
5752, 1598.2771136976, -758.26554203921, -248.62927790291
5753, 1617.4903875477, 443.61908315867, 5.576395860551
5754, 1616.7112679839, 576.42646526695, 50.506692368576
5755, 1568.7481035336, -219.91059606913, 394.12642344782
5756, 1554.2937627841, -384.98154349184, 447.74674646559
5757, -1608.7606851818, 6262.0278562849, 167.9145848743
5758, -1596.0072789606, 6113.5501022238, 262.80604160637
5759, -1592.3944616765, 6315.9769423507, 283.8769600055
5760, 1563.0117098161, 2909.4038120443, -416.29394059686
5761, 237.69183343028, 7276.4826291491, 1599.94026211
5762, 333.61142197416, 7162.1299172799, 1582.7222337253
5763, -375.31655916166, 4478.9386645836, 1573.3542927196
5764, -530.21279780528, 4557.4117203147, 1528.1297847511
5765, -453.89744503894, 4332.9919256865, 1552.508730857
5766, -228.55575343256, 4448.6963348803, 1601.2709069901
5767, -175.32227040998, 4625.6881617525, 1607.9702582754
5768, 1419.384915729, 432.54713421964, -775.66275597127
5769, 1463.7319249082, 269.84521919897, -688.32775768864
5770, 1393.208420628, 310.97652776968, -821.75211997984
5771, -1351.7586962049, 1122.3194309403, -888.28749694808
5772, -1315.3028450809, 1269.1979747564, -941.42693594459
5773, -1228.1960494241, 1195.3983909758, -1052.5401247358
5774, -1269.146989021, 1048.5198471597, -1002.7822147699
5775, -699.39580825461, 5389.62713893, -1458.4758322975
5776, -826.90583195914, 5349.6082810086, -1390.1557448977
5777, -830.27593702649, 5525.8504819337, -1388.1455681573
5778, 1617.4762366878, -330.15255802351, 8.7677676861519
5779, 1613.4293751697, -434.44212090286, -114.68173934671
5780, 1604.6703237382, -322.29090116604, -203.3209337819
5781, 1615.5064693937, -218.0013382867, -80.281363634186
5782, 432.80918288832, 373.22914659911, -1558.5193169183
5783, 582.67181760411, 427.10857918726, -1508.9068238198
5784, -1584.6873457809, 6614.8535238608, -324.14852478734
5785, -1582.2094611316, 6757.1564844231, -336.0349254252
5786, -1523.4593532155, 6765.9791415404, -543.4867515406
5787, -1479.2296793685, 4509.9449140236, -654.35908007404
5788, -1532.4615491145, 4558.0119439493, -517.55951395536
5789, -1548.024142009, 6894.5634953309, -468.96429049261
5790, -1596.9944816599, 6857.1252149894, -256.73892487871
5791, -1569.478620519, 6994.5322258972, -391.20724652517
5792, -1507.5410838196, 6973.3123757404, -586.1963242771
5793, -1477.3385471521, 6844.7280219498, -658.61754235556
5794, 1508.4391206599, -720.76592886953, 583.88155413821
5795, 1419.1689185567, -597.22585847784, 776.05787838455
5796, 1400.6361092984, -743.95992960831, 809.02703250845
5797, 1293.0264149332, -801.70494761544, 971.79675873354
5798, -1541.9475183175, 4409.2679651913, 488.57353669076
5799, -1573.210477011, 4318.6952490874, 375.91893411033
5800, -1375.8141802027, 3906.6198607308, -850.55369704276
5801, -1526.9725012135, 2315.1584440078, 533.53653158689
5802, -1470.5394869829, 2314.0311169111, 673.66153758691
5803, -1467.0757172873, 2439.9004106113, 681.17185037696
5804, -1524.2244768532, 2441.027737708, 541.33722776248
5805, -1614.1078608118, 6789.0933727869, -104.69987423864
5806, -1616.7171204756, 6985.106403242, -50.319005962684
5807, -1349.683885813, 4046.2062263685, -891.43685047048
5808, -1321.4522239654, 3940.3000724482, -932.77557310262
5809, 1347.285434131, 1762.4703174717, -895.05765679001
5810, 1252.5864705375, 1754.6787989097, -1023.3930739586
5811, 1149.1012247989, 1753.7543847951, -1138.3640125925
5812, -1584.7113543853, 304.44857951906, 324.03113011314
5813, -1606.2011051976, 287.61097456645, 190.85140728327
5814, -1604.9995383721, 195.61136805445, 200.70558493843
5815, -1582.6928255541, 212.44897300706, 333.75091002079
5816, 450.24775357355, 4266.734669035, 1553.5711153346
5817, 645.61079042579, 4201.2263610259, 1483.0687635055
5818, -1604.18991625, 5276.7093909859, -207.07718996039
5819, -1616.2873110582, 5323.6342283395, -62.622504837219
5820, -1612.9566001994, 5493.6919595919, -121.14972502256
5821, 1118.054083376, -519.10040427605, 1168.8718136076
5822, 1167.9260515323, -340.04835606251, 1119.0419957054
5823, -1582.1393105205, 5400.7497536943, 336.36505779542
5824, -1539.2030250937, 5273.0227558664, 497.15218750625
5825, -1546.6742431296, 5417.9541218849, 473.3973337899
5826, -344.78656123744, 4983.5794240004, 1580.3254339503
5827, -249.80190235062, 4932.2211412766, 1598.0942586662
5828, -191.64905542805, 5068.4542577815, 1606.1061264915
5829, -525.94880617856, 5200.013465744, 1529.6025965195
5830, -558.68692700295, 5057.5843460483, 1517.9509766774
5831, -457.92948414864, 5031.7045715311, 1551.324220641
5832, -1445.4948483563, 3750.4572246413, 725.84495133286
5833, -1369.1276640529, 3793.1025179191, 861.27561763067
5834, -1405.2609002276, 3943.4759718082, 800.96694831409
5835, -1475.6708415849, 3900.8306785304, 662.34569319658
5836, 1604.7674275291, 2648.1213937228, 202.55308820556
5837, 1613.5811717693, 2500.6206476435, 112.52578420807
5838, -1542.3531889742, 3329.9605272872, -487.29138147643
5839, -1577.1167251318, 3457.9388360204, -359.17834749521
5840, -1539.8079315538, 3445.1879631067, -495.27546267092
5841, -1617.2940889124, 2613.9267271857, -25.808525125375
5842, -1605.3572152188, 2658.6847815067, -197.8243199024
5843, -1599.5453345754, 2477.8507049933, -240.33512568533
5844, -1616.0405459034, 2433.0926506723, -68.696462763506
5845, -1576.6461154398, 2702.9223464682, -361.23853153917
5846, -1534.646699364, 2754.0710045797, -511.04379277222
5847, -1519.2674690403, 2615.6184119608, -555.09693524276
5848, -1565.5704347727, 2564.4697538494, -406.56544831763
5849, 973.01786671108, -368.75599989722, -1292.107766814
5850, 1053.9445571897, -317.36254594123, -1226.991084063
5851, 1102.8329495322, -414.6511314365, -1183.2437345814
5852, 1024.6133459174, -466.04458539249, -1251.5884872305
5853, 1484.3018301527, 6809.7924520738, 642.77081997046
5854, 1529.6023719838, 6786.3280293306, 525.94945918942
5855, -519.09007583524, 5244.9243101756, -1531.9437793762
5856, -680.30271631126, 5210.3562735385, -1467.4789484621
5857, -757.11335717919, 4376.0767714094, -1429.3654586497
5858, -745.36354504664, 4226.9498516683, -1435.5275809665
5859, -873.41548968502, 4213.9510536817, -1361.4153048862
5860, -741.21939965535, 4532.0390741733, -1437.6717468096
5861, -629.35823345875, 4526.7940989412, -1490.0384102357
5862, -645.83965727362, 4370.8317961773, -1482.969111982
5863, 1112.1945010267, -570.21782788015, -1174.4486544272
5864, 1178.0800025942, -460.62865396004, -1108.3473090542
5865, 1485.2183753447, 1778.6537112431, 640.65016002366
5866, 1493.0412561614, 1909.8228066145, 622.20097830211
5867, 1413.0431272876, 1952.7273842246, 787.15650948552
5868, 1604.3114720689, 7286.5297470163, 206.13333206484
5869, -1598.8381269008, 51.974003623302, 244.99570193845
5870, -1557.3493286437, 138.29588523334, 437.00036449979
5871, -903.27012139532, 4664.2669723741, -1341.793329017
5872, -755.26128117373, 4686.7092303801, -1430.3449399218
5873, 147.21703399487, 1725.2224195001, -1610.7865764594
5874, -1003.4734488364, 4620.4047895769, -1268.6005232067
5875, -1045.4814284508, 4763.8536352822, -1234.2102060688
5876, -947.79083353784, 4807.7158180794, -1310.7245270695
5877, -1311.9579861999, 387.19775679502, 946.08270909383
5878, -1379.6367419003, 378.22998709572, 844.33921524384
5879, -1376.8471604324, 226.26268884769, 848.88052563906
5880, 1114.4859198685, 3231.7872179337, -1172.2744492716
5881, -1565.4693118843, 6772.0079914651, 406.95464556705
5882, -1519.6624564674, 6790.076153218, 554.01468248013
5883, 702.40023528579, 1387.2802573328, 1457.0312829416
5884, 612.65130370605, 1467.0027716324, 1496.9851803098
5885, 1541.9037704301, 2277.0867677078, -488.71158440694
5886, 1475.8634586984, 2406.0801039675, -661.91638541349
5887, 1592.5098324166, 1129.7282826102, -283.22903039139
5888, 1607.8160796609, 1258.9744373822, -176.73059719218
5889, 1607.2347381955, 1044.7193832562, -181.9416014489
5890, 1078.6912637512, 5323.130251013, -1205.2930795068
5891, 961.94817712625, 5198.8925983485, -1300.3699298751
5892, 870.32992658728, 5317.7005438598, -1363.3899181403
5893, 993.32961484752, 5441.9381965244, -1276.5588612621
5894, -1162.1034322318, 6612.02699588, 1125.0874911734
5895, 1076.5922292595, 5549.5727111879, -1207.1683486151
5896, 1097.8326205731, 5704.7454648792, -1187.8845849684
5897, 1191.1921962093, 5689.2022894433, -1094.2428440205
5898, 1171.5979030567, 5534.029535752, -1115.1971142149
5899, 878.90677291433, 5574.8067869202, -1357.8767007815
5900, 967.87223406898, 5682.4413015837, -1295.9666618082
5901, 1299.5901468401, 4029.6324460678, -963.00140199071
5902, 1222.6763846665, 4104.3439105526, -1058.9469809103
5903, 1228.5469622882, 3966.9634900262, -1052.1305106556
5904, 1512.7799089448, 1504.8518944788, 572.5410003598
5905, 1559.7766623979, 1493.3387548495, 428.2557803917
5906, 1560.9276249352, 1602.7876443111, 424.04150706534
5907, 1514.3207345704, 1614.3007839405, 568.45313162134
5908, -1444.9247456785, 1177.4831911601, 726.97918080641
5909, -1505.7880516594, 1232.0592852819, 590.68485123609
5910, -1520.5391206804, 1071.3706542947, 551.60405408266
5911, -1463.2156262572, 1016.7945601729, 689.4246014443
5912, -1565.9886209773, 1159.9091503616, 404.95171189846
5913, -1321.9830441369, 4430.5313466052, -932.0231118457
5914, -1225.0568110914, 4399.5629623865, -1056.1922455683
5915, -1243.5318205071, 4257.9945506916, -1034.3765568622
5916, 1541.861968154, -750.50923397723, -488.84345261079
5917, -199.52353307167, 1393.2090537023, 1605.1469122017
5918, -202.58362288633, 1248.907905382, 1604.7635731591
5919, -83.556242964896, 1252.2498499899, 1615.3403988824
5920, -80.476203202308, 1396.5509983102, 1615.4967752113
5921, 591.61324845185, 3823.7900336039, -1505.4235331814
5922, 954.62287006723, 4989.656035261, -1305.7570317424
5923, 873.75246662927, 4904.9773274962, -1361.1990585727
5924, 699.18803440286, 4826.9424878151, -1458.5754497275
5925, 743.53964852711, 4961.0602888172, -1436.473125773
5926, -1563.3345505907, 399.69610639112, 415.07991149804
5927, -1525.2635810809, 278.23883331907, 538.40250577823
5928, -1474.8690821628, 431.49562308327, 664.12908419994
5929, -1523.1246067984, 552.95289615532, 544.42417485382
5930, -1586.2596868408, 4477.2777161958, -316.36443527001
5931, -1601.2304183795, 4363.2416422125, -228.83923889099
5932, -1613.3642425976, 4442.9597513954, -115.59442334026
5933, -1604.5897135373, 4556.9958253788, -203.95612569914
5934, -1124.3442654114, 4371.9972200186, -1162.8225242213
5935, -1207.6922831308, 4540.1636772061, -1076.0044606164
5936, -1105.2564253122, 4512.5979348382, -1180.9803064853
5937, 322.88686867978, 680.00928632863, -1584.9448949519
5938, 523.79311691247, 588.1580724835, -1530.3421253678
5939, 353.57098184698, 546.27788275243, -1578.3832902042
5940, 886.68670082941, 1560.5060980668, 1352.8092787131
5941, 976.23468450717, 1508.0579838692, 1289.6790650256
5942, 1022.2998930841, 1615.7816708635, 1253.4788305353
5943, 935.09690474531, 1668.2297850611, 1319.8106033578
5944, 217.02124041106, -387.09435440184, -1602.8749268768
5945, -359.828899814, 2770.5524293142, -1576.9684248135
5946, -242.23670539126, 2690.4675312643, -1599.2584620883
5947, 1613.0107235052, 959.16777960164, 120.42697313024
5948, 1593.8491964464, 1026.2060878282, 275.59206989166
5949, 994.59718341923, 2740.6935681732, 1275.5715161192
5950, 913.28687515988, 2878.9194602223, 1334.9956305774
5951, 842.80630101112, 2808.3595483388, 1380.5737173277
5952, 927.0896785261, 2670.1336562897, 1325.4474633007
5953, 654.90845337262, 2092.6755224028, 1478.9865339823
5954, 546.08029213567, 2002.8861858488, 1522.5316300626
5955, 629.17653108385, 1876.8565728044, 1490.1151441192
5956, 909.01643160058, 940.83558601062, -1337.9070883586
5957, 1076.7925430826, 1015.2278069798, -1206.9896723509
5958, 1027.0324112193, 875.46999872706, -1249.6042078615
5959, -719.78127513929, 35.259876240178, 1448.5237885374
5960, -814.80433801345, 55.562858852623, 1397.2831283439
5961, -517.02051530322, 2301.6355904243, -1532.6434799899
5962, 1062.0139123506, 5342.9088374712, 1220.013401555
5963, 1162.7818192989, 5283.3512297565, 1124.3863618472
5964, 1251.3518560288, 6817.7081546237, 1024.902328231
5965, 956.37872754449, 1373.1147677549, 1304.4715326524
5966, 1078.3788199952, 1347.8196389245, 1205.5726318168
5967, 1591.0072158184, -210.13066586635, -291.5515206849
5968, 1510.3611726055, 6245.6464554474, -578.89150821694
5969, 1436.2096807436, 6401.4530911242, -744.04838749803
5970, 1493.8223964319, 6576.9143074159, -620.32322052173
5971, 1553.7867359463, 6421.107671739, -449.50309142149
5972, -1580.4193685431, 5838.4811981894, -344.35573108879
5973, -1545.5348450353, 5723.6849848912, -477.10406913137
5974, -1603.8611278214, 5702.7199125959, -209.60852240171
5975, 1566.4357367389, 278.56551831388, -403.21871567072
5976, 1545.4279490851, 152.34864036237, -477.45021121213
5977, 1504.4668548279, 207.44982426189, -594.04186108759
5978, 571.57652914802, 4837.8096866103, -1513.144580444
5979, 1573.3043934483, 90.884471638765, -375.52567895723
5980, 1553.5388040251, -11.322172386084, -450.35922815924
5981, 1275.0780414984, 1296.1500714943, 995.2297413606
5982, 1289.1551199894, 1438.5076132966, 976.92646939523
5983, 1181.0737462277, 1322.1056026142, 1105.1565753194
5984, 1519.801597789, 3042.3686086581, -553.63286874779
5985, 1473.9571603038, 3117.0434463275, -666.15053823373
5986, 1540.5709667114, 3139.4545476361, -492.89689238803
5987, 820.88008621543, 5470.6494265212, 1393.7224020783
5988, 726.7467420606, 5572.1393146797, 1445.0416682242
5989, 742.02974518266, 5377.5390594703, 1437.2536683774
5990, 742.55328229886, 6068.5898555933, 1436.9832542334
5991, 792.90038226531, 5685.1287182154, 1409.8280866132
5992, -1057.5431846513, 6097.5171357045, 1223.8907886726
5993, -1046.3026277681, 5935.3705598149, 1233.5141106309
5994, -1171.3433086357, 6088.6590019037, 1115.4645235571
5995, -1332.8159101199, 6232.780391711, 916.46494735548
5996, -1350.9268745105, 6372.7947312928, 889.55203879551
5997, -1525.6291894117, -206.19944877654, -537.36563568471
5998, -1489.2577866682, -91.567793379641, -631.20321200723
5999, 130.49200777195, 4706.1056883422, 1612.2276780615
6000, 199.31968802317, 4837.6121251211, 1605.1722374768
6001, 72.899104408379, 4904.5674171158, 1615.8564201613
6002, 3.7301693583822, 4773.060980337, 1617.4956988618
6003, -1325.047189721, 6118.1265020055, 927.66168133235
6004, -1250.5054355893, 6138.7072037963, 1025.9348934321
6005, 1306.2640361773, 5177.5927643677, -953.92898990947
6006, 1263.964279809, 5036.5362976094, -1009.3069648858
6007, 1183.2427758321, 5092.8986001507, -1102.8339781858
6008, 1229.6458276984, 5233.955066909, -1050.846034595
6009, 76.827053287044, 4190.5558625301, 1615.6744269447
6010, -33.473418483016, 4087.816128502, 1617.1536044096
6011, 44.775883256075, 4012.8423566965, 1616.88013479
6012, 154.87574789085, 4115.5820907246, 1610.0682447385
6013, -867.06180830041, 1951.1451601616, -1365.4706406902
6014, -1448.2042233714, 2314.3253743566, -720.4240261187
6015, -1486.5909496121, 2391.4486005272, -637.45870339283
6016, -1450.285500149, 2512.8115316381, -716.22497726452
6017, 1266.5544110262, 5680.5241786249, -1006.0547569143
6018, 1336.0192766462, 5742.2931269665, -911.78875976284
6019, 1359.6577489854, 5644.3371799466, -876.14899168127
6020, 1292.7093250338, 5582.568231605, -972.21852017474
6021, 1536.5730827715, 5197.8806690105, 505.22214055021
6022, 1508.2114125284, 5277.5048807524, 584.46949032371
6023, 1481.7908670369, 5208.563248739, 648.53841548981
6024, 1513.5211259454, 5128.9390369971, 570.5786986182
6025, 1496.3400084745, 4249.4424708403, -614.22538944483
6026, 1533.1302857341, 4163.0090517538, -515.57519040857
6027, -1497.1898014698, 666.38158253563, 612.15108296473
6028, -1442.2155743194, 689.65631801778, 732.33905207257
6029, -1457.2865148885, 876.44079027975, 701.87054612951
6030, -1343.8181188838, 756.91602257035, 900.2550268449
6031, -1420.0981104868, 517.2869261338, 774.35625302034
6032, -1316.8142850926, 584.54663068637, 939.31165678712
6033, -1216.7624218024, 4300.9636817907, 1065.7370495997
6034, -1151.932561821, 4392.5939719931, 1135.4988432475
6035, -1208.0758216448, 4479.1343240214, 1075.5738278506
6036, -1269.2816563518, 4387.504033819, 1002.611752798
6037, -1268.8010942664, 4193.8025340063, 1003.2198329322
6038, -1326.0544547125, 4291.1467383948, 926.22126575517
6039, -1374.1509188616, 4209.6601856864, 853.23824468425
6040, -1321.1404528885, 4112.3159812979, 933.21709893339
6041, 1575.6463584782, 5630.4730661493, -365.5746203093
6042, 1540.1435238057, 5646.7176484425, -494.2308934894
6043, 1546.6228163088, 5842.1974612765, -473.56532186484
6044, -1594.9999198854, 7286.8718714778, 268.85220022462
6045, 1163.7689262353, 1179.7302529931, 1123.3646497594
6046, 1528.4778741245, 3772.0639658126, 529.20850173816
6047, 1426.7759309107, 1413.4412366719, -761.98208179327
6048, 1331.3642295177, 1253.0965243313, -918.57255476135
6049, 1346.2176410985, 1427.0545024543, -896.66287577617
6050, -1090.9157307827, 4000.254172379, -1194.2399751854
6051, -1155.6927214014, 3890.4598177807, -1131.671588271
6052, -1222.7103034952, 3960.5275000216, -1058.9078164442
6053, -1161.8792546711, 4070.32185462, -1125.3189981356
6054, 656.4013955839, 5526.4047434889, -1478.3245441633
6055, 557.32511096844, 5391.6503064569, -1518.4515042253
6056, 444.99280660781, 5478.1177127121, -1555.0844517477
6057, 546.73398350171, 5612.8721497442, -1522.297014805
6058, 1586.0107868058, 2734.614812102, 317.60987726398
6059, 1567.1488366792, 2602.2973078701, 400.43822706529
6060, 1591.9201497, 2515.8038894909, 286.52484530888
6061, 1424.2670539224, 4858.1892323794, 766.66133925695
6062, 1320.1460164237, 4729.5896527836, 934.62331734268
6063, 1419.9758557647, 4706.0874942613, 774.58041483451
6064, 1566.938264289, 2299.0506862588, 401.26141841321
6065, 1580.4982935793, 2418.5832134437, 343.99330515734
6066, 1550.0309452154, 2480.8723698828, 462.28813404044
6067, 1532.1877204228, 2361.3398426978, 518.36959728132
6068, -1278.3630396062, 4024.6631327573, -991.0066543514
6069, 105.82405764532, 7171.8437896189, 1614.0345469734
6070, 212.03498147963, 7045.6332725855, 1603.5421468203
6071, 1406.3071338835, 6480.4792257343, 799.12858489008
6072, 1472.1673796555, 6273.9699120873, 670.09660219878
6073, 1481.8029856367, 6470.045088453, 648.51072601628
6074, -1553.1190523631, 5102.444349682, 451.8046692839
6075, -1474.0437889206, 5235.8595311328, 665.95882631336
6076, -902.17369738777, 212.27593811207, 1342.5307705009
6077, -886.71252120483, 360.14716883314, 1352.7923546275
6078, -1000.4460810831, 378.67759055457, 1270.9893346702
6079, -1014.9613105902, 230.8063598335, 1259.428357631
6080, -1419.9841136537, 4480.5285211524, 774.56527612016
6081, -1365.0650111591, 4580.8885017412, 867.70027389029
6082, -1457.0755813587, 4561.3557070093, 702.30833699179
6083, -746.37867961313, 485.64693999613, 1435.0000406338
6084, 504.49881377255, 1562.9324513273, 1536.8107225362
6085, 702.95442220723, 1569.8734009289, 1456.7639926561
6086, 597.43676591808, 1665.8030806237, 1503.1219380773
6087, -1446.7285561547, 7282.3880231575, -723.3828411059
6088, 423.41673878939, 582.70450181567, 1561.0972152025
6089, 572.56305853899, 559.28282500492, 1512.7715604137
6090, 589.92222484903, 675.79525409306, 1506.0869890644
6091, 1125.5205780641, 6054.6108944992, 1161.6839838589
6092, 1215.1126460706, 6009.0839539497, 1067.6176784596
6093, 430.97448732793, 5696.0942030833, -1559.0276589184
6094, -218.20750349491, 506.65767095281, -1602.7138657348
6095, 1291.1980414237, 599.69379558358, 974.22475221253
6096, 1268.1339087497, 457.75613873077, 1004.063065489
6097, -1404.9968312222, 4467.3742280055, -801.43006822531
6098, -105.04484723068, 4719.0230466885, -1614.0854469545
6099, -79.935672207556, 4471.5897555426, -1615.5236111889
6100, 811.78088019242, 4104.0252915566, 1399.0418337398
6101, 818.26677187312, 3963.2818003514, 1395.2583058518
6102, 938.17854432389, 3964.5341221008, 1317.621823199
6103, 1617.4103595989, 703.0390001041, -17.028759857854
6104, 1616.4256540478, 605.0448998114, -58.943658999452
6105, 1248.1786588744, 221.46881190682, 1028.764446086
6106, 1191.7712992829, 124.37938981831, 1093.6120976862
6107, 1276.210997243, 57.954947341673, 993.77650430868
6108, 1253.595286708, 3442.637289625, 1022.157085356
6109, 1338.1321341229, 3381.698657311, 908.68511687367
6110, 1616.6978523642, 7182.7217162532, 50.934312218331
6111, 1617.4726464762, 6980.1550442721, 9.4068007997121
6112, 1615.8184817023, 7075.4295739659, -73.735230312088
6113, 577.91107462441, 1014.5907460201, 1510.736588498
6114, 461.35818500824, 1077.0163913207, 1550.3079936341
6115, 397.9970510049, 967.64325463464, 1567.7705818746
6116, 1240.5174221692, 68.699246819688, -1037.9897761031
6117, 1347.9342647303, 97.279425139267, -894.08023575404
6118, 1251.5243509033, -86.146420351061, -1024.6916848966
6119, 1576.2088774657, 2282.5566637324, -363.14160405891
6120, 1574.0879152431, 2134.9314127664, -372.2277328272
6121, 1539.0590436919, 2129.4615167419, -497.59773917313
6122, 562.89469093154, -75.40838944455, 1516.3956663487
6123, 440.19576827047, -162.44846586787, 1556.4491432735
6124, 659.65020556675, -181.75935282001, 1476.8777391158
6125, -1282.9615435833, 1429.1791067932, -985.04615510463
6126, -1397.5165952906, 1329.0492840119, -814.40384078625
6127, -1369.3926484984, 1489.0304160488, -860.85424099469
6128, 1109.5015702601, -219.54860530475, 1176.9929972563
6129, 1026.7759961286, -92.166062288794, 1249.814907806
6130, 894.85330897384, -175.95122232739, 1347.4211685359
6131, 337.39807773074, 1164.4048411122, 1581.9193364845
6132, -1517.5908042178, 469.1102611206, -559.66454323428
6133, 1009.1610192932, -593.29283984399, 1264.0808072031
6134, 1368.2333771265, 5855.8861107199, 862.69558693501
6135, 1294.0991091425, 5943.2489325673, 970.36784041757
6136, -1016.8008528257, 85.228546097582, 1257.943669523
6137, -1021.0090556783, -21.916155246396, 1254.5304931419
6138, -925.05961686094, 80.748279204869, 1326.8650855506
6139, -1108.044742423, -66.917698507114, 1178.3645865303
6140, -122.08864719369, 2523.1816870366, -1612.8858025993
6141, 1563.4622059424, 4377.4977592668, 414.5988188476
6142, 1546.4955593272, 4241.0881686407, 473.98073271116
6143, 1581.5139130284, 4171.7513401513, 339.29337290561
6144, 1555.2252060197, 4676.1416734773, 444.50062830229
6145, 1588.3574011706, 4657.7514938725, 305.658332369
6146, 1588.5749825614, 4783.4907134713, 304.52549118275
6147, -524.74005572085, 4421.6373447886, -1530.017687454
6148, -560.36521961821, 4627.8713285033, -1517.3322215791
6149, 366.00216116463, -51.862594083115, 1575.5471011756
6150, -824.12431921948, 2429.0013698414, -1391.806508273
6151, -911.29844848484, 2547.7637076594, -1336.3537659576
6152, -799.34932761724, 2672.1439764608, -1406.1816747625
6153, -814.11841795294, 5018.4186796751, -1397.6828866198
6154, -824.6154104982, 5184.3982796107, -1391.5156034946
6155, -669.23805215337, 5044.3766736029, -1472.5578696778
6156, -957.44144541229, 5157.7903018312, -1303.691730666
6157, -663.10025578547, 5130.4208561062, 1475.3319290171
6158, -543.1418317911, 1741.8186668819, 1523.5823576553
6159, -648.94768455695, 1736.2992298586, 1481.6116740591
6160, -642.25044400248, 1611.4738290388, 1484.5270685234
6161, 1600.5098918748, -97.183465428669, 233.82543918662
6162, 861.69277188259, 1383.6752624183, 1368.8651565751
6163, 854.61316402082, 1252.4765768008, 1373.296249861
6164, -1449.6078452358, 6807.655850371, 717.59553024732
6165, 1586.6646056437, 3945.1090034489, -314.32734401833
6166, 1566.1857690197, 4056.2287789749, -404.18855367291
6167, 1560.6513460378, 3508.7619726504, -425.05720333895
6168, 1419.4032165404, 141.51983604284, -775.6292663862
6169, -1617.2314534487, 4966.4024604332, -29.473309554924
6170, -1617.2630465079, 4829.8747748776, -27.685526902155
6171, 657.52045385967, 5294.8995802613, -1477.8271559138
6172, 549.00696763347, 5166.7150262621, -1521.4787542026
6173, 446.13788778625, 5263.4657524576, -1554.7563265932
6174, -1002.9191915999, 4103.5580362979, 1269.0387484709
6175, -911.58949690101, 4169.5819417778, 1336.1552451492
6176, -965.76866869535, 4273.6222082865, 1297.5350201696
6177, -1609.1254428528, 4823.8245717074, -164.38235660752
6178, -1608.9916948787, 4709.3823463324, -165.68637786944
6179, -1617.2400783691, 4715.4325495026, -28.996187970745
6180, 1547.7949156999, 356.85717028367, 469.7202879732
6181, 1069.0422483294, 2941.4847370154, 1213.859514642
6182, 1163.7307749397, 2873.3273927077, 1123.4041719071
6183, 1206.6167604417, 2988.7673735882, 1077.2103988642
6184, 1115.5244124764, 3056.9247178959, 1171.2862737901
6185, -92.089029258993, 5275.2137667908, -1614.8764227303
6186, -1384.8536653916, 6834.6443164208, 835.75509298562
6187, -1570.5697000647, 4616.9367545685, -386.80365463451
6188, -1596.8239962262, 4660.6522419292, -257.79715878197
6189, -1588.7131971491, 4794.0150869498, -303.80359972236
6190, -1613.653188625, 4605.725929782, -111.4882811793
6191, -371.02374867703, 703.66624030131, 1574.3721376846
6192, 1530.9586604027, 517.73608358764, 521.98834291378
6193, 1443.5705567973, 549.31973275736, 729.66451027034
6194, 1159.1097618164, -32.479864664179, 1128.1714453318
6195, 1221.2406152329, -154.46318857118, 1060.6024748724
6196, 1330.5295230353, -64.028376565328, 919.78119046407
6197, -1513.9018837942, 6070.8858721621, -569.56767485911
6198, -1523.7264626012, 6291.7238916007, -542.73742930531
6199, 1338.3719834668, 2213.1041549623, -908.33181375037
6200, 1608.3269422788, 4046.8206059349, -172.01946616595
6201, 1595.7316625351, 4199.4998487729, -264.47440553457
6202, 1613.8262614227, 4300.2215863054, -108.95433879631
6203, 1610.1043357292, 4441.7145994533, -154.50009082813
6204, 1617.3440144196, 4508.115880019, 22.4630590323
6205, -1395.481560385, 5081.5212854693, -817.88597287477
6206, 570.82899064111, 411.24212358592, 1513.4267453179
6207, 383.88132833953, 458.78828661999, 1571.2865352164
6208, 371.86846533738, 342.83956377125, 1574.1728286588
6209, 768.21569662026, -283.7927985541, 1423.4292723793
6210, 659.36058059028, 0.4080388562179, 1477.0070665923
6211, 460.8498693413, 32.569025581382, 1550.4591732542
6212, 1545.5367784806, 6635.0805824378, 477.09780586763
6213, 1578.7690146108, 6673.7219728405, 351.84463688536
6214, 1331.5782706111, 1997.1168557424, 918.26224970674
6215, 1427.7014144417, 2079.8602637396, 760.24661867136
6216, 1348.7348388442, 2124.2497352573, 892.87209861652
6217, 1478.3100288081, 2040.6165019935, 656.43408559083
6218, 1440.5192576116, 2188.1449251073, 735.67011523519
6219, 1217.3942873009, 1116.2830198589, -1065.0152108055
6220, -967.65950773285, 5767.3717885949, -1296.1255059192
6221, -971.68461778704, 5609.3165905371, -1293.110688826
6222, -1073.7709580273, 5604.2988001864, -1209.6785439517
6223, -942.03939899354, 5189.2973779889, 1314.8642594366
6224, -929.21029066382, 5070.7628156474, 1323.9616632382
6225, -808.94467100358, 5084.4861670678, 1400.6836792277
6226, 1616.6320111775, 5970.5469434265, 52.982925892682
6227, 1617.3800811929, 5850.0422740522, -19.69575996528
6228, 1616.5369370412, 6046.4555085606, -55.808432887728
6229, 1546.3813745185, 1930.1167515576, 474.35313274199
6230, 1482.478809052, 5010.7405896732, 646.96431950449
6231, 1412.7648632061, 5006.4435175684, 787.65582032402
6232, 1555.3140583473, 3110.9307516955, 444.18963282268
6233, 1566.0151242292, 3230.4953631214, 404.84920734181
6234, 1466.2290246875, 591.44014670047, -682.9924576186
6235, 1349.1924798102, 504.14981817661, -892.18042033184
6236, 351.51072205986, 1494.4254985223, 1578.8433938415
6237, -1582.3874666034, 6427.4098353319, -335.19569737143
6238, 1434.1926397235, 1601.5159090231, -747.92895529125
6239, 1517.1637965686, 1600.5746918151, -560.82106271223
6240, 1511.5811939917, 1412.500019464, -575.69830985559
6241, -1617.3838387143, 4346.7404159721, -19.38474311615
6242, -1617.3777401963, 4537.1785221179, -19.88706910393
6243, -1224.1434743559, 2196.4871393632, -1057.2506818119
6244, -1190.0855804031, 2471.3299437056, -1095.4462840855
6245, 1500.6281814544, -545.98184914846, 603.67318229719
6246, 1545.7957919512, -557.61974301457, 476.25793388257
6247, 1465.8814954576, 2964.2528538521, -683.73802824997
6248, -548.62609771846, 6204.1078208512, 1521.6161325716
6249, -533.40612599831, 6023.6357280318, 1527.0180597319
6250, -375.83176503409, 6056.5823823515, 1573.2313035251
6251, -391.52100891108, 6237.0544751709, 1569.4003789923
6252, -387.95745684243, 1563.4516619521, -1570.2850893008
6253, -464.45014695596, 1764.254718456, -1549.3844942404
6254, -1269.2606354348, 4124.8982092127, -1002.638364185
6255, 1427.7902116257, 5770.2837248944, 760.07983895502
6256, 1475.2512063253, 5669.5724665731, 663.27982649543
6257, 1512.6873015943, 5781.4909063911, 572.7856297041
6258, 1211.4799618976, 1736.1747618634, 1071.7380985672
6259, 1301.1067014789, 1579.9545931303, 960.95140426906
6260, 893.04986853045, 4719.1311507845, 1348.6171370399
6261, -1273.8411584299, 2093.8865327355, 996.81239613582
6262, -1271.0736448559, 5705.1794022386, -1000.3389622286
6263, -1177.1436494901, 5592.3725876135, -1109.3417320489
6264, -1275.3234719975, 5587.8677174995, -994.91521838413
6265, -1333.1337503309, 5774.6678780998, -916.0025402414
6266, 1402.0010898016, 6196.7870888796, -806.65928011463
6267, 1304.8684072669, 6278.9237029585, -955.83716694675
6268, 1345.7500131971, 6483.5897052032, -897.36455912863
6269, -1604.6001233413, 6016.4876716804, 203.87421164268
6270, -1587.0241330358, 5932.6647547461, 312.50704177995
6271, -1598.7389706532, 5811.6754239505, 245.64192173685
6272, -1613.2322792171, 5894.1135277446, 117.42173262148
6273, -1617.033855729, 5766.8367508453, 38.829878008006
6274, -1608.7931574428, 5684.3986470512, 167.60318184721
6275, -560.7689191351, 6326.2282539798, 1517.1830704737
6276, -369.15317160719, 852.07446498923, 1574.8117938002
6277, -480.60682323565, 868.7244188055, 1544.4492000255
6278, -482.44125164666, 720.31619411758, 1543.8771611464
6279, 1614.8076626008, 6861.7085160303, 93.286991621195
6280, 1617.478933301, 6778.0657522564, -8.2553211556243
6281, 1614.8736643301, 6896.5122804981, -92.137387921375
6282, 1604.8762399955, 6768.8546670365, 201.68912786232
6283, 1526.8616929971, -438.39220337072, 533.85355712792
6284, 1376.9533722187, 2248.2605684973, 848.70823062786
6285, 1298.3559830206, 2312.5433624759, 964.66470410946
6286, 1266.4220471765, 2188.5325292359, 1006.2213714811
6287, -666.82130833367, 3718.89552082, -1473.6538239194
6288, 1255.7289426052, 2503.4436750891, 1019.5347334464
6289, 1215.1796990943, 2386.7668486557, 1067.5413570017
6290, 1334.846438598, 2429.2201889094, 913.50491808323
6291, 802.342122501, 6320.416464113, -1404.4761900654
6292, 857.06921687645, 6159.7925045063, -1371.7647784816
6293, 124.41018345434, 745.48369590819, 1612.7083915739
6294, 275.11927125172, 631.14252588905, 1593.9308757239
6295, 1076.1553281167, 6224.2114628174, -1207.5578494491
6296, 956.54623808645, 6221.0162729177, -1304.3487050642
6297, 943.51095883932, 6378.3092743806, -1313.8087077463
6298, 1064.0778996917, 6381.5044642802, -1218.2136402896
6299, 1144.641135357, -316.05385103457, -1142.8485994429
6300, 1217.1481441287, -362.03137355811, -1065.296505788
6301, -1611.6156595084, 6434.2624556329, -137.84489844546
6302, -1612.5380732303, 6621.7061441618, -126.59862709628
6303, 1244.9261667954, -218.44971233215, -1032.6979661198
6304, 1145.5291080941, -216.53813911242, -1141.9585423776
6305, 1152.830141352, -84.234847131327, -1134.5875528977
6306, 1579.9876177511, 6414.216604936, 346.33131211797
6307, 1614.0383591945, 6446.8221044906, 105.76589738139
6308, 1594.1966826947, 6545.4105813257, 273.57482867623
6309, -343.60693398358, 6633.3808434309, 1580.582337279
6310, -315.02617553286, 6466.9373633634, 1586.5260031683
6311, -534.9255724359, 6541.2637546493, 1526.486449974
6312, 742.52818039957, 6478.8590747647, -1436.9962252256
6313, -645.8443584231, 4907.0980155219, -1482.9670646016
6314, -605.68490640386, 4741.204925523, -1499.8173369296
6315, -793.4961364781, 4852.6023203791, -1409.4928631938
6316, 677.18606284715, -90.442956926421, -1468.9197684985
6317, 803.35164610899, -83.093092607485, -1403.8989930526
6318, 794.88799040097, -262.98915425556, -1408.708391654
6319, -1097.4852724569, 4966.3409663039, -1188.2055069474
6320, -1129.7664048682, 4814.419921242, -1157.5552342896
6321, 1293.9073792529, 2615.3081122085, 970.62348205415
6322, 1211.5657619918, 2692.1482599718, 1071.6411033407
6323, 1617.3497576733, -9.6697263877177, -22.045665197568
6324, 1616.9912676246, -139.05610705743, 40.56464502324
6325, 1611.1891550768, -88.614957616986, -142.74367433552
6326, -1606.8710941341, 4964.5443771393, -185.12573250735
6327, -1617.463128935, 7130.5387953827, -10.921379749614
6328, -1616.9159376559, 7275.9549023645, 43.463784400492
6329, -1614.5974108474, 6930.5557810337, 96.857890152184
6330, 1410.4611616151, 2382.8337461798, -791.77368077968
6331, -1158.3478048332, 3586.6710948459, -1128.9537692209
6332, -1206.2584177895, 3453.3154771648, -1077.6116552414
6333, -1309.2032957383, 3534.9655884, -949.89103608144
6334, -332.54657586577, 1284.4465986923, 1582.9463114332
6335, -361.89484898005, 1165.2028856808, 1576.4955972922
6336, 1436.3108094961, 7023.4486969407, -743.8531498385
6337, 1379.0562977505, 6920.2063375507, -845.28692030262
6338, -273.70192155516, 1489.2153902092, 1594.1748674901
6339, -405.5531034446, 1380.4529351992, 1565.8329828837
6340, 1486.3653213579, 6896.1189038, -637.984624787
6341, -1604.3704294302, 3603.6360327265, -205.6739535523
6342, -1617.4914609148, 3611.4212448775, -5.2558412970449
6343, -1617.0705405322, 3778.288319791, -37.270859166798
6344, -1599.9850751885, 3770.50310764, -237.38999383705
6345, 1350.5336425493, 6659.404561465, -890.14893716862
6346, 1423.3569356218, 6733.830367973, -768.34971452944
6347, -1598.8444013173, 6476.8768485272, 244.9547516914
6348, -1545.2760456463, 6311.3018181236, 477.9416206522
6349, -992.06897125237, 4031.2363042009, -1277.53880813
6350, -1013.4655328187, 4189.0893121816, -1260.6323269647
6351, 1453.9283883522, -446.04438347074, 708.80074177702
6352, 1391.1159273888, -371.94281028261, 825.28948046439
6353, 1370.4147975771, -251.69756211545, 859.22612424298
6354, 1273.6010198551, -274.96293932894, 997.1191965979
6355, -873.73682623162, 4942.8089663167, 1361.2090980032
6356, -717.79843490511, 5029.5674782187, 1449.5073841991
6357, -1522.2883047383, 5594.1717022249, 546.75823474093
6358, -1495.8179017367, 5678.1026004215, 615.49577971257
6359, -1526.1362120041, 5766.5568085864, 535.92398006609
6360, 1226.2499217641, 3942.6538977859, 1054.8067971783
6361, 1137.7202302863, 3800.2863348484, 1149.7386344719
6362, -203.20380898663, 3605.7744681466, 1604.6851597785
6363, -77.481648969446, 3534.8415890033, 1615.6431673092
6364, -11.374746390603, 3613.9108678689, 1617.460004187
6365, -137.43975474998, 3684.8437470122, 1611.6502610102
6366, -1615.8814960185, 140.30781845059, 72.341141993489
6367, 1498.2165231621, 4746.4502370199, -609.63390631096
6368, 1461.3174414815, 4821.7929232492, -693.43895565647
6369, 1491.1304728022, 4907.7723321009, -626.76643423259
6370, 1524.2088786262, 4832.4296458716, -541.38114514356
6371, 1485.2893831267, 5095.0778249778, -640.48551769046
6372, 1523.8918049832, 5011.7554901034, -542.2730093828
6373, 1447.0883127306, 4991.0946669752, -722.66289870076
6374, 1060.1666656286, 3429.9123426046, 1221.6189631345
6375, 1003.0783908885, 3317.5338246393, 1268.9129173164
6376, 1082.8050530503, 3248.7741158688, 1201.5987130023
6377, 1136.7252430674, 3361.1526338342, 1150.7223695459
6378, -1118.8139197267, 86.417073969443, 1168.1445385849
6379, -1117.1055079523, 231.99488770536, 1169.7784123938
6380, 402.44497799591, 1606.7688309563, 1566.6347020559
6381, 1047.1743025598, 5096.6904046131, -1232.7742007596
6382, 1114.5350036965, 5183.8555310503, -1172.2277831272
6383, 1197.4088676992, 5373.2297868718, -1087.4365515078
6384, 1107.1068518578, 87.061283436597, 1179.2458049828
6385, 1154.8931551583, 228.58963473293, 1132.4875496748
6386, -1617.066992113, 1362.5925333557, -37.424497573214
6387, -1610.2615380285, 1504.9667731745, -152.85296577481
6388, -1608.2409639793, 1274.8594544212, -172.82144478897
6389, -1601.9983251642, 2884.4738459985, 223.40012571829
6390, -1609.155804721, 2738.9233583115, 164.08487478344
6391, -1592.9681841543, 2689.90326567, 280.6396519952
6392, -1581.5173025426, 2835.4537533571, 339.27757332077
6393, -1616.2852475472, 4646.8851418385, 62.675741408893
6394, -366.72999265743, 5012.9509126533, -1575.3778475291
6395, -546.32116428232, 5072.6089494319, -1522.4452159133
6396, 1039.4704459712, 3815.8489538232, 1239.2769835483
6397, 221.05884344837, 130.00074142809, -1602.3230753295
6398, 213.03773381068, 332.61210065989, -1603.4092347161
6399, 313.81706447929, 340.16666576855, -1586.7656096732
6400, 1250.4936658918, 1174.065800329, 1025.9492392729
6401, 1337.8558148597, 1125.7030705143, 909.09189230026
6402, 1359.5720032, 1247.7873416797, 876.28204256092
6403, 1590.0580559015, 5163.8414831387, 296.68439268505
6404, 1570.9774785764, 5286.6438292527, 385.14414419237
6405, 1562.4228716018, 5075.0783228966, 418.49853081662
6406, -1311.6672878359, 4652.5256216112, 946.48569773729
6407, -1205.2715436227, 4661.9148376516, 1078.7153267352
6408, -1311.6861192432, 4769.2357993167, 946.45960008064
6409, 1564.1307109387, 3186.0194766016, -412.06961681072
6410, 1583.2978993833, 3371.089780328, -330.86857180541
6411, -1088.7705995924, 5150.5990907597, -1196.195983718
6412, -966.94538188478, 4973.5321773754, -1296.6583507045
6413, 1160.3329770805, 1025.2175748826, 1126.9133206683
6414, 1247.3547988166, 1019.5531222185, 1029.7632037848
6415, -1131.5332953063, 6744.7704061143, 1155.8281237335
6416, 881.76664763049, 4428.0110218608, 1356.0213232566
6417, 778.46878445688, 4234.7486356871, 1417.8478767577
6418, 1531.2079662991, 1733.3175870189, 521.25657208529
6419, 1586.5858160164, 1631.5539174791, 314.72479790361
6420, 1563.6824128156, 1762.0838601869, 413.76752150356
6421, 1464.6536312796, 1659.6369081647, 686.36432772946
6422, 1198.3004609485, 1896.5667938415, 1086.4539821321
6423, 1216.0803826168, 2041.8708975999, 1066.5152380602
6424, -1563.8161594915, 638.83114686206, 413.26174431384
6425, 1587.3050975265, 2105.8278402163, 311.07680300256
6426, 1596.1829524547, 2250.380201629, 261.73695247874
6427, -885.41525349652, 2778.4581415681, -1353.6417838098
6428, -779.84520657303, 2893.1026580773, -1417.091282799
6429, -690.03088122168, 2786.78849297, -1462.9298113582
6430, -1212.9346503727, 401.10936869488, 1070.0914839046
6431, 519.36307543187, 4768.0118662859, 1531.8512479604
6432, 396.31033305006, 4701.8890744448, 1568.1978095629
6433, 229.41465826451, 4684.5454765794, 1601.1480770289
6434, 311.46715484745, 4609.3985483917, 1587.2285473275
6435, 315.12438956317, 4777.0360026325, 1586.5064982856
6436, 1445.5653210102, 4366.0100072814, 725.70459051374
6437, 1383.0677255497, 4414.7506036449, 838.70728895299
6438, -1133.0861190156, 4203.4181960988, -1154.3058939874
6439, 1028.6914187341, -658.32619142576, -1248.2388453429
6440, -1459.7281962511, 2633.9775692641, -696.77818785428
6441, -1479.1787857906, 2819.6809484802, -654.47411688079
6442, -1390.7859719998, 2693.3122011274, -825.84540326171
6443, 1528.3258338153, 6315.5883681993, 529.64742583426
6444, 1568.1912384773, 6266.0432471236, 396.33633389217
6445, 1544.3762271184, 6463.7617260116, 480.84126186469
6446, 771.45899517858, 5423.1107299534, -1421.6741077891
6447, 760.66010744084, 5189.4893941678, -1427.4811560746
6448, 1610.7653018235, 2293.7150962719, -147.4496267934
6449, 1601.4760751315, 2189.9244969253, -227.1136957149
6450, 1605.9564719421, 2077.1696951508, -192.89909338114
6451, 1581.6701382027, 2022.1766109919, -338.56435712855
6452, 663.06278695987, 4807.9401618527, 1475.3487691217
6453, 790.78357444471, 4733.7046728712, 1411.0165089
6454, 870.9862950322, 4582.6924772715, 1362.9706980952
6455, 969.42720812899, 27.375085811983, 1294.8038994918
6456, 858.66750075515, 12.020619123047, 1370.7648861664
6457, 1581.7674197511, 4667.6020981273, -338.10956776448
6458, 1600.7816297593, 4782.610911446, -231.95780613135
6459, 1610.8805489453, 4709.509532977, -146.18518060878
6460, 1597.5593104514, 4594.5007196583, -253.20051261798
6461, 1166.5018434353, 2271.9379812144, 1120.5265276922
6462, 1110.7288843073, 2125.2763495784, 1175.8348504639
6463, 864.70065903223, 5091.8582289963, -1366.9670882173
6464, 634.66611224696, 5058.6914539886, -1487.7853259007
6465, -1558.2066012138, 7180.6273130643, -433.93367918813
6466, -1539.2670434246, 7079.6924716206, -496.95394054862
6467, 1070.4668724013, 2361.7377296076, 1212.6033667657
6468, 1023.4294044114, 6071.7268676943, -1252.5567868109
6469, -1536.8078342789, 7283.7145981496, -504.50761193365
6470, 1169.1140062566, 6168.1491338406, -1117.8008276857
6471, 1120.1483548159, 6015.6645387175, -1166.8649935632
6472, 1606.8733982972, 6512.6427575031, -185.10573152895
6473, 1579.5280429801, 6522.7219328564, -348.42131312459
6474, 1607.8137377251, 6649.7730833966, -176.75190177926
6475, 1410.0037602875, 4382.1938723972, -792.58794210809
6476, 1449.8503590668, 4298.4981170442, -717.10542203635
6477, 1480.9789097869, 4437.9962796406, -650.39043563572
6478, 1522.7390786176, 4388.9406334366, -545.5015567814
6479, -522.15318001558, 4935.330291351, -1530.9024484269
6480, -1599.7872064333, 6770.3039493606, 238.71980255579
6481, -1598.1663057061, 6625.1250406089, 249.34054886
6482, 1536.6402684641, 6168.705492672, 505.01775744482
6483, -1615.3900359705, 6788.1463745877, 82.59105089044
6484, -990.96319462636, 5778.4630218018, 1278.3967290696
6485, -1150.439253265, 5848.8576788567, 1137.0117741461
6486, -1099.2487690852, 5691.9501408437, 1186.5742259398
6487, 1610.7619333657, 4917.4856724659, -147.48641978218
6488, 1615.6595615471, 5092.0959114121, -77.139037985298
6489, 1615.9429854762, 5040.9660205335, 70.954335246005
6490, 1617.4999363245, 4866.3557815873, 0.45386154875448
6491, 1561.7428393634, 6049.275305389, 421.02916015066
6492, 1617.3512132731, 116.93310852966, 21.938617183357
6493, 1609.6895684952, -6.5330857578629, 158.76316662756
6494, 986.4406933783, 589.10147663742, 1281.8896241281
6495, 847.92926749776, 542.99999268839, 1377.4331952297
6496, 723.64801980565, 492.42339446935, -1446.5959330205
6497, 1157.8698738979, 26.957724124599, -1129.4439362446
6498, 112.12798034163, -429.30046498056, -1613.608864014
6499, -1466.9062806336, 143.1257299202, 681.5366562686
6500, -1111.9491782831, 398.11752971047, 1174.6809247262
6501, 1262.8060641031, 5227.4614426994, 1010.7557046411
6502, 1346.3213251772, 5172.0965317339, 896.5071886901
6503, -581.77168732934, 2923.0174234165, -1509.2541051201
6504, -682.29912513754, 2974.3389783211, -1466.5517903697
6505, -593.01441946901, 3115.1359849407, -1504.8721368614
6506, -753.15227279425, 3068.8124150698, -1431.4565672716
6507, 1252.2402770393, 326.45907159576, 1023.8166528049
6508, 1613.3281286005, -229.70648672823, 116.09737062663
6509, 1421.9686407254, 6649.8349647987, 770.91597129233
6510, 1337.7777182537, 6662.2384848877, 909.20681175625
6511, 1319.3742817145, 6492.8827458233, 935.71243165322
6512, 1093.4077833769, 6497.9170796485, 1191.9587531667
6513, 974.68126808231, 6487.4177286736, 1290.8534679232
6514, 1217.763723689, 6507.2442786749, 1064.5927687464
6515, 941.54619370175, -760.98527005879, -1315.217478262
6516, 1395.7348577034, 688.40835055343, 817.45364210552
6517, 1308.0020641646, 712.61312489114, 951.54445515754
6518, 1381.2574172414, 575.48902124587, 841.68533153172
6519, 1431.4988212669, 1770.701584222, -753.07195852149
6520, 1350.4894316171, 1593.2846422727, -890.21601035393
6521, 792.46523689001, 1665.4097106276, 1410.0727280254
6522, 800.56473204353, 1464.9697883681, 1405.4900781607
6523, 712.71697218131, 1766.7944797535, 1452.0126609519
6524, 885.74308995464, 1755.6379781874, 1353.4272897343
6525, 1599.3879236312, 1788.6785065538, 241.38044606559
6526, 1588.7736223687, 1956.7113979245, 303.48744103397
6527, 791.61580036753, -73.917776593295, 1410.5497774302
6528, 1612.8310021995, 1945.3404359996, 122.81045698171
6529, 1612.2256668705, 2094.4568782914, 130.51685363917
6530, 1609.1124939292, 6778.3273397229, -164.5090632186
6531, 1605.764850887, 6956.0405704462, -194.48777251015
6532, 853.1613294773, 3640.5562465693, -1374.198674095
6533, 796.43617782782, 3777.7034394478, -1407.8336779062
6534, 910.0463797304, 3836.0831771116, -1337.2067292456
6535, 1519.2378722546, 2943.3372699183, -555.17793319558
6536, 288.72505089596, 4198.730565791, 1591.5225713087
6537, 1361.3849050624, 3158.3258595636, 873.46287286198
6538, 1404.5686412257, 3302.4154604337, 802.18026782343
6539, 1289.5506662498, 3237.6090564409, 976.40428572122
6540, 933.41631107632, 5398.0344222281, 1320.9997124211
6541, 909.88991446329, 5624.7538058949, 1337.3131995004
6542, 1571.2270259928, -106.01956626609, -384.12482709375
6543, 1600.0795382499, 15.496141983282, -236.75244723976
6544, 1600.4375918792, 6371.2334191804, -234.31979109747
6545, 1582.0070601599, 6269.6191580631, -336.98651546335
6546, -846.00517128439, 5657.0537434572, -1378.6157913502
6547, 1617.0732335743, 6455.7903248991, -37.153832340656
6548, 1615.1720039187, 6314.3809865763, -86.750491394071
6549, -1099.9916767067, 4628.8155455693, -1185.8855598986
6550, -602.61923480994, 4229.1164416222, -1501.0517338976
6551, 1557.3012025512, 6099.9874578861, -437.17183639011
6552, 1606.0719105406, 6156.8976235949, -191.93558339361
6553, 657.89285839608, 2754.2129184838, 1477.6614080605
6554, 605.96598188342, 2893.9327992746, 1499.7037970213
6555, 509.59559046721, 2857.4792670525, 1535.1281979615
6556, 562.81634172461, 2717.7593862617, 1516.4247477167
6557, 753.12645877299, 2664.1426904221, 1431.4701488666
6558, 750.70942863517, 2898.4297764005, 1432.7391960012
6559, 209.98632435581, 739.70379491658, -1603.8117076464
6560, 1461.2970585984, 5638.5064477897, -693.48190786192
6561, 1422.8804180547, 5744.2567250144, -769.23180246037
6562, 112.92842505263, 644.65128393962, -1613.5530424548
6563, -1439.8464108662, 292.43868404519, 736.98613495494
6564, -1604.4671878704, 907.96779973964, -204.91777142876
6565, -1598.0553204064, 1081.8292026686, -250.05088066391
6566, -1343.1952916809, 5955.2616065306, 901.18403137554
6567, -1287.2455572712, 6015.775299254, 979.44123115454
6568, -1239.8405953327, 5724.8305134946, 1038.7981267624
6569, -1211.4159649157, 5965.7270973614, 1071.8104356403
6570, -1295.2627074333, 5841.6999319992, 968.8141043216
6571, -646.73350941186, 4629.9842489937, 1482.5795148335
6572, -99.363566317918, 3234.943248743, -1614.4451466955
6573, 1017.8228816963, 1731.4268077018, 1257.1168726477
6574, 1102.5621434606, 1732.6564110797, 1183.4960793376
6575, -795.32873252967, 4651.2836066817, 1408.4596043951
6576, 765.893677076, 1305.985731383, 1424.6800080773
6577, -1180.7397728861, 4679.3818315291, -1105.5133824269
6578, -1299.1976146074, 4578.0914215329, -963.53090671679
6579, -1161.8966076056, 2717.3364660302, -1125.3010811488
6580, -1223.9262101256, 2858.0249942241, -1057.5021901479
6581, -1132.8813677835, 2945.6241788624, -1154.5068455964
6582, -1065.4899005701, 2804.9356506685, -1216.9788501791
6583, -672.14274197842, 5923.7378962432, 1471.2343064263
6584, 631.22975949164, 4938.9803966014, 1489.2465345711
6585, 748.30975425636, 5092.0150021276, 1433.9939894172
6586, 797.27828983694, 3492.1390689194, -1407.356947812
6587, -714.49133510084, 3571.9176259129, -1451.1403729708
6588, -820.09882953123, 3625.8013500335, -1394.1822548725
6589, -1264.4134338187, 4547.7279227614, 1008.744228424
6590, 999.58995731313, 5972.3576289389, 1271.6627568812
6591, 866.70321129213, 6085.4966827852, 1365.6982805642
6592, 511.18195148471, 1775.8651736747, 1534.6006850241
6593, -1567.2994505272, 3771.6969745997, 399.84832421462
6594, -1542.6344709865, 3637.9619710744, 486.40018392703
6595, -1499.601127067, 3703.8801660844, 606.22001756746
6596, -1530.9969131331, 3837.6151696098, 521.87613662338
6597, 324.29138034793, 5763.6831539691, -1584.6581179018
6598, -1598.4428843378, 325.57285062789, -247.5612964696
6599, -1560.5253054053, 491.19379636759, -425.51970716962
6600, -1321.5547532727, 4476.0908028914, 932.63030408748
6601, 1423.4673361406, 5140.7357276695, 768.14516397667
6602, -609.17566449829, 605.9800550137, 1498.4029030214
6603, -600.03543585027, 751.52726229017, 1502.0864574731
6604, -120.83390469525, 2781.3092817277, -1612.9802904797
6605, 885.57135465128, 5249.0658722759, 1353.5396654037
6606, -444.59844259599, 4842.8809448375, -1555.1972462814
6607, -397.68811418856, 4729.5473478179, -1567.8489767299
6608, 1318.318310142, 4582.8023351522, 937.1995962143
6609, 1304.5978034969, 4445.2841507158, 956.20647410018
6610, 1395.0771727411, 4552.2687880814, 818.57555063452
6611, 293.77845638499, 5127.3611303321, 1590.5975193505
6612, -452.57952977827, 6401.2619545764, 1552.8934346006
6613, -1608.2920104922, 5126.4222561609, -172.34575418912
6614, 1436.7387389206, 3387.2038397793, 743.02627550106
6615, -287.13748833873, 4920.5015661398, -1591.8097602385
6616, 516.70154398173, 4930.748635426, -1532.7510445101
6617, -167.16917947858, 4814.9929154392, -1608.8383123958
6618, -121.08578711553, 5040.5477132006, -1612.9614013232
6619, 1203.0502219447, 6333.0258313269, -1081.1921260715
6620, 1089.6750836965, 6549.1238482289, -1195.3721018876
6621, 1225.7101222577, 6500.6452152756, -1055.4340084511
6622, 1441.1578446957, 5555.0903159389, 734.41835262477
6623, 1380.999209933, 5633.9247253496, 842.10891941869
6624, 1274.7518927722, 6114.0470054722, -995.64745862865
6625, 1193.6485439965, 4612.2227801942, -1091.562826142
6626, 1089.4194637385, 4686.693438168, -1195.6050694221
6627, 1237.8054162564, 4713.8193589621, -1041.2223592904
6628, 1242.9810490325, 4516.279471779, -1035.0383382977
6629, 1107.8409985611, 4542.159721949, -1178.556138632
6630, 1605.3671695763, 353.98063102494, -197.74352289405
6631, 1593.812541603, 224.76603692058, -275.80397428081
6632, 1616.3161592522, 312.01487264004, -61.873446163367
6633, 1612.2163365374, 485.58484154357, -130.63205656318
6634, -969.5575445609, 5348.9837072908, 1294.7063056095
6635, -1081.3617422238, 5313.6165658949, 1202.8977647559
6636, -134.96154438983, 4214.7031632075, -1611.8596810938
6637, 753.3316764331, 5252.0128018253, 1431.3621607694
6638, -433.32993516287, 3905.2124203839, 1558.3746074971
6639, -599.6901918182, 3815.0399789738, 1502.2243254045
6640, -541.00322395188, 3679.458121765, 1524.3430590499
6641, -372.59126444004, 3769.6305631752, 1574.0019058638
6642, -1278.2689655538, 2400.0249910142, 991.12799461123
6643, -1241.0573254883, 2288.9775772502, 1037.3441882287
6644, -1168.0105759887, 2348.541481454, 1118.9537722259
6645, -1208.2645573363, 2459.5888952179, 1075.361803992
6646, -1193.4806669521, 2171.9201380304, 1091.746375131
6647, -1317.096930097, 2210.9439719553, 938.91529262705
6648, 233.30452329094, 513.21540192187, -1600.5859081636
6649, 120.98768321745, 419.46255548225, -1612.9687630297
6650, -1487.4168997197, 1228.8653598988, -635.52908385717
6651, -1483.71712768, 1083.6511169473, -644.11934843549
6652, -1529.6362589133, 1240.6170232387, -525.85089656453
6653, -1473.741285218, 1377.962572009, -666.62798789427
6654, -1414.3126463857, 1179.9520719017, -784.87323070254
6655, 1563.4341939815, 3008.4351507841, -414.70443823226
6656, 1579.4891309855, 5172.7080061681, -348.59766938214
6657, 1546.5390045156, 5098.5095728379, -473.83895736003
6658, 1528.0258088064, 5199.3239647204, -530.51237273186
6659, 1546.8442431861, 1337.3019019984, 472.84155625532
6660, 1504.8731045135, 1370.2297181941, 593.011963886
6661, 1492.9964264451, 1257.4465024198, 622.30854133786
6662, 842.11169531929, 6460.2383177015, 1380.997517234
6663, 727.83157059132, 547.73357209487, 1444.4955710734
6664, 1483.3699860623, 6641.3639448791, 644.91839363568
6665, -859.41257780348, 5461.7129669198, 1370.297876782
6666, 1550.4233028452, 1356.0140351523, -460.97053267501
6667, 1520.194634158, 1189.6447818524, -552.5527343859
6668, 930.15253018959, 3826.4903972218, 1323.2998604179
6669, 1543.2579681167, 1090.1991151423, -484.4183046131
6670, 1496.9572318483, 967.52944239585, -612.71959003861
6671, 705.91841652171, 3856.7065221927, 1455.3300104153
6672, 511.19903683852, 3821.175398889, 1534.5949937151
6673, 612.19971660999, 3746.3609945943, 1497.1699158688
6674, -938.54054196717, 860.44638540284, 1317.3639971868
6675, -1048.8954006408, 897.93075026298, 1231.310151227
6676, 1364.3489373044, 6801.6427889443, 868.82577498384
6677, 1423.0829068481, 6818.2634719934, 768.85713252641
6678, 1220.1672694332, 6678.3038505671, 1061.8371271545
6679, 849.09822464325, 675.68031344082, 1376.7129166633
6680, 729.05749829116, 680.4138928473, 1443.8772157581
6681, 1231.3414956305, 6676.4600715374, -1048.8586039779
6682, 1143.3191058802, 6697.739463155, -1144.1711725652
6683, 915.36581829143, 785.19443600168, 1333.5710212447
6684, 1465.0446578279, 6099.9292165436, -685.52928498349
6685, 1423.3973620729, 5953.5013675557, -768.27482038908
6686, 1353.5228240651, 6050.3592398916, -885.59709503523
6687, 1617.3692449709, 6649.5114959301, -20.5663662847
6688, -1615.2236859762, 1277.4919733984, 85.782831973877
6689, 1612.8686740003, 6640.5432755217, 122.31471877299
6690, 1088.0258645672, 1893.0484430578, 1196.8734135375
6691, -1418.6393502744, 4069.052390181, 777.02551042612
6692, -1305.1277783222, 3986.7395629251, 955.48298375829
6693, 1031.1616196002, 2018.1442660474, 1246.1990066854
6694, 970.72682927748, 1818.8350008282, 1293.8298469741
6695, 1615.1698408358, 770.92293205806, -86.790755581051
6696, 1617.4984711235, 855.03618176391, 2.2239408914156
6697, 1232.5790989811, 5970.0476187545, -1047.403940586
6698, 1202.7945995352, 5816.5258191735, -1081.4764913437
6699, 1087.0658307936, 5862.1427391366, -1197.745436026
6700, 1315.8243289139, 5906.3598531739, -940.69792464863
6701, -1405.2455638858, 5235.1817257963, 800.9938546451
6702, -1403.7173744555, 5380.8183863571, 803.66895090693
6703, 374.23138346286, 3323.1455236805, 1573.6127610157
6704, 509.53263116333, 3313.8744283387, 1535.1490962704
6705, -1084.7270217215, 1274.7057181614, -1199.8639666009
6706, -1616.8841552056, 2930.4897665075, 44.630467677867
6707, -1597.7792182867, 3045.2868633137, 251.80909358305
6708, -1615.8368356116, 3091.3027838226, 73.331921293546
6709, 1531.7423391695, 2668.3126852254, 519.6841890952
6710, 1509.922110422, 2546.887747238, 580.03574929379
6711, 1492.4158942075, 1953.8709090001, -623.699485904
6712, 1499.3041640244, 1791.9118996546, -606.95409524857
6713, 1587.6226715826, 1884.1793073982, -309.45193920353
6714, 1553.1351474419, 1842.139171862, -451.74933733293
6715, 1544.574429731, 1980.1364754557, -480.20420762531
6716, 228.38075577814, 5613.3491767404, -1601.2958753429
6717, 336.41244398224, 5545.7602258546, -1582.1292354084
6718, 1566.2233961976, 1650.8019640225, -404.0427244777
6719, -1285.123009955, 843.46113003613, 982.22456662622
6720, -1336.8444834303, 963.76706857988, 910.57842996746
6721, -1390.97565787, 877.2219611141, 825.52587434505
6722, -1601.6051648457, 3205.0598661283, 226.20156042705
6723, -1564.7418306334, 3070.4591732284, 409.74291142853
6724, -1571.1000189177, 3230.232176043, 384.64396596961
6725, -1176.3588723005, 1283.2658461506, 1110.1738843803
6726, -1116.1614369603, 1093.5290195396, 1170.679245841
6727, 872.35371572997, 2563.7981028874, 1362.0959014152
6728, 694.88033843423, 2545.2267665539, 1460.632590783
6729, 446.70026966942, 2574.6970133815, 1554.5948408114
6730, 580.82111293034, 2585.921788714, 1509.6201789769
6731, 115.60332831727, 5543.5993568456, -1613.3636045486
6732, 1389.7533543944, 4506.8420007921, -827.58193790682
6733, 1464.2604123177, 4562.6444080354, -687.20280479572
6734, 1517.8624311611, 4623.564584399, -558.92744615892
6735, 1440.3328725432, 4685.5300606563, -736.0349626693
6736, 1611.2815570321, 1464.0299746428, 141.69683824354
6737, 1614.7912862484, 1376.4421499666, -93.570037171673
6738, 1617.4577697403, 1524.2938539496, -11.688160961028
6739, 1361.5774723006, 817.76741245328, 873.16266349609
6740, -1479.9333427308, 2113.1420599294, 652.76607684034
6741, -1433.1704986234, 2236.3590332366, 749.88570587487
6742, -1512.1425389466, 2190.8141436039, 574.22224957596
6743, 1432.5196107106, 2486.0190674525, 751.12836115386
6744, 1487.0288544674, 2425.0722373563, 636.43651370853
6745, -1466.0631638204, 4383.1882996976, 683.34841017514
6746, -1425.2627591939, 4282.3932860124, 764.80868016442
6747, -1374.1209891808, 4379.7335074672, 853.28644492496
6748, 1277.211998255, 5807.847708355, -992.48967829066
6749, 1371.3622472372, 5840.8052717855, -857.71314368652
6750, 297.71744087256, 1721.5616183113, 1589.8649550828
6751, 356.88128321618, 1819.8616160025, 1577.6381079608
6752, 212.71273528175, 1769.6929147717, 1603.452382283
6753, -1317.7652702182, 5311.3732972903, 937.97704801699
6754, -1511.7130013178, 2494.4523743348, -575.35211101273
6755, 1617.33189676, 3489.4864004236, 23.319213593695
6756, 1606.4828161666, 3465.1007338344, -188.4654115784
6757, 1616.2977748581, 3583.0559195152, -62.351848317779
6758, -661.25462913352, 2176.7827936751, -1476.1600744667
6759, -736.71248514594, 2308.5625251788, -1439.9864458494
6760, -1593.5952164096, 2568.9624725489, 277.05691876654
6761, -1612.3528507919, 2580.8495055046, 128.93616460567
6762, -1613.6746981447, 2426.9883159929, 111.17651985695
6763, -1596.5489940979, 2415.1012830373, 259.49481583457
6764, -944.98899652513, 2059.1714802108, -1312.7459946412
6765, -849.90535898779, 2181.6082938803, -1376.2147836598
6766, -768.44869663886, 2073.5819738311, -1423.3034991294
6767, -1615.7854865106, 2265.8897448731, -74.454761981814
6768, 1293.7435479106, 4832.1127219575, -970.84184203178
6769, 1383.7371334449, 4735.3957596334, -837.60240897805
6770, 1335.0627488506, 4617.102396638, -913.18875739444
6771, 1407.7274522776, 4871.6586222262, -796.62392011783
6772, 1592.3194585938, 3602.7729261568, -284.2973650661
6773, -1190.7178003852, 5598.9509337367, 1094.7590464782
6774, -1125.9996426176, 5457.0313959263, 1161.2196410778
6775, -1316.5834622323, 5636.7529905993, 939.63516163258
6776, -1271.9431636369, 5510.8734108415, 999.23312519017
6777, -1565.8569204099, 2254.8588476298, 405.46066986151
6778, -1565.519406609, 2425.6514139529, 406.76189291862
6779, -23.182328889333, 1878.9169336362, 1617.333864614
6780, 96.342095011965, 1813.7540434768, 1614.628270138
6781, 198.69356315233, 4572.5724939651, 1605.2498615362
6782, -1405.2940441443, 1838.9280981066, -800.90879598898
6783, -1314.1248316713, 1987.2689301518, -943.07061070996
6784, -1445.7454838947, 1535.8771466019, -725.34560438317
6785, -1423.8760834119, 1695.8924966223, -767.38722239003
6786, -1373.2363945558, 1009.2901037029, -854.7093392888
6787, -1433.2231388448, 1066.9227446644, -749.78509206291
6788, -1320.2859185746, 891.95543701908, -934.42567559626
6789, 1255.4248096753, 1597.5453438477, -1019.9092102985
6790, 1152.2593735902, 1596.620929733, -1135.1672061743
6791, -16.131423530674, 3178.43396292, 1617.4195581774
6792, -150.71926141137, 3171.4963254249, 1610.4626522337
6793, -147.17340414861, 3057.1625857771, 1610.7905633916
6794, -12.570576544855, 3064.1002232722, 1617.4511524634
6795, 99.57678106941, 4594.132705728, 1614.4320099254
6796, 1250.5340088877, 1431.3152040292, -1025.9000646336
6797, 61.945749840302, 3258.6102931219, 1616.3133898093
6798, -32.350244347423, 3359.7021124346, 1617.1764627556
6799, -110.3591927198, 3279.5257822327, 1613.7308011506
6800, -5.3925981704487, 779.64219154631, 1617.4910107586
6801, -72.564245964189, 842.08101543953, 1615.8714924794
6802, 1595.4274202332, 1454.1234822879, 266.30358008863
6803, 1606.2240566217, 1641.4604098339, 190.65814939235
6804, -1569.7832244136, 2043.3593370849, -389.9831770085
6805, -1510.8441275538, 2021.074764083, -577.62987477799
6806, -1552.3106798998, 1948.4286340253, -454.57430973268
6807, -1587.4669346561, 2342.1582085158, -310.24986925621
6808, -1585.248761242, 2144.8608051627, -321.39168467904
6809, -1603.999461935, 2252.0202048453, -208.54729946072
6810, -1343.7930063804, 5576.4397154066, -900.29251135567
6811, -1401.447456356, 5475.8414802176, -807.6207507694
6812, -1444.6513555096, 5551.4945088094, -727.52230964022
6813, -1392.300201733, 5652.0927439985, -823.28998430344
6814, 1032.5470772652, 3891.7736053337, -1245.0513175091
6815, -1234.7468780537, 5381.4370660796, 1044.8475473181
6816, 1463.4829885529, 2306.2214359292, 688.85687353488
6817, 1403.5935898729, 2366.3370793192, 803.88511894901
6818, 1367.8968560091, 2548.9021770427, 863.22907812497
6819, -476.46178106891, 1852.5701789985, 1545.7329721464
6820, -372.50028452504, 1793.0288880418, 1574.0234394788
6821, -426.25457857378, 1974.8430929238, 1560.324736792
6822, -575.89761437514, 2035.7767580715, 1511.5052721565
6823, -624.44878737398, 1913.5038441462, 1492.1025306416
6824, 421.93563613034, 1709.2346136248, 1561.498180903
6825, 447.16532417822, 1886.4921760525, 1554.461135845
6826, 1609.7290528286, 4590.0025326988, 158.36232657947
6827, 1576.3779881312, 4510.5022830374, 362.40679979217
6828, 1138.3624206937, 3945.7706214801, -1149.1028018208
6829, 1615.347210522, 961.37358228908, -83.424453602809
6830, 1606.3390969336, 836.7726089797, -189.68646673501
6831, -1556.210105545, 3876.8445894746, -441.04008593285
6832, -40.623493498956, 956.3567049311, 1616.989790251
6833, -1327.3522925674, 3113.4833940378, -924.36039585003
6834, -1421.5274140508, 3232.7033529286, -771.72926671338
6835, -1345.6944162034, 3250.2084067057, -897.44793063383
6836, 12.426334712392, 1093.6452949074, 1617.4522670563
6837, 79.103176801924, 923.42390072728, 1615.5645878206
6838, 132.04186842302, 1060.7124907036, 1612.1014840832
6839, -1144.7205370837, 1417.3453110037, 1142.7690676505
6840, -1233.4779782997, 1467.3078971347, 1046.3452236474
6841, -1262.3736647385, 1333.2284322816, 1011.2956939366
6842, -1554.1036991475, 3329.5305000903, 448.40600162815
6843, -1498.3659872382, 3411.3545487316, 609.26645918487
6844, -1543.4102250708, 3463.7663239061, 483.93297794917
6845, -1453.1409685363, 3435.5250132192, 710.41366510046
6846, -1342.4879122758, 3287.4062643874, 902.23747172974
6847, -1370.4079529846, 3468.0781979602, 859.23704086624
6848, 1522.0096160549, 5954.2702189824, -547.53354110636
6849, 555.67605510351, 2443.3751327467, 1519.0557500581
6850, 1587.1279896666, 1298.0866294368, 311.97915702313
6851, -1560.2317883025, 5855.1418077515, 426.59467503767
6852, -1496.6983295845, 5902.6274897196, 613.35174265586
6853, -370.35538200438, 5870.735166311, 1574.5294983011
6854, 1342.67855979, 4954.1472016211, -901.95373222812
6855, 1387.5806776437, 5073.5832463701, -831.21965390015
6856, 1441.5155180513, 5198.365608302, -733.71606307714
6857, 1491.1643790601, 5302.6117480446, -626.68576226242
6858, 1607.7764831271, 654.8382750707, -177.09045796809
6859, -1538.4832442718, 1432.0929179373, 499.37516667814
6860, -1553.2225416189, 1294.3030406869, 451.44876365637
6861, -1601.9042390911, 4134.8020019069, -224.07377977337
6862, -1614.6072128105, 4226.7956372101, -96.694355265206
6863, -1306.3563634451, 2785.0020020512, -953.8025485846
6864, -1252.6016737839, 2621.27286726, -1023.3744655959
6865, -729.53506329997, 4155.0309238387, 1443.6359795377
6866, -818.45364717016, 4259.7338285779, 1395.1486936645
6867, -1261.7213338558, 3331.5457839417, 1012.1094435352
6868, 36.970653513499, 3462.7000384046, 1617.0774319057
6869, -146.63598500702, 3431.8436630334, 1610.8395754702
6870, 1598.0006294274, 5882.1918481391, 250.400156449
6871, 1612.9116268903, 5817.8149882839, 121.747007529
6872, -1590.6513402285, 3911.0208089257, -293.48690572032
6873, -1612.5249463272, 3983.3056020294, -126.76571883829
6874, 1507.9312503529, 5540.3440331535, -585.19192937806
6875, 1610.7146601922, 1552.1538644517, -148.00180215742
6876, 1614.9978367358, 1686.9499713298, -89.934628140451
6877, 1616.8305086612, 1659.0899608276, 46.533388684775
6878, -357.19389118718, 3579.5505870779, 1577.5673596074
6879, -236.59429798624, 3507.5697099525, 1600.1029304893
6880, -324.24676429627, 3677.755345272, 1584.6672476717
6881, 1614.5488874107, 1806.3080575475, 97.663402361118
6882, -759.92869319223, 2794.7017010662, 1427.8706633527
6883, -676.40442030441, 2670.8039804475, 1469.2798610859
6884, -564.149763542, 2737.318451712, 1515.929185119
6885, -988.28377830656, 3637.2557578774, -1280.4692200659
6886, -1092.8739135676, 3722.1440319716, -1192.4482626275
6887, -764.60278628724, 1574.7845452662, 1425.3732245282
6888, -724.66007449403, 1423.5689965438, 1446.0892180064
6889, -600.70970293785, 1460.2582803164, 1501.8169338492
6890, -395.88810172546, 2881.8066085123, 1568.3044541517
6891, -469.46236977555, 2823.6307190758, 1547.8731644953
6892, -784.15493916183, 1935.5339602972, 1414.7110239862
6893, -807.35706761636, 1758.3293460096, 1401.599377629
6894, -1177.0463856057, 5448.4347390542, -1109.4449315458
6895, 115.64478835434, 5330.3931715109, -1613.3606332517
6896, 247.42377645985, 5247.0745062699, -1598.4641769031
6897, 340.79255443527, 5355.529702714, -1581.1915395807
6898, 230.6565388356, 5423.1722158565, -1600.969647149
6899, 1502.5931145143, 727.57652829525, -598.76554862014
6900, -1600.9788185565, 847.91866902343, 230.5928718185
6901, -1615.0861208111, 953.98915289107, 88.335000782554
6902, -1612.7793420638, 826.06173433551, 123.487018801
6903, -37.157325465417, 4601.6463817582, 1617.0731533126
6904, -56.22869302743, 4461.0423986788, 1616.5223735168
6905, -1587.2444460686, 761.91276970867, 311.38612432861
6906, -1614.1797793793, 5857.2883274627, -103.5851815798
6907, -1616.0830089308, 5612.2683359785, -67.690163577506
6908, 941.24355985505, 2989.1666757622, 1315.4340770375
6909, 1043.1997039705, 2831.2375214755, 1236.1394046125
6910, -134.62072677008, 4797.1027603312, 1611.8881815821
6911, -777.01095915071, 3195.3364521567, -1418.6473202878
6912, -988.42401925352, 3226.3871338048, -1280.360967916
6913, -853.02955479988, 3313.382708843, -1374.2804766997
6914, -1354.2241988691, 2802.4910136315, 884.52420498102
6915, -1423.5183869842, 2773.4462975123, 768.05055297032
6916, -1407.9844636284, 2634.2488107741, 796.16958003998
6917, -1336.3908218893, 2663.2935268933, 911.24410624702
6918, -1475.7216703205, 2606.5954645898, 662.2324378542
6919, -1485.9535211763, 2756.5226825792, 638.94317658449
6920, -1535.4846405447, 2734.5108833017, 508.5205685628
6921, -1527.2977053614, 2584.5836653123, 532.60489032463
6922, -1351.0184205754, 5440.8096420522, 889.41299589437
6923, 1467.5584988171, 4499.5228392553, 680.13109217981
6924, 1488.0954736724, 4653.3415454353, 633.93857055383
6925, -952.03691991792, 2862.1945439593, 1307.6436644259
6926, -876.91129149143, 2730.087833223, 1359.1662285588
6927, 1502.5733340482, 4306.7135933518, 598.81518501718
6928, 1520.5694186482, 4440.2264253256, 551.52052824169
6929, -1378.8870333804, 5549.3657832021, 845.56300721784
6930, -891.64351151839, 4617.1243465623, 1349.5473679598
6931, -1588.5879010218, 1749.5091536939, -304.45809354858
6932, -1600.9144739649, 1627.357387579, -231.03916778246
6933, -1605.1200333126, 3459.1726046053, -199.73965219407
6934, -1616.3578476502, 3282.1380602055, -60.774652114788
6935, -1617.0064204512, 3435.0175410229, -39.956053602188
6936, 190.1063484328, 5046.8923510754, 1606.2894590595
6937, -20.158671753335, 4982.9487551833, 1617.3743777967
6938, 254.54945647697, 4939.9637504854, 1597.3449296277
6939, 36.377645986273, 1689.6673461669, 1617.0908808328
6940, -1471.0436373504, 1873.1878665548, -672.55993562721
6941, -1516.6294980393, 1884.3602761953, -562.26436458034
6942, -1093.5288183635, 2567.3935424757, -1191.8477140174
6943, -1568.6188908446, 1857.5961682607, -394.64037462664
6944, 1537.1836776794, 5870.4164551024, 503.36129278696
6945, 1574.6039419855, 5934.964258658, 370.0387491651
6946, -118.49908437605, 2453.65233887, 1613.1535007562
6947, -268.27884693841, 2476.0587720225, 1595.0964579879
6948, -1260.3693125624, 3679.1545638115, 1013.7926049992
6949, -1307.5281426832, 3520.1336988322, 952.19557134631
6950, -1232.2455275109, 3453.1456812198, 1047.796358998
6951, -1180.5895016404, 3612.1665461991, 1105.6738572547
6952, -841.07861325263, 1367.5023287115, 1381.6269454267
6953, -786.53486914113, 1209.1630253306, 1413.3892420792
6954, -1253.1846863934, 3199.1589299266, -1022.660447944
6955, -1198.5582824026, 3091.8986496587, -1086.1695510757
6956, -1277.7156688115, 3006.2231137699, -991.84117663745
6957, -1549.340956363, 4194.4479153084, 464.59536258574
6958, -1325.2925883485, 3366.6629341991, -927.31106176328
6959, -1230.0064417609, 3315.61345742, -1050.4239159628
6960, -1550.2142324255, 5949.7792941328, -461.67313500499
6961, -1601.3151303379, 5954.0493001737, -228.24570828569
6962, 1295.7207354375, 911.98478743131, 968.2014386259
6963, 1358.2760876619, 440.60973938609, 878.2894281989
6964, -1482.5782460107, 934.81908217354, -646.73641806838
6965, 348.06319591788, 2445.0151568176, 1579.6069959479
6966, 467.22282953204, 2470.0688653423, 1548.5506377139
6967, -1612.7859831505, 1990.7059018468, 123.40025345764
6968, -1604.2224817215, 1898.7941539924, 206.82475465802
6969, -1584.6619061413, 2018.1582331917, 324.27286846845
6970, 1616.5885975761, 2391.2430159557, 54.291400672618
6971, 1617.3360917625, 2243.0748156723, -23.026425741188
6972, -1589.9394288641, 1752.6694727885, 297.3194621
6973, -1616.3008348358, 1802.2832688504, 62.272476336968
6974, -1616.5053588063, 2084.0775662065, -56.715738119535
6975, -1617.3497944401, 1949.2367935277, -22.042967687251
6976, 1614.4641668558, 5694.0651490705, 99.054045543273
6977, -1276.8899904903, 3808.760681107, 992.9039239451
6978, -1171.1099197678, 3848.0414665504, 1115.7095526262
6979, -1202.9510085582, 4026.0203483684, 1081.3025113301
6980, 396.2642390151, 3768.1900856578, 1568.209457591
6981, 204.23937758241, 3816.581318795, 1604.553684563
6982, 156.49632630087, 3704.1096729735, 1609.9115347914
6983, 172.80661837861, 3391.4052465877, 1608.242557155
6984, 113.73695164688, 3582.1501778475, 1613.4962521897
6985, 605.01478575605, 2186.72550465, 1500.0877837702
6986, 536.53504476881, 2338.8408183942, 1525.9214906852
6987, 513.76034668448, 2212.3842587542, 1533.7394029543
6988, 759.13688979768, 2158.2613894313, 1428.2917883081
6989, -922.73635604649, 2504.1969939616, 1328.4817903268
6990, -1016.3721271523, 2373.1714624983, 1258.2900894261
6991, -905.50412467202, 2258.0565996736, 1340.2867343229
6992, -806.2300631692, 2389.0821311369, 1402.2479578313
6993, 1617.0453859818, 2099.3084479753, -38.3467035756
6994, 1610.9169145532, 2238.2232459883, 145.78389625214
6995, -725.73438163806, 1043.2868232096, 1445.5503648467
6996, -680.80175399743, 927.58250630629, 1467.2474984658
6997, -578.2036955478, 997.78388091891, 1510.6246179825
6998, -572.66493724789, 868.78987719334, 1512.732996813
6999, -486.26240655079, 997.71842253107, 1542.6779061021
7000, 1310.9433723196, 1093.1810864746, -947.48811315567
7001, 1240.4095079004, 1276.1984577156, -1038.1187324725
7002, -143.88385719446, 2313.890421379, 1611.0877336877
7003, -302.95693393329, 2312.5384975061, 1588.8748680062
7004, -312.67855103271, 2164.1582335612, 1586.9903508604
7005, -153.74444538412, 2165.5101574341, 1610.1766659325
7006, 1538.0596045616, 4573.2309490962, 500.67844253167
7007, -1606.3788107011, 650.38680002297, 189.34985220622
7008, -1590.7933324294, 527.30517717636, 292.71628498959
7009, -1617.4124028233, 774.08744235762, -16.833573399638
7010, -391.73010267292, 2491.2412694544, 1569.348201216
7011, -425.81809907704, 2327.720994938, 1560.4439100776
7012, 92.507228083779, 206.15735767764, -1614.8525204341
7013, -454.53147175765, 2603.6950854726, 1552.3232238106
7014, -1614.9394362576, 5558.9073425592, 90.977289582666
7015, -1599.8333951867, 5473.6225396155, 238.41006196323
7016, 1150.7194605654, 1444.07516636, -1136.7281878603
7017, -1612.3993501487, 3384.7605548574, 128.35336240292
7018, -1609.2745657199, 3561.1642587121, 162.91599714837
7019, -137.49359174126, 2035.1757314931, 1611.6456689453
7020, -1373.8682942457, 2909.9979759699, 853.69324705442
7021, -1434.6877447406, 2928.3483713953, 746.97879828764
7022, -472.29714791186, 3544.6719581071, 1547.0105539635
7023, -439.10548778038, 3365.0857150927, 1556.7570846478
7024, -323.37508117298, 3399.9643440636, 1584.8453574013
7025, 1491.1941760207, 5467.5100954146, 626.61485731015
7026, 1519.9719628415, 5581.9922460487, 553.16496831935
7027, -234.13489259182, 3324.2382971445, 1600.464651928
7028, -35.632053984444, 2900.0430405139, 1617.1074815017
7029, 94.212493645128, 2874.5240551027, 1614.7539304926
7030, -1208.8416812038, 2023.5996874785, -1074.71300345
7031, 1617.227218993, 4610.129090914, -29.704749591062
7032, 1613.998698865, 4692.0157435938, 106.36940378743
7033, 1616.6554605829, 4737.2106059764, -52.262527373699
7034, 1609.6745923553, 4821.1609192047, 158.91493550226
7035, -1464.8523867151, 4141.785490507, 685.94003756538
7036, 1611.8043132291, 149.37770726509, -135.62118512961
7037, -1510.564659055, 4290.9001931437, 578.36032091941
7038, -1511.7433066937, 4045.3332126717, 575.27247862809
7039, -872.76771403727, 1146.5173922996, 1361.8306676434
7040, -814.08123965727, 980.64119017857, 1397.7045414672
7041, -1014.5120979406, 1047.131385071, 1259.7902417197
7042, -927.89803428198, 995.87396439372, 1324.8816882936
7043, -185.36865643437, 3772.0274403538, 1606.8430885471
7044, -16.635068679881, 3823.0540563365, 1617.4144566221
7045, 121.71905375147, 3900.865295081, 1612.9137366747
7046, -1612.4870283658, 6083.0888490518, -127.24713494565
7047, -1617.2868954671, 6182.5889797304, -26.255432776586
7048, -1611.6886466401, 6297.6663174905, -136.98889112447
7049, -1615.2740573826, 6108.7020202767, 84.829060744416
7050, -1617.4987326476, 5986.3278763409, -2.024816911913
7051, -1605.0520727481, 432.0576503043, 200.28503131061
7052, -1616.4924944518, 6335.9148157385, 57.081217410413
7053, -1584.300697086, 1232.4169611488, -326.03305233179
7054, 760.71630364788, 3559.1431652724, 1427.4512094514
7055, 793.17532073104, 3697.2493161692, 1409.6734233798
7056, 927.40969258296, 3404.7721668591, 1325.2235706111
7057, 931.08050101773, 3224.6172986659, 1322.6470998058
7058, 807.78404334362, 3845.9501652448, 1401.353342066
7059, 1026.4454850971, 3129.7682848562, 1250.0863634661
7060, 841.2744753465, 3084.0156895719, 1381.507693475
7061, 1572.5214859185, 1220.2339334379, -378.79074213166
7062, 1594.0670493468, 1315.0398383535, -274.32916758317
7063, 1606.0943365978, 1432.5075509378, -191.74783427325
7064, 1577.4330222728, 1450.8199400679, -357.78668259646
7065, -44.352606699113, 1540.3988824684, 1616.8918010427
7066, -169.91882394018, 1596.5528057861, 1608.5502302604
7067, -279.35410921228, 1698.3616432913, 1593.1941286818
7068, 1610.6235296185, 3561.3821676849, 148.99025417592
7069, -1185.0207258579, 1351.7463495827, -1100.9233076319
7070, -1354.7616686644, 3663.4964006236, 883.70078143999
7071, 1615.7508801969, 3677.0984866154, 75.202015552196
7072, 1604.1451912594, 3759.3174171383, 207.42337225935
7073, -1567.8217545918, 2569.2073415572, 397.79541956739
7074, -1566.9232891854, 2690.1481346782, 401.31989211664
7075, -1413.0101180141, 3400.5972882351, -787.21576228494
7076, -1492.1693879342, 3258.3346283493, -624.28900976391
7077, -1485.2589062956, 3426.2285636557, -640.55618900272
7078, -1310.1673866364, 1511.0046795727, 948.56084095554
7079, -1380.1170622241, 1564.7138112655, 843.5538776853
7080, -1338.4914176115, 1386.4836115453, 908.15580985882
7081, -1344.1650826839, 1678.6052287679, 899.73689514962
7082, -1402.7856346523, 1740.0153922467, 805.29417805747
7083, -657.62207055477, 3372.2334608492, -1477.7819400437
7084, -765.78745558553, 3424.7152413619, -1424.7371065807
7085, -1361.4685765237, 1256.6653221801, 873.33244823411
7086, -618.12460939773, 3241.6600220276, -1494.7334937228
7087, -1118.7735038882, 3726.3978892228, 1168.1832463264
7088, -1006.2558503809, 3809.0955308743, 1266.3946515894
7089, -1063.209127625, 3930.7391082019, 1218.9719442771
7090, -1397.9610920024, 1017.5757310073, 813.64060570223
7091, -1380.3331483651, 1124.8428920969, 843.20024283938
7092, -1105.0874631143, 4044.6735184085, 1181.1384122395
7093, 852.72666521709, 3501.6728846199, 1374.4684370431
7094, -1051.9964791054, 3831.6812158636, -1228.661734551
7095, -890.50725174422, 3530.8754664841, -1350.297405978
7096, 1532.3696877825, 5384.1926367205, 517.83143006721
7097, 1587.1164372657, 5404.2838426048, 312.03792167152
7098, 1554.6898260928, 5501.8326500726, 446.36957181647
7099, -1611.3616421774, 3826.798910891, 140.78319544386
7100, -1598.5701652957, 3680.8781767954, 246.73807291613
7101, -1397.6201935274, 2467.5537567956, 814.22604026433
7102, -1616.5608711356, 1134.1019658535, 55.11079670346
7103, -1614.6562923444, 1124.271695941, -95.871307453027
7104, -1616.2860770101, 944.15888297856, -62.654347520605
7105, 245.21731309527, 3993.9422129948, 1598.8041529088
7106, 326.85199134264, 3909.6582367089, 1584.1319470787
7107, -984.1529026037, 3211.510587651, 1283.6468806867
7108, -847.11320736843, 3271.1847864387, 1377.9352175999
7109, -895.31742731791, 3390.5346598302, 1347.1128216823
7110, -1028.9366389452, 3330.8604610425, 1248.0367154199
7111, -1567.0578284907, 3561.0349182733, 400.79422671252
7112, -1514.4487359316, 3540.6933767072, 568.11202789169
7113, -1089.4691743571, 2249.1058392651, 1195.5597718749
7114, -1099.3342051826, 2472.6071046871, 1186.495071762
7115, -1546.2349079932, 2428.7772573719, -474.83034791729
7116, -73.061932140539, 4194.8758460506, 1615.8490659934
7117, -186.54660870189, 4149.0964316179, 1606.7067600473
7118, -1115.9737557492, 2589.1207352175, 1170.8581581383
7119, -1223.3244474005, 2576.1025257483, 1058.1982547672
7120, -1585.8508185567, 3441.3210001899, 318.40764953615
7121, -1597.5183378996, 3342.0226761426, 253.45889227757
7122, -1144.362366136, 3277.8428783491, -1143.1277378192
7123, -1100.3232504722, 3170.9250008465, -1185.5779158159
7124, -89.448377536934, 1745.8212694846, 1615.0248412195
7125, -127.30105051945, 1917.057777005, 1612.4827727876
7126, -193.2807977358, 1783.9621128534, 1605.9105775935
7127, 1591.2484783002, 5543.4288221451, 290.23185612062
7128, 1606.4936266989, 5377.6373960785, 188.37323954281
7129, 1608.9270509097, 5516.7823756188, 166.31294252459
7130, -1148.0465844606, 944.32838473155, 1139.4276150367
7131, 1326.0176842372, 3040.8480305379, 926.27390716259
7132, 1396.3158716665, 2971.3063990362, 816.46079913987
7133, 1611.7821352985, 3885.358832782, 135.8845036521
7134, 1594.7751251796, 3962.6546195519, 270.18243856421
7135, 1581.1829974825, 3836.6132039082, 340.83218520585
7136, 1590.2591033364, 5733.3509559408, 295.60486169158
7137, 1572.9480360359, 5617.0382217723, 377.01555131166
7138, 1604.071213332, 5659.7415563136, 207.99469358563
7139, 1616.4904406581, 5551.1059683758, 57.139349497929
7140, 1500.0497745211, 5744.8800630787, -605.10901824326
7141, 1469.1527246356, 5856.9528207846, -676.68051671072
7142, 1548.5782105129, 3900.9743749053, 467.13143324396
7143, 1566.1128758531, 4037.381700827, 404.47090140976
7144, 447.71800880787, 2365.5345509898, 1554.3020409782
7145, 1250.6178783442, 2802.4931094822, 1025.7978223635
7146, 1329.7622342886, 2734.3640925192, 920.89014016857
7147, 1363.990693854, 2852.7788937339, 869.3880819748
7148, 1288.9141868558, 2920.9079106969, 977.24432406736
7149, 1596.8935888747, 2357.3105730448, 257.36572384626
7150, 1605.1671950135, 2454.531249092, 199.36029206564
7151, 1611.3100236404, 2345.1536174042, 141.37276157676
7152, 1457.6092259734, 2908.391877573, 701.20011006645
7153, -1454.4167470611, 5769.5482685307, 707.79811801687
7154, -1416.9314272322, 5663.862550491, 780.13561674985
7155, -1616.6852980862, 4031.8161931295, 51.331247326106
7156, -1446.1751186886, 1816.5713698438, 724.4886307499
7157, -1490.6992842744, 1904.9342821076, 627.79128208636
7158, -1526.7495679285, 1785.495571827, 534.17413530624
7159, -1549.5070649863, 2870.0674051967, -464.04106020643
7160, -1584.9633835511, 2854.8449645096, -322.79610097118
7161, -1586.8919978356, 3006.9393865632, -313.17732549663
7162, -1552.2929852443, 3022.1618272504, -454.63473026302
7163, -1402.2425777666, 5864.8114324196, 806.23942045673
7164, -1359.0965789625, 5751.2497578882, 877.01923528081
7165, -564.99023060408, 4235.4010435168, 1515.6161418123
7166, -492.3209907789, 4143.8812314752, 1540.7551044986
7167, -379.60039034598, 4241.4721136449, 1572.3262363928
7168, -625.87723905743, 3991.1026963537, 1491.5039160625
7169, -477.89204586739, 4027.9278194567, 1545.2913778627
7170, -639.79675373658, 4107.0561083722, 1485.5862021129
7171, -1456.416311738, 5751.0473775294, -703.67448220286
7172, -678.0986842996, 5924.3447524715, -1468.4986974292
7173, -541.16416436587, 5928.3024988764, -1524.2859302658
7174, 208.47894304053, 889.26540508916, 1604.0083479548
7175, -265.85350729585, 3078.0725722184, 1595.502479678
7176, -274.12410060763, 3216.2088403367, 1594.1023265356
7177, -401.49244951279, 3223.5798442396, 1566.8790837152
7178, -160.86148499725, 2929.5333460616, 1609.4812309078
7179, -279.40733504869, 2950.4433325029, 1593.1847950319
7180, -1108.9702826361, 2029.357618547, -1177.4935932862
7181, -915.06428917358, 1539.4654675992, 1333.7779412928
7182, -1010.9698809227, 1494.6326913172, 1262.634606633
7183, -1097.0162801172, 1554.4161198221, 1188.6385199706
7184, 1600.0271880074, 5143.1179080265, -237.10598397599
7185, 1607.3158699888, 5298.8334530825, -181.22346449123
7186, 1617.3661409137, 5247.8114564681, -20.80904192763
7187, 973.51898703529, 2462.3858106892, 1291.7302473356
7188, 267.96021476666, 1012.6910504912, 1595.150015924
7189, -1018.9274659666, 2997.3468395643, 1256.2217436021
7190, -608.44888262072, 6064.6751271643, -1498.6981708261
7191, -1117.6774345452, 3377.5319600983, 1169.2319711282
7192, 1586.5791013727, 1570.4662535817, -314.75864577052
7193, -1616.5225843579, 6472.510953881, 56.222631216419
7194, -1616.3622429582, 6620.7591459627, 60.657642050409
7195, 449.61785660786, 2986.7403465819, 1553.7535303321
7196, -1472.0033758274, 3564.8638411948, 670.45679320358
7197, 987.36280203091, 919.32242195014, 1281.1795140283
7198, -1412.7782233649, 3611.4408997516, 787.63185663473
7199, -1560.8401128011, 1891.4604462988, 424.36351430223
7200, -1564.8006308661, 1646.7045983168, 409.51829707711
7201, -363.47591388856, 999.69170588822, 1576.1318187331
7202, 371.13091263981, 156.9316196645, 1574.3468790845
7203, -1036.9453246062, 2109.5237132172, 1241.3906088646
7204, 1527.9059664782, 4104.7994908361, 530.85742681107
7205, 990.87649384147, 3471.6677189248, 1278.4639314241
7206, -1369.9360606128, 2332.8550293337, 859.98920913737
7207, 1531.0325730687, 2971.8239959946, 521.77151149015
7208, 1564.1748402885, 2915.893384288, 411.90207453776
7209, 1601.2959688497, 5487.4311913642, -228.38010015267
7210, 1613.3633857911, 5438.8058684378, -115.60638126353
7211, 1551.0132894601, 2791.2343905958, 458.98150934244
7212, 1509.436114149, 2852.6624976219, 581.29929236392
7213, -1285.9832923093, 1635.2180137853, 981.09796753505
7214, -1260.8283977599, 1728.3240151901, 1013.2215954085
7215, 1609.0836417937, 1815.6249820551, -164.79103043547
7216, 1590.9416589766, 1776.6497118497, -291.90904016973
7217, 1607.1666672409, 1923.1545776035, -182.54192315656
7218, 1604.9118208494, 1696.314001409, -201.40580254248
7219, 1552.6163170471, 4536.4478130817, -453.52929567913
7220, 1592.428217658, 4453.787301197, -283.68754221252
7221, 1572.6294015225, 4306.2801215519, -378.34245792255
7222, 1121.1054827595, 2762.9825431973, 1165.9454303383
7223, 1009.877584652, 2251.9462593598, 1263.5084146999
7224, 924.77357287551, 2144.8141758288, 1327.0644629825
7225, -1276.5535131114, 5313.9763212191, -993.33648788467
7226, -1269.3000985245, 5454.1963583401, -1002.5884050225
7227, -1185.0788838192, 5308.2147019331, -1100.8607037795
7228, -1338.3390427457, 5442.7683562472, -908.38034801652
7229, -1358.5831037391, 5342.2825606402, -877.81444521875
7230, 260.25824495203, 3302.656512373, 1596.4247229151
7231, 406.73651513094, 3136.3012894627, 1565.5260001862
7232, -666.45229571028, 3598.8561256733, 1473.8207447117
7233, -1497.1712124521, 7181.1026213071, -612.1965457308
7234, -767.95126875625, 3644.3714172217, 1423.5719506985
7235, -837.44461904452, 3487.5206946898, 1383.8326344011
7236, -1596.3763965447, 1968.7065581009, -260.55450591929
7237, -1606.191817101, 2070.2080261787, -190.92955946563
7238, -1608.6463509824, 1860.6195435341, -169.0064125148
7239, -1615.2679730398, 1713.6660188568, -84.944836639842
7240, 1542.9982543128, 5697.1978177485, 485.24492494785
7241, 1563.4799138099, 5786.1233664597, 414.53203629285
7242, -661.94561703692, 3162.7490345274, 1475.8503481334
7243, -542.75283355575, 3197.8340349716, 1523.7209756603
7244, -991.57897380871, 2679.5080444788, -1277.9191636017
7245, 31.533793653703, 3735.8703629949, 1617.1925889818
7246, -878.71950810491, 4341.5603129831, 1357.9978925152
7247, 1602.3706470336, 4987.4102031981, 220.71375019473
7248, 1610.7386854566, 5217.3973004742, 147.74010008614
7249, 1575.6857161248, 4949.7399974646, 365.4049452324
7250, 1523.9328417854, 5033.4532531758, 542.15767423142
7251, -287.32305841733, 1878.6293576038, 1591.776275141
7252, -1616.5708126824, 270.33070133421, -54.81840551728
7253, -1616.0365869205, 287.65210359807, 68.789532157532
7254, -441.26059667322, 2142.254014393, 1556.1475944857
7255, -297.38148221511, 1996.747312092, 1589.9278298198
7256, -1522.8636036371, 2003.8167603329, 545.15382665582
7257, -1554.4416028979, 2130.5145472259, 447.23322012152
7258, -1503.6938742163, 4501.5560717452, 595.99579079419
7259, 1213.842128082, 3304.8321119202, 1069.0619898273
7260, 1168.1688679304, 3175.9305489086, 1118.7885171015
7261, 1247.678380292, 3108.7074934293, 1029.3711232359
7262, -993.83892724871, 3468.2736999323, 1276.1623864874
7263, -1084.7364726927, 3514.9451989882, 1199.8554224615
7264, -1617.4818769344, 4153.6865956801, 7.6568785342323
7265, -1310.3389412872, 2534.7237184761, 948.3238418105
7266, -966.84789106122, 3715.5006921336, 1296.7310459577
7267, -1017.9450824283, 3629.1765420119, 1257.0179231658
7268, -938.88341207495, 3565.259734792, 1317.1196561173
7269, -885.44534740982, 3651.5838849137, 1353.6220989443
7270, 585.97784016522, 3023.5217106159, 1507.6260215436
7271, 544.31297635658, 3173.0826534967, 1523.1643489032
7272, 731.59861695571, 3028.0186877418, 1442.591319005
7273, -1522.0748731516, 3128.2782771604, -547.35210835481
7274, -233.91967692367, 4296.9448918158, 1600.4961214411
7275, -61.644685284294, 4309.2909556143, 1616.3249001287
7276, -332.99577144098, 4093.623653447, 1582.8518775307
7277, -751.41312642778, 3764.9085252456, 1432.3702605933
7278, 662.09135605631, 3195.1203143609, 1475.7849728993
7279, -869.70942714248, 3772.1209929375, 1363.785819819
7280, 1434.2773954314, 1227.0857251494, 747.76640935163
7281, 1445.2482502627, 1390.3613441323, 726.3358349363
7282, 1372.4639562289, 1411.0629606626, 855.94914501529
7283, -1004.1334434153, 2639.7936422428, 1268.0781828479
7284, -790.0587427486, 2594.4911849418, 1411.4224856529
7285, -613.39635262914, 2355.3569225109, 1496.6800474989
7286, -705.0192428266, 2470.7886378622, 1455.7658181329
7287, -717.73085109759, 2273.6504157855, 1449.5408498496
7288, -646.48553273102, 2141.9530437777, 1482.6876629855
7289, -809.40117159647, 2210.7699435611, 1400.419934669
7290, -740.43328570494, 2079.0725715532, 1438.0767710453
7291, 1601.2867597611, 3820.6636997521, -228.44466072528
7292, 1611.1017961505, 3701.1554413612, -143.72631088529
7293, 1617.487654293, 3795.1980084614, -6.3196684872132
7294, 1615.2557533127, 3922.3753022381, -85.176882957567
7295, -1431.8978847679, 918.09070989067, -752.3128987311
7296, -588.13567509927, 2547.1014333679, 1506.7855446863
7297, 390.94281576463, 2278.7748001046, 1569.5445087037
7298, 327.37899409029, 2160.9877308608, 1584.0231198529
7299, 1617.3757875966, 5408.0515520724, 20.045241237086
7300, 1382.917036901, 1552.5099404963, 838.95573128088
7301, 1454.969327042, 1524.983520417, 706.66152248942
7302, -1611.1696254956, 5369.9746816448, 142.96393909045
7303, -1617.0659702087, 5440.3309661726, 37.468626781138
7304, -1373.8543440121, 5210.2503585296, -853.71569707903
7305, -936.41658233603, 4442.6089703734, 1318.8746090232
7306, -1020.7796868833, 4374.6708656769, 1254.7171318056
7307, -1216.3209554239, 4133.1425249129, 1066.2408655631
7308, -255.85669433427, 2917.0819142123, -1597.1360624456
7309, -476.83764291692, 2834.770028058, -1545.6170652194
7310, -135.82913038243, 3007.6866949846, -1611.7868026943
7311, 1470.1132012224, 5106.2263734945, 674.59130263567
7312, 1612.7631105653, 4582.4280179146, -123.69882456967
7313, 1616.6275454432, 1806.2609519759, -53.119010856905
7314, 1570.498183187, 5028.6658355132, -387.09392478597
7315, 1551.6920346606, 4941.9117527787, -456.68159539302
7316, 1617.2589939036, 1945.293330428, -27.921257811606
7317, -1596.871613665, 1222.6749134312, 257.50203779977
7318, 1577.0350192625, 4864.2009763516, -359.53692163647
7319, 1593.7547974725, 4999.0757373716, -276.13745767876
7320, 451.5395720564, 2094.5971895104, 1553.1961450078
7321, -114.6993369872, 4926.1293136701, 1613.4281242419
7322, -1464.6500058254, 5125.4297941264, -686.37206414278
7323, -1554.3263557734, 2879.8165019805, 447.63358871753
7324, -1495.212540997, 2911.4247564622, 616.96491573297
7325, -1615.087265658, 3125.643099185, -88.314066316132
7326, -1614.3523106698, 3247.7977448431, 100.86063174008
7327, -1617.472190772, 2772.0005799926, 9.4848341716387
7328, -1609.6926321827, 2810.607399548, -158.73210102755
7329, -1612.7618086347, 2969.096586063, -123.71579773483
7330, -1121.2713033316, 2934.9478558171, 1165.7859641997
7331, -1058.95720609, 2799.7955602121, 1222.6675286725
7332, -527.05770353593, 2434.6476173497, 1529.2208562348
7333, 1554.8594544984, 4754.7188694445, -445.77833814239
7334, -1501.2488578975, 5627.6606470882, -602.12799026572
7335, -1206.8673256712, 1591.5212313474, 1076.9296672612
7336, -945.60172012118, 2165.2015953491, 1312.3047042908
7337, -851.36025502624, 2117.9149392365, 1375.3152242892
7338, -893.10650308992, 1974.3763279805, 1348.5796321087
7339, -514.10179935943, 2248.4303000992, 1533.6249834609
7340, -1509.1728821777, 5847.0717153323, -581.98235514438
7341, -1498.4356738142, 2935.6773490972, -609.09505123673
7342, -1194.0052354337, 1736.6277761997, 1091.1726480062
7343, -1610.3304203414, -1054.25, -152.12556433091
7344, -1610.3304203414, -1054.25, 152.12556433091
7345, -1549.3775246339, -1071.4996383102, -464.47339661093
7346, -1487.1978948842, -1074.2460955082, -636.04140702639
7347, -1387.227600026, -1074.9194269743, -831.80877353283
7348, -1292.8249664332, -1074.9874406093, -972.06473867066
7349, -1544.7327657972, -1071.5235137939, 479.69462397693
7350, -1604.7514853993, -960.875, -202.67935294143
7351, -1615.706610883, -1064.625, -76.147209724779
7352, -1604.7514853993, -1168.375, -202.67935294143
7353, -1615.706610883, -1064.625, 76.14720972478
7354, -1604.7514853993, -960.875, 202.67935294143
7355, -1604.7514853993, -1168.375, 202.67935294143
7356, -1415.0549583888, -971.20971348714, -783.53411842705
7357, -1415.0549583888, -1178.7097134871, -783.53411842705
7358, -1465.0249730179, -1178.3730477541, -685.57135181821
7359, -1465.0249730179, -970.87304775411, -685.57135181821
7360, -1541.5662322119, -1177.011756897, 489.77525632078
7361, -1443.585388179, -1178.5017700195, 729.63516707742
7362, -1500.3616064554, -1073.0135269165, 604.33542000655
7363, -1443.585388179, -971.00177001953, 729.63516707742
7364, -1541.5662322119, -969.51175689697, 489.77525632078
7365, -1311.5032157174, -1178.7297363281, 946.71303210784
7366, -1384.4680189711, -1074.7315063477, 836.3937795358
7367, -1311.5032157174, -971.22973632812, 946.71303210784
7368, -1147.2753133052, -1178.75, 1140.2041946426
7369, -1236.4117020455, -1074.9797363281, 1042.8769596865
7370, -1147.2753133052, -971.25, 1140.2041946426
7371, -954.78321717859, -1178.75, 1305.6397888369
7372, -1058.0662202201, -1075, 1223.438647268
7373, -954.78321717859, -971.25, 1305.6397888369
7374, -738.78118950127, -1178.75, 1438.92619826
7375, -853.65169899409, -1075, 1373.8941104774
7376, -738.78118950127, -971.25, 1438.92619826
7377, -504.58791706423, -1178.75, 1536.7814691597
7378, -628.21743983123, -1075, 1490.5197409937
7379, -504.58791706423, -971.25, 1536.7814691597
7380, -257.97001547778, -1178.75, 1596.7960800035
7381, -387.31438236559, -1075, 1570.4438287353
7382, -257.97001547778, -971.25, 1596.7960800035
7383, -5.000035956875, -1178.75, 1617.4922718951
7384, -136.87435938336, -1075, 1611.6983774092
7385, -5.0000359568737, -971.25, 1617.4922718951
7386, 248.09306104346, -1178.75, 1598.3604359036
7387, 116.93596458684, -1075, 1613.267563111
7388, 248.09306104346, -971.25, 1598.3604359036
7389, 495.07728350724, -1178.75, 1539.8716613261
7390, 367.8669370207, -1075, 1575.112747281
7391, 495.07728350724, -971.25, 1539.8716613261
7392, 729.87106018377, -1178.75, 1443.4661359056
7393, 946.6929890554, -1178.75, 1311.5176836297
7394, 836.59885454951, -1075, 1384.3441069931
7395, 946.6929890554, -971.25, 1311.5176836297
7396, 729.87106018377, -971.25, 1443.4661359056
7397, 609.73980458474, -1075, 1498.1734281134
7398, 1223.438647268, -1075, 1058.0662202202
7399, 1305.6397888369, -971.25, 954.7832171786
7400, 1140.2041946426, -971.25, 1147.2753133052
7401, 1140.2041946426, -1178.75, 1147.2753133052
7402, 1305.6397888369, -1178.75, 954.7832171786
7403, 1042.8580642029, -1075, 1236.4276395839
7404, 1490.5197409937, -1075, 628.21743983124
7405, 1536.7814691597, -971.25, 504.58791706423
7406, 1438.92619826, -971.25, 738.78118950127
7407, 1438.92619826, -1178.75, 738.78118950128
7408, 1536.7814691597, -1178.75, 504.58791706423
7409, 1373.8941104774, -1075, 853.65169899409
7410, 1570.4438287353, -1075, 387.31438236559
7411, 1596.7960800035, -971.25, 257.97001547779
7412, 1596.7960800035, -1178.75, 257.97001547779
7413, 1617.4922718951, -1178.75, 5.0000359568792
7414, 1611.6983774092, -1075, 136.87435938336
7415, 1617.4922718951, -971.25, 5.0000359568807
7416, 1598.3604359037, -1178.75, -248.09306104345
7417, 1613.267563111, -1075, -116.93596458683
7418, 1598.3604359037, -971.25, -248.09306104345
7419, 1539.8716613261, -1178.75, -495.07728350722
7420, 1575.112747281, -1075, -367.86693702068
7421, 1539.8716613261, -971.25, -495.07728350722
7422, 1443.4661359057, -1178.75, -729.87106018366
7423, 1498.1734281134, -1075, -609.73980458461
7424, 1443.4661359057, -971.25, -729.87106018366
7425, 1311.5176836302, -1178.75, -946.69298905473
7426, 1384.3441069936, -1075, -836.5988545487
7427, 1311.5176836302, -971.25, -946.69298905473
7428, 1147.2753133093, -1178.75, -1140.2041946384
7429, 1236.4276395883, -1075, -1042.8580641977
7430, 1147.2753133093, -971.25, -1140.2041946384
7431, 954.78321721262, -1178.75, -1305.639788812
7432, 1058.0662202565, -1075, -1223.4386472366
7433, 954.78321721263, -971.24999999998, -1305.639788812
7434, 738.78118976705, -1178.7499999998, -1438.9261981236
7435, 853.65169928366, -1074.9999999998, -1373.8941102975
7436, 738.78118976705, -971.24999999982, -1438.9261981236
7437, 504.58791906121, -1178.7499999987, -1536.7814685041
7438, 257.9700299542, -1178.7499999907, -1596.7960776647
7439, 387.31439864381, -1074.9999999894, -1570.4438247206
7440, 257.97002995421, -971.24999999073, -1596.7960776647
7441, 504.58791906121, -971.24999999869, -1536.7814685041
7442, 628.2174420434, -1074.9999999985, -1490.5197400613
7443, -116.93517243421, -1074.9999994807, -1613.2676205291
7444, -248.09237635492, -971.24999954584, -1598.3605421789
7445, 5.0001372999315, -971.24999993485, -1617.4922715818
7446, 5.000137299927, -1178.7499999348, -1617.4922715818
7447, -248.09237635493, -1178.7499995458, -1598.3605421789
7448, 136.87447497492, -1074.9999999256, -1611.6983675925
7449, -367.86170555079, -1074.9999964101, -1575.1139690795
7450, -495.07282871824, -971.2499968643, -1539.8730935583
7451, -495.07282871825, -1178.7499968643, -1539.8730935583
7452, -609.70661066415, -1074.9999754493, -1498.1869372386
7453, -729.84325427056, -971.24997858497, -1443.4801952904
7454, -729.84325427057, -1178.749978585, -1443.4801952904
7455, -836.39748344957, -1074.9998341469, -1384.465781332
7456, -946.52747639354, -971.24985556193, -1311.6371397731
7457, -946.52747639354, -1178.7498555619, -1311.6371397731
7458, -1041.6984543453, -1074.9988952574, -1237.404776221
7459, -1139.2730269087, -971.24903969547, -1148.1999913597
7460, -1139.2730269087, -1178.7490396955, -1148.1999913597
7461, -1300.7486675725, -1178.7437203047, -961.43598528882
7462, -1217.1574705785, -1074.9927600001, -1065.2858498145
7463, -1300.7486675725, -971.24372030466, -961.43598528882
7464, -1341.8600425101, -1074.9534337918, -903.17101166648
7465, -1587.5543664604, -1062.8748191551, -309.80216837915
7466, -1543.9569599962, -1176.9998191551, -482.18581032539
7467, -1543.9569599962, -969.49981915509, -482.18581032539
7468, -1520.7091980898, -1072.8728669092, -551.13499693376
7469, -1586.0111283787, -1062.886756897, 317.60817158688
7470, 1601.9279221774, 3386.1789810732, -113.22756950194
7471, 1601.9279221774, 3386.1789810732, 113.22756950194
7472, 1600, 3055, 350
7473, 1600, 3163.1559480312, 332.8697807033
7474, 1600, 2722.1302192967, -108.15594803123
7475, 1600, 2722.1302192967, 108.15594803123
7476, 1600, 2705, 4.8270891266777e-13
7477, 1600, 2946.8440519688, 332.8697807033
7478, 1600.9639610887, 3400.2626850498, 57.390576858837
7479, 1550.9639610887, 3365.6296628838, 161.27371929945
7480, 1600.9639610887, 3400.2626850498, -57.390576858835
7481, 1650.9639610887, 3365.6296628838, -161.27371929945
7482, 1550.9639610887, 3365.6296628838, -161.27371929945
7483, 1650.9639610887, 3365.6296628838, 161.27371929945
7484, 1600, 3055, -350
7485, -1610.5149443271, 31.725212271018, 92.656030089134
7486, -1589.4850556729, 31.725212271018, -92.656030089134
7487, -1600, -589.88024572872, 126.28553268048
7488, -1564.7425278365, -1.1113980819308, -168.24762019418
7489, -1624.7425278365, -1.1113980819303, -168.24762019418
7490, -1600, -589.88024572872, -126.28553268048
7491, -1600, -285, -330
7492, -1635.2574721635, -1.1113980819306, 168.24762019418
7493, -1575.2574721635, -1.1113980819303, 168.24762019418
7494, -1600, -285, 330
7495, -1600, -615, 1.115109232209e-12
7496, -1605.2574721636, 41.664445608514, 46.801068099799
7497, -1594.7425278365, 41.664445608514, -46.801068099799
7498, 852.79573331751, -1282.5, 1266.4724752001
7499, 852.79573331751, -1282.5, -1266.4724752001
7500, -1515.0465922975, -1282.5, 189.673184271
7501, -1515.0465922975, -1282.5, -189.673184271
7502, 514.2710364702, -1282.5, -1437.662823528
7503, 514.2710364702, -1282.5, 1437.662823528
7504, 507.05301243584, -1282.5, 1487.9983693177
7505, 624.30033489946, -1282.5, 1439.4329382013
7506, 624.30033489946, -1282.5, -1439.4329382013
7507, 507.05301243584, -1282.5, -1487.9983693177
7508, -1566.2732961487, -1282.5, 94.836592135498
7509, -1556.3162416051, -1282.5, 221.35296573678
7510, -1556.3162416051, -1282.5, -221.35296573678
7511, -1566.2732961487, -1282.5, -94.836592135498
7512, 901.76918945029, -1282.5, -1287.5287318008
7513, 793.56268332311, -1282.5, -1353.8377640374
7514, 793.56268332312, -1282.5, 1353.8377640374
7515, 901.7691894503, -1282.5, 1287.5287318008
7516, -897.21556825701, -1282.5, -1212.9045532969
7517, -1089.1788513391, -1282.5, -1043.4595598372
7518, -1089.1788513391, -1282.5, 1043.4595598372
7519, -897.21556825701, -1282.5, 1212.9045532969
7520, 1486.8741152351, -1282.5, -255.14103607289
7521, 1421.8975181368, -1282.5, -502.78666053175
7522, 1421.8975181368, -1282.5, 502.78666053174
7523, 1486.8741152351, -1282.5, 255.14103607288
7524, -441.48158725119, -1282.5, 1442.4449077747
7525, -191.10422522559, -1282.5, 1495.8068688628
7526, -191.1042252256, -1282.5, -1495.8068688628
7527, -441.48158725119, -1282.5, -1442.4449077747
7528, 1171.5987362552, -1282.5, 946.95827334413
7529, 993.71685475011, -1282.5, 1130.4846683808
7530, 993.7168547501, -1282.5, -1130.4846683808
7531, 1171.5987362552, -1282.5, -946.95827334413
7532, -1249.4444892115, -1282.5, -843.87383680569
7533, -1249.4444892115, -1282.5, 843.87383680569
7534, 1315.7535214481, -1282.5, -735.66733067851
7535, 1315.7535214481, -1282.5, 735.66733067851
7536, -1373.3320870204, -1282.5, 620.03398299537
7537, -1457.2481273324, -1282.5, 378.54215667234
7538, -1457.2481273324, -1282.5, -378.54215667234
7539, -1373.3320870204, -1282.5, -620.03398299536
7540, 64.587851624314, -1282.5, -1505.7639234065
7541, 318.08046665175, -1282.5, -1472.0708956773
7542, 318.08046665175, -1282.5, 1472.0708956773
7543, 64.587851624318, -1282.5, 1505.7639234065
7544, 448.69961128556, -1282.5, 1392.109361985
7545, 448.69961128556, -1282.5, -1392.109361985
7546, -1445.6044659275, -1282.5, 223.4612546071
7547, -1445.6044659275, -1282.5, -223.4612546071
7548, 848.24211212424, -1282.5, -1191.8482966962
7549, 848.24211212424, -1282.5, 1191.8482966962
7550, 679.18166570794, -1282.5, 1347.2158303859
7551, 679.18166570794, -1282.5, -1347.2158303859
7552, -1508.75, -1282.5, -3.0776988086535e-13
7553, -679.18166570793, -1282.5, -1347.2158303859
7554, -679.18166570793, -1282.5, 1347.2158303859
7555, 1508.75, -1282.5, -1.4746978275251e-12
7556, 275, 5585, 1546.9757289278
7557, 275, 5585, 1646.9757289278
7558, -3.3911022700449e-05, 5085, 1558.7500002807
7559, 194.45523869805, 5165.5465090494, 1552.8843426653
7560, -194.45524679833, 5165.5465171497, 1552.8843416017
7561, -194.45524679833, 5165.5465171497, 1652.8843416017
7562, -3.3911022700449e-05, 5085, 1658.7500002807
7563, 194.45523869805, 5165.5465090494, 1652.8843426653
7564, -275, 5585, 1546.9757289278
7565, -275, 5585, 1646.9757289278
7566, 3.3911026223002e-05, 6085, 1558.7500002807
7567, -194.45523869805, 6004.4534909506, 1552.8843426653
7568, 194.45524679833, 6004.4534828503, 1552.8843416017
7569, 194.45524679833, 6004.4534828503, 1652.8843416017
7570, 3.3911026223002e-05, 6085, 1658.7500002807
7571, -194.45523869805, 6004.4534909506, 1652.8843426653
7572, -194.45523869805, -234.45349095062, 1652.8843426653
7573, 3.3911021555257e-05, -315, 1658.7500002807
7574, 194.45524679833, -234.45348285027, 1652.8843416017
7575, 3.3911021555257e-05, -315, 1558.7500002807
7576, -194.45523869805, -234.45349095062, 1552.8843426653
7577, 194.45524679833, -234.45348285027, 1552.8843416017
7578, 275, 185, 1546.9757289278
7579, 275, 185, 1646.9757289278
7580, 194.45523869805, 604.45349095062, 1652.8843426653
7581, -3.3911023633778e-05, 685, 1658.7500002807
7582, -194.45524679833, 604.45348285027, 1652.8843416017
7583, -3.3911023633778e-05, 685, 1558.7500002807
7584, 194.45523869805, 604.45349095062, 1552.8843426653
7585, -194.45524679833, 604.45348285027, 1552.8843416017
7586, -275, 185, 1546.9757289278
7587, -275, 185, 1646.9757289278
******* E L E M E N T S *************
*ELEMENT, type=S8, ELSET=Surface1
99, 2, 3, 4, 1, 197, 198, 199, 196
*ELEMENT, type=S8, ELSET=Surface2
100, 1085, 1086, 1088, 1087, 1393, 1394, 1395, 1396
101, 1120, 1121, 1079, 1078, 1397, 1398, 1399, 1400
102, 1141, 1142, 496, 495, 1401, 1402, 503, 1403
103, 1146, 1147, 500, 501, 1404, 1405, 508, 1406
104, 1149, 1150, 1173, 1148, 1407, 1408, 1409, 1410
105, 1173, 1181, 1182, 1148, 1411, 1412, 1413, 1409
106, 1144, 1145, 1229, 1143, 1414, 1415, 1416, 1417
107, 1217, 1086, 1232, 1216, 1418, 1419, 1420, 1421
108, 1162, 1083, 1242, 1161, 1422, 1423, 1424, 1425
109, 1163, 1164, 1245, 1161, 1426, 1427, 1428, 1429
110, 1130, 1135, 1245, 1164, 1430, 1431, 1427, 1432
111, 1220, 1246, 469, 470, 1433, 1434, 489, 1435
112, 1122, 1129, 1135, 1130, 1436, 1437, 1430, 1438
113, 1112, 1120, 1129, 1122, 1439, 1440, 1436, 1441
114, 1109, 1111, 1120, 1112, 1442, 1443, 1439, 1444
115, 1098, 1096, 1089, 1097, 1445, 1446, 1447, 1448
116, 1065, 1063, 1248, 1064, 1449, 1450, 1451, 1452
117, 1068, 1067, 1063, 1065, 1453, 1454, 1449, 1455
118, 1072, 1070, 1253, 1071, 1456, 1457, 1458, 1459
119, 1072, 1075, 1100, 1074, 1460, 1461, 1462, 1463
120, 1075, 1101, 1103, 1100, 1464, 1465, 1466, 1461
121, 1101, 1104, 1106, 1103, 1467, 1468, 1469, 1465
122, 1104, 1107, 1114, 1106, 1470, 1471, 1472, 1468
123, 1107, 1115, 1117, 1114, 1473, 1474, 1475, 1471
124, 1115, 1118, 1124, 1117, 1476, 1477, 1478, 1474
125, 1127, 1126, 1124, 1118, 1479, 1480, 1477, 1481
126, 1133, 1132, 1126, 1127, 1482, 1483, 1479, 1484
127, 1139, 1137, 1257, 1138, 1485, 1486, 1487, 1488
128, 1159, 1158, 1137, 1139, 1489, 1490, 1485, 1491
129, 1159, 1261, 1095, 1158, 1492, 1493, 1494, 1489
130, 1214, 1088, 1222, 1211, 1495, 1496, 1497, 1498
131, 1169, 1170, 1265, 1168, 1499, 1500, 1501, 1502
132, 1175, 1143, 1229, 1174, 1503, 1416, 1504, 1505
133, 1292, 1291, 1294, 1270, 1506, 1507, 1508, 1509
134, 1296, 1287, 422, 423, 1510, 1511, 442, 1512
135, 1272, 1268, 1269, 1273, 1513, 1514, 1515, 1516
136, 1161, 1242, 1243, 1163, 1424, 1517, 1518, 1429
137, 1268, 1093, 1267, 1269, 1519, 1520, 1521, 1514
138, 1160, 1299, 543, 544, 1522, 1523, 583, 1524
139, 1275, 1272, 1273, 1276, 1525, 1516, 1526, 1527
140, 1227, 1275, 1276, 1278, 1528, 1527, 1529, 1530
141, 1216, 1237, 1239, 1236, 1531, 1532, 1533, 1534
142, 1189, 1227, 1278, 1282, 1535, 1530, 1536, 1537
143, 1178, 1189, 1282, 1283, 1538, 1537, 1539, 1540
144, 1209, 1178, 1283, 1284, 1541, 1540, 1542, 1543
145, 1086, 1231, 1233, 1232, 1544, 1545, 1546, 1419
146, 1224, 1209, 1284, 1285, 1547, 1543, 1548, 1549
147, 1240, 1224, 1285, 1288, 1550, 1549, 1551, 1552
148, 1158, 1095, 1308, 1301, 1494, 1553, 1554, 1555
149, 1250, 1240, 1288, 1290, 1556, 1552, 1557, 1558
150, 1245, 1312, 1162, 1161, 1559, 1560, 1425, 1428
151, 1254, 1250, 1290, 1293, 1561, 1558, 1562, 1563
152, 1259, 1254, 1293, 1295, 1564, 1563, 1565, 1566
153, 1271, 1259, 1295, 1297, 1567, 1566, 1568, 1569
154, 1218, 1214, 1215, 1219, 1570, 1571, 1572, 1573
155, 1214, 1211, 1212, 1215, 1498, 1574, 1575, 1571
156, 1208, 1281, 1212, 1207, 1576, 1577, 1578, 1579
157, 1207, 1204, 1205, 1208, 1580, 1581, 1582, 1579
158, 1204, 1082, 1325, 1205, 1583, 1584, 1585, 1581
159, 1198, 1202, 1327, 1201, 1586, 1587, 1588, 1589
160, 1077, 1199, 1202, 1198, 1590, 1591, 1586, 1592
161, 1232, 1235, 1237, 1216, 1593, 1594, 1531, 1420
162, 1077, 1333, 1334, 1199, 1595, 1596, 1597, 1590
163, 1194, 1197, 1333, 1196, 1598, 1599, 1600, 1601
164, 1083, 1162, 1323, 1084, 1422, 1602, 1603, 1604
165, 1194, 1121, 1091, 1090, 1605, 1606, 1607, 1608
166, 1191, 1195, 1197, 1194, 1609, 1610, 1598, 1611
167, 1187, 1192, 1195, 1191, 1612, 1613, 1609, 1614
168, 1184, 1185, 1188, 1183, 1615, 1616, 1617, 1618
169, 1341, 1171, 1152, 1340, 1619, 1620, 1621, 1622
170, 1297, 1295, 1314, 1315, 1568, 1623, 1624, 1625
171, 1295, 1293, 1313, 1314, 1565, 1626, 1627, 1623
172, 1293, 1290, 1311, 1313, 1562, 1628, 1629, 1626
173, 1290, 1288, 1307, 1311, 1557, 1630, 1631, 1628
174, 1288, 1285, 1306, 1307, 1551, 1632, 1633, 1630
175, 1285, 1284, 1305, 1306, 1548, 1634, 1635, 1632
176, 1284, 1283, 1304, 1305, 1542, 1636, 1637, 1634
177, 1283, 1282, 1303, 1304, 1539, 1638, 1639, 1636
178, 1282, 1278, 1300, 1303, 1536, 1640, 1641, 1638
179, 1278, 1276, 1296, 1300, 1529, 1642, 1643, 1640
180, 1276, 1273, 1287, 1296, 1526, 1644, 1510, 1642
181, 1273, 1269, 1286, 1287, 1515, 1645, 1646, 1644
182, 1346, 1179, 1156, 1345, 1647, 1648, 1649, 1650
183, 1269, 1267, 1266, 1286, 1521, 1651, 1652, 1645
184, 1297, 1316, 1347, 1271, 1653, 1654, 1655, 1569
185, 1309, 1310, 1133, 1134, 1656, 1657, 1658, 1659
186, 1133, 1127, 1128, 1134, 1484, 1660, 1661, 1658
187, 1127, 1118, 1125, 1128, 1481, 1662, 1663, 1660
188, 1115, 1119, 1125, 1118, 1664, 1665, 1662, 1476
189, 1107, 1116, 1119, 1115, 1666, 1667, 1664, 1473
190, 1068, 1349, 1071, 1253, 1668, 1669, 1458, 1670
191, 1104, 1108, 1116, 1107, 1671, 1672, 1666, 1470
192, 1101, 1105, 1108, 1104, 1673, 1674, 1671, 1467
193, 1075, 1102, 1105, 1101, 1675, 1676, 1673, 1464
194, 1072, 1076, 1102, 1075, 1677, 1678, 1675, 1460
195, 1071, 1073, 1076, 1072, 1679, 1680, 1677, 1459
196, 1348, 1349, 1068, 1069, 1681, 1668, 1682, 1683
197, 1068, 1065, 1066, 1069, 1455, 1684, 1685, 1682
198, 1065, 1064, 1352, 1066, 1452, 1686, 1687, 1684
199, 1098, 1099, 527, 1352, 1688, 1689, 1690, 1691
200, 1098, 1097, 1110, 1099, 1448, 1692, 1693, 1688
201, 1097, 1109, 1113, 1110, 1694, 1695, 1696, 1692
202, 1109, 1112, 1123, 1113, 1444, 1697, 1698, 1695
203, 1112, 1122, 1131, 1123, 1441, 1699, 1700, 1697
204, 1122, 1130, 1136, 1131, 1438, 1701, 1702, 1699
205, 1130, 1164, 1336, 1136, 1432, 1703, 1704, 1701
206, 1068, 1253, 1351, 1067, 1670, 1705, 1706, 1453
207, 1163, 1165, 1336, 1164, 1707, 1708, 1703, 1426
208, 1243, 1298, 1165, 1163, 1709, 1710, 1707, 1518
209, 1237, 1302, 1353, 1239, 1711, 1712, 1713, 1532
210, 1133, 1310, 1138, 1257, 1657, 1714, 1487, 1715
211, 1234, 1235, 1232, 1233, 1716, 1593, 1546, 1717
212, 1280, 1281, 1208, 1279, 1718, 1576, 1719, 1720
213, 1329, 1229, 1145, 1230, 1721, 1415, 1722, 1723
214, 1169, 1182, 1181, 1170, 1724, 1412, 1725, 1499
215, 1208, 1205, 1326, 1279, 1582, 1726, 1727, 1719
216, 1205, 1325, 1330, 1326, 1585, 1728, 1729, 1726
217, 1325, 1327, 1331, 1330, 1730, 1731, 1732, 1728
218, 1202, 1199, 1334, 1332, 1591, 1597, 1733, 1734
219, 1197, 1335, 1334, 1333, 1735, 1736, 1596, 1599
220, 1195, 1337, 1335, 1197, 1737, 1738, 1735, 1610
221, 1192, 1338, 1337, 1195, 1739, 1740, 1737, 1613
222, 1185, 1339, 1362, 1188, 1741, 1742, 1743, 1616
223, 1097, 1089, 1111, 1109, 1447, 1744, 1442, 1694
224, 1090, 1091, 1111, 1089, 1607, 1745, 1744, 1746
225, 1325, 1082, 1084, 1324, 1584, 1747, 1748, 1749
226, 1325, 1324, 1201, 1327, 1749, 1750, 1588, 1730
227, 1084, 1323, 1201, 1324, 1603, 1751, 1750, 1748
228, 1333, 1077, 1079, 1196, 1595, 1752, 1753, 1600
229, 1360, 1361, 1174, 1085, 1754, 1755, 1756, 1757
230, 1366, 1367, 1179, 1346, 1758, 1759, 1647, 1760
231, 1183, 1188, 1192, 1187, 1617, 1761, 1612, 1762
232, 1338, 1192, 1188, 1362, 1739, 1761, 1743, 1763
233, 1171, 1341, 1376, 1342, 1619, 1764, 1765, 1766
234, 1217, 1222, 1088, 1086, 1767, 1496, 1394, 1418
235, 1319, 1377, 1292, 1347, 1768, 1769, 1770, 1771
236, 1082, 1204, 1166, 1206, 1583, 1772, 1773, 1774
237, 1126, 1132, 1378, 1228, 1483, 1775, 1776, 1777
238, 1379, 1380, 1171, 1342, 1778, 1779, 1766, 1780
239, 1245, 1135, 1203, 1312, 1431, 1781, 1782, 1559
240, 1381, 1382, 1179, 1367, 1783, 1784, 1759, 1785
241, 1363, 1151, 1152, 1172, 1786, 1787, 1788, 1789
242, 1084, 1082, 1206, 1083, 1747, 1774, 1790, 1604
243, 1077, 1198, 1203, 1200, 1592, 1791, 1792, 1793
244, 1129, 1200, 1203, 1135, 1794, 1792, 1781, 1437
245, 1120, 1078, 1200, 1129, 1400, 1795, 1794, 1440
246, 1079, 1077, 1200, 1078, 1752, 1793, 1795, 1399
247, 1194, 1090, 1247, 1191, 1608, 1796, 1797, 1611
248, 1096, 1247, 1090, 1089, 1798, 1796, 1746, 1446
249, 1165, 520, 521, 1336, 1799, 560, 1800, 1708
250, 1094, 1093, 1308, 1095, 1801, 1802, 1553, 1803
251, 1339, 1185, 1319, 1318, 1741, 1804, 1805, 1806
252, 1327, 1202, 1332, 1331, 1587, 1734, 1807, 1731
253, 1124, 1126, 1228, 1193, 1480, 1777, 1808, 1809
254, 1344, 1183, 1187, 1343, 1810, 1762, 1811, 1812
255, 1117, 1124, 1193, 1186, 1478, 1809, 1813, 1814
256, 1114, 1117, 1186, 1213, 1475, 1814, 1815, 1816
257, 1103, 1106, 1225, 1244, 1469, 1817, 1818, 1819
258, 1207, 1081, 1166, 1204, 1820, 1821, 1772, 1580
259, 1106, 1114, 1213, 1225, 1472, 1816, 1822, 1817
260, 1100, 1103, 1244, 1251, 1466, 1819, 1823, 1824
261, 1133, 1257, 1378, 1132, 1715, 1825, 1775, 1482
262, 1074, 1100, 1251, 1256, 1462, 1824, 1826, 1827
263, 1343, 1187, 1191, 1247, 1811, 1614, 1797, 1828
264, 1248, 1098, 1352, 1064, 1829, 1691, 1686, 1451
265, 1067, 1294, 1291, 1354, 1830, 1507, 1831, 1832
266, 1236, 1239, 1243, 1238, 1533, 1833, 1834, 1835
267, 1298, 1243, 1239, 1353, 1709, 1833, 1713, 1836
268, 1093, 1268, 1322, 1308, 1519, 1837, 1838, 1802
269, 1277, 1322, 1268, 1272, 1839, 1837, 1513, 1840
270, 1369, 1264, 1372, 1368, 1841, 1842, 1843, 1844
271, 1379, 1360, 1328, 1380, 1845, 1846, 1847, 1778
272, 1365, 1167, 1375, 1364, 1848, 1849, 1850, 1851
273, 1370, 1383, 1341, 1340, 1852, 1853, 1622, 1854
274, 495, 496, 1341, 1383, 503, 1855, 1853, 1856
275, 1373, 1384, 1346, 1345, 1857, 1858, 1650, 1859
276, 1376, 1341, 496, 497, 1764, 1855, 504, 1860
277, 1147, 1264, 499, 500, 1861, 1862, 507, 1405
278, 501, 500, 1346, 1384, 508, 1863, 1858, 1864
279, 1366, 1346, 500, 499, 1760, 1863, 507, 1865
280, 471, 472, 1151, 1363, 491, 1866, 1786, 1867
281, 1142, 1167, 497, 496, 1868, 1869, 504, 1402
282, 1340, 1152, 1151, 1370, 1621, 1787, 1870, 1854
283, 472, 473, 1370, 1151, 492, 1871, 1870, 1866
284, 1143, 1153, 1371, 1144, 1872, 1873, 1874, 1417
285, 1146, 1371, 1153, 1147, 1875, 1873, 1876, 1404
286, 512, 1144, 1371, 511, 1877, 1874, 1878, 551
287, 1345, 1156, 1155, 1373, 1649, 1879, 1880, 1859
288, 546, 547, 1373, 1155, 586, 1881, 1880, 1882
289, 1148, 1157, 1374, 1149, 1883, 1884, 1885, 1410
290, 1141, 1374, 1157, 1142, 1886, 1884, 1887, 1401
291, 1155, 1156, 1179, 1154, 1879, 1648, 1888, 1889
292, 419, 1149, 1374, 418, 1890, 1885, 1891, 438
293, 1143, 1175, 1372, 1153, 1503, 1892, 1893, 1872
294, 1264, 1147, 1153, 1372, 1861, 1876, 1893, 1842
295, 1315, 1289, 1316, 1297, 1894, 1895, 1653, 1625
296, 1148, 1182, 1375, 1157, 1413, 1896, 1897, 1883
297, 1167, 1142, 1157, 1375, 1868, 1887, 1897, 1849
298, 474, 154, 495, 1383, 494, 502, 1856, 1898
299, 501, 156, 510, 1146, 509, 549, 1899, 1406
300, 548, 156, 501, 1384, 588, 509, 1864, 1900
301, 495, 154, 417, 1141, 502, 436, 1901, 1403
302, 1383, 1370, 473, 474, 1852, 1871, 493, 1898
303, 1152, 1171, 1380, 1172, 1620, 1779, 1902, 1788
304, 1378, 1277, 1226, 1228, 1903, 1904, 1905, 1776
305, 1168, 1357, 1180, 1382, 1906, 1907, 1908, 1909
306, 1154, 1179, 1382, 1180, 1888, 1784, 1908, 1910
307, 1190, 1226, 1275, 1227, 1911, 1912, 1528, 1913
308, 1356, 1155, 1154, 1359, 1914, 1889, 1915, 1916
309, 1272, 1275, 1226, 1277, 1525, 1912, 1904, 1840
310, 1190, 1177, 1186, 1193, 1917, 1918, 1813, 1919
311, 1144, 512, 513, 1145, 1877, 552, 1920, 1414
312, 1176, 1177, 1189, 1178, 1921, 1922, 1538, 1923
313, 1149, 419, 420, 1150, 1890, 439, 1924, 1407
314, 1176, 1210, 1225, 1213, 1925, 1926, 1822, 1927
315, 1223, 1210, 1209, 1224, 1928, 1929, 1547, 1930
316, 1223, 1241, 1251, 1244, 1931, 1932, 1823, 1933
317, 1361, 1360, 1379, 1385, 1754, 1845, 1934, 1935
318, 1249, 1241, 1240, 1250, 1936, 1937, 1556, 1938
319, 1146, 510, 511, 1371, 1899, 550, 1878, 1875
320, 1384, 1373, 547, 548, 1857, 1881, 587, 1900
321, 1141, 417, 418, 1374, 1901, 437, 1891, 1886
322, 1318, 1317, 435, 155, 1939, 1940, 455, 1941
323, 1339, 1318, 155, 456, 1806, 1941, 475, 1942
324, 1249, 1255, 1260, 1256, 1943, 1944, 1945, 1946
325, 1258, 1255, 1254, 1259, 1947, 1948, 1564, 1949
326, 1289, 1315, 433, 434, 1894, 1950, 453, 1951
327, 1315, 1314, 432, 433, 1624, 1952, 452, 1950
328, 1314, 1313, 431, 432, 1627, 1953, 451, 1952
329, 1313, 1311, 430, 431, 1629, 1954, 450, 1953
330, 1311, 1307, 429, 430, 1631, 1955, 449, 1954
331, 1255, 1258, 1274, 1260, 1947, 1956, 1957, 1944
332, 1307, 1306, 428, 429, 1633, 1958, 448, 1955
333, 1306, 1305, 427, 428, 1635, 1959, 447, 1958
334, 1305, 1304, 426, 427, 1637, 1960, 446, 1959
335, 1304, 1303, 425, 426, 1639, 1961, 445, 1960
336, 1303, 1300, 424, 425, 1641, 1962, 444, 1961
337, 1300, 1296, 423, 424, 1643, 1512, 443, 1962
338, 1270, 1258, 1259, 1271, 1963, 1949, 1567, 1964
339, 1287, 1286, 421, 422, 1646, 1965, 441, 1511
340, 1286, 1266, 420, 421, 1652, 1966, 440, 1965
341, 1081, 1080, 1252, 1166, 1967, 1968, 1969, 1821
342, 1263, 1252, 1236, 1238, 1970, 1971, 1835, 1972
343, 1357, 1094, 1095, 1261, 1973, 1803, 1493, 1974
344, 1226, 1190, 1193, 1228, 1911, 1919, 1808, 1905
345, 1309, 1134, 540, 541, 1659, 1975, 580, 1976
346, 1134, 1128, 539, 540, 1661, 1977, 579, 1975
347, 1128, 1125, 538, 539, 1663, 1978, 578, 1977
348, 1125, 1119, 537, 538, 1665, 1979, 577, 1978
349, 1119, 1116, 536, 537, 1667, 1980, 576, 1979
350, 1116, 1108, 535, 536, 1672, 1981, 575, 1980
351, 1108, 1105, 534, 535, 1674, 1982, 574, 1981
352, 1105, 1102, 533, 534, 1676, 1983, 573, 1982
353, 1102, 1076, 532, 533, 1678, 1984, 572, 1983
354, 1076, 1073, 531, 532, 1680, 1985, 571, 1984
355, 1177, 1190, 1227, 1189, 1917, 1913, 1535, 1922
356, 1348, 1069, 529, 530, 1683, 1986, 569, 1987
357, 1069, 1066, 528, 529, 1685, 1988, 568, 1986
358, 1066, 1352, 527, 528, 1687, 1690, 567, 1988
359, 1110, 526, 527, 1099, 1989, 566, 1689, 1693
360, 1113, 525, 526, 1110, 1990, 565, 1989, 1696
361, 1177, 1176, 1213, 1186, 1921, 1927, 1815, 1918
362, 1123, 524, 525, 1113, 1991, 564, 1990, 1698
363, 1120, 1111, 1091, 1121, 1443, 1745, 1606, 1397
364, 1131, 523, 524, 1123, 1992, 563, 1991, 1700
365, 1136, 522, 523, 1131, 1993, 562, 1992, 1702
366, 1336, 521, 522, 1136, 1800, 561, 1993, 1704
367, 1210, 1176, 1178, 1209, 1925, 1923, 1541, 1929
368, 1210, 1223, 1244, 1225, 1928, 1933, 1818, 1926
369, 1298, 519, 520, 1165, 1994, 559, 1799, 1710
370, 1353, 518, 519, 1298, 1995, 558, 1994, 1836
371, 1302, 517, 518, 1353, 1996, 557, 1995, 1712
372, 1241, 1223, 1224, 1240, 1931, 1930, 1550, 1937
373, 1230, 514, 515, 1233, 1997, 554, 1998, 1999
374, 1145, 513, 514, 1230, 1920, 553, 1997, 1722
375, 1241, 1249, 1256, 1251, 1936, 1946, 1826, 1932
376, 1255, 1249, 1250, 1254, 1943, 1938, 1561, 1948
377, 1351, 1350, 1260, 1274, 2000, 2001, 1957, 2002
378, 1072, 1074, 1350, 1070, 1463, 2003, 2004, 1456
379, 1214, 1218, 1087, 1088, 1570, 2005, 1395, 1495
380, 1256, 1260, 1350, 1074, 1945, 2001, 2003, 1827
381, 1280, 1279, 466, 467, 1720, 2006, 486, 2007
382, 1362, 1339, 456, 457, 1742, 1942, 476, 2008
383, 1279, 1326, 465, 466, 1727, 2009, 485, 2006
384, 1338, 1362, 457, 458, 1763, 2008, 477, 2010
385, 1337, 1338, 458, 459, 1740, 2010, 478, 2011
386, 1326, 1330, 464, 465, 1729, 2012, 484, 2009
387, 1194, 1196, 1079, 1121, 1601, 1753, 1398, 1605
388, 1335, 1337, 459, 460, 1738, 2011, 479, 2013
389, 1330, 1331, 463, 464, 1732, 2014, 483, 2012
390, 1334, 1335, 460, 461, 1736, 2013, 480, 2015
391, 1212, 1281, 1280, 1320, 1577, 1718, 2016, 2017
392, 1332, 1334, 461, 462, 1733, 2015, 481, 2018
393, 1198, 1201, 1323, 1203, 1589, 1751, 2019, 1791
394, 1331, 1332, 462, 463, 1807, 2018, 482, 2014
395, 545, 546, 1155, 1356, 585, 1882, 1914, 2020
396, 1320, 1280, 467, 468, 2016, 2007, 487, 2021
397, 1382, 1381, 1169, 1168, 1783, 2022, 1502, 1909
398, 1159, 1262, 1386, 1261, 2023, 2024, 2025, 1492
399, 1344, 1291, 1292, 1377, 2026, 1506, 1769, 2027
400, 1185, 1184, 1377, 1319, 1615, 2028, 1768, 1804
401, 1138, 1310, 1309, 1140, 1714, 1656, 2029, 2030
402, 1140, 1309, 541, 542, 2029, 1976, 581, 2031
403, 1087, 1218, 1387, 1328, 2005, 2032, 2033, 2034
404, 1071, 1349, 1348, 1073, 1669, 1681, 2035, 1679
405, 1180, 1357, 1261, 1386, 1907, 1974, 2025, 2036
406, 1073, 1348, 530, 531, 2035, 1987, 570, 1985
407, 1258, 1270, 1294, 1274, 1963, 1508, 2037, 1956
408, 1347, 1292, 1270, 1271, 1770, 1509, 1964, 1655
409, 1063, 1355, 1388, 1248, 2038, 2039, 2040, 1450
410, 1167, 1365, 498, 497, 1848, 2041, 505, 1869
411, 1380, 1328, 1387, 1172, 1847, 2033, 2042, 1902
412, 1364, 1389, 498, 1365, 2043, 2044, 2041, 1851
413, 1264, 1369, 498, 499, 1841, 2045, 506, 1862
414, 1081, 1211, 1222, 1080, 2046, 1497, 2047, 1967
415, 1368, 1390, 498, 1369, 2048, 2049, 2045, 1844
416, 1381, 1367, 1366, 1389, 1785, 1758, 2050, 2051
417, 1343, 1354, 1291, 1344, 2052, 1831, 2026, 1812
418, 499, 498, 1389, 1366, 506, 2044, 2050, 1865
419, 1379, 1342, 1376, 1390, 1780, 1765, 2053, 2054
420, 1377, 1184, 1183, 1344, 2028, 1618, 1810, 2027
421, 497, 498, 1390, 1376, 505, 2049, 2053, 1860
422, 517, 1302, 1234, 516, 1996, 2055, 2056, 556
423, 1237, 1235, 1234, 1302, 1594, 1716, 2055, 1711
424, 1093, 1094, 1265, 1092, 1801, 2057, 2058, 2059
425, 1233, 515, 516, 1234, 1998, 555, 2056, 1717
426, 1328, 1360, 1085, 1087, 1846, 1757, 1396, 2034
427, 1219, 1221, 1387, 1218, 2060, 2061, 2032, 1573
428, 1083, 1206, 1263, 1242, 1790, 2062, 2063, 1423
429, 434, 435, 1317, 1289, 454, 1940, 2064, 1951
430, 1289, 1317, 1347, 1316, 2064, 2065, 1654, 1895
431, 1321, 1301, 1308, 1322, 2066, 1554, 1838, 2067
432, 1363, 1172, 1387, 1221, 1789, 2042, 2061, 2068
433, 1318, 1319, 1347, 1317, 1805, 1771, 2065, 1939
434, 1321, 1137, 1158, 1301, 2069, 1490, 1555, 2066
435, 420, 1266, 1173, 1150, 1966, 2070, 1408, 1924
436, 1094, 1357, 1168, 1265, 1973, 1906, 1501, 2057
437, 1243, 1242, 1263, 1238, 1517, 2063, 1972, 1834
438, 1356, 1359, 1386, 1262, 1916, 2071, 2024, 2072
439, 1154, 1180, 1386, 1359, 1910, 2036, 2071, 1915
440, 1252, 1080, 1222, 1217, 1968, 2047, 1767, 2073
441, 1355, 1063, 1067, 1354, 2038, 1454, 1832, 2074
442, 1252, 1263, 1206, 1166, 1970, 2062, 1773, 1969
443, 1355, 1354, 1343, 1388, 2074, 2052, 2075, 2039
444, 1098, 1248, 1388, 1096, 1829, 2040, 2076, 1445
445, 1162, 1312, 1203, 1323, 1560, 1782, 2019, 1602
446, 1247, 1096, 1388, 1343, 1798, 2076, 2075, 1828
447, 1390, 1368, 1385, 1379, 2048, 2077, 1934, 2054
448, 1174, 1361, 1385, 1175, 1755, 1935, 2078, 1505
449, 1159, 1160, 1391, 1262, 2079, 2080, 2081, 2023
450, 1252, 1217, 1216, 1236, 2073, 1421, 1534, 1971
451, 545, 1391, 1160, 544, 2082, 2080, 1524, 584
452, 1219, 1220, 1392, 1221, 2083, 2084, 2085, 2060
453, 1067, 1351, 1274, 1294, 1706, 2002, 2037, 1830
454, 471, 1392, 1220, 470, 2086, 2084, 1435, 490
455, 1093, 1092, 1358, 1267, 2059, 2087, 2088, 1520
456, 1181, 1092, 1265, 1170, 2089, 2058, 1500, 1725
457, 1173, 1266, 1267, 1358, 2070, 1651, 2088, 2090
458, 1092, 1181, 1173, 1358, 2089, 1411, 2090, 2087
459, 1086, 1085, 1329, 1231, 1393, 2091, 2092, 1544
460, 1229, 1329, 1085, 1174, 1721, 2091, 1756, 1504
461, 542, 543, 1299, 1140, 582, 1523, 2093, 2031
462, 1159, 1139, 1299, 1160, 1491, 2094, 1522, 2079
463, 1138, 1140, 1299, 1139, 2030, 2093, 2094, 1488
464, 1350, 1351, 1253, 1070, 2000, 1705, 1457, 2004
465, 468, 469, 1246, 1320, 488, 1434, 2095, 2021
466, 1219, 1215, 1246, 1220, 1572, 2096, 1433, 2083
467, 1212, 1320, 1246, 1215, 2017, 2095, 2096, 1575
468, 1378, 1257, 1137, 1321, 1825, 1486, 2069, 2097
469, 1372, 1175, 1385, 1368, 1892, 2078, 2077, 1843
470, 1389, 1364, 1169, 1381, 2043, 2098, 2022, 2051
471, 1262, 1391, 545, 1356, 2081, 2082, 2020, 2072
472, 1233, 1231, 1329, 1230, 1545, 2092, 1723, 1999
473, 1212, 1211, 1081, 1207, 1574, 2046, 1820, 1578
474, 1221, 1392, 471, 1363, 2085, 2086, 1867, 2068
475, 1378, 1321, 1322, 1277, 2097, 2067, 1839, 1903
476, 1375, 1182, 1169, 1364, 1896, 1724, 2098, 1850
*ELEMENT, type=S8, ELSET=Surface3
477, 2101, 2100, 2102, 2099, 3814, 3815, 3816, 3817
478, 2109, 2108, 2110, 2107, 3818, 3819, 3820, 3821
479, 2114, 2115, 2116, 2386, 3822, 3823, 3824, 3825
480, 2130, 2129, 2131, 2128, 3826, 3827, 3828, 3829
481, 2132, 2134, 2135, 2133, 3830, 3831, 3832, 3833
482, 2141, 2140, 2142, 2139, 3834, 3835, 3836, 3837
483, 2143, 2145, 2148, 2144, 3838, 3839, 3840, 3841
484, 2149, 2151, 2155, 2150, 3842, 3843, 3844, 3845
485, 2164, 2166, 2167, 2165, 3846, 3847, 3848, 3849
486, 2245, 2163, 2172, 2162, 3850, 3851, 3852, 3853
487, 2193, 2195, 2196, 2194, 3854, 3855, 3856, 3857
488, 2188, 2198, 2199, 2197, 3858, 3859, 3860, 3861
489, 2190, 2189, 2200, 2188, 3862, 3863, 3864, 3865
490, 2191, 2192, 2155, 2184, 3866, 3867, 3868, 3869
491, 2173, 2201, 2205, 2175, 3870, 3871, 3872, 3873
492, 2182, 85, 81, 2183, 3874, 684, 3875, 3876
493, 592, 2147, 2194, 2146, 3877, 3878, 3879, 3880
494, 2237, 2236, 2238, 2235, 3881, 3882, 3883, 3884
495, 2246, 2198, 2248, 2247, 3885, 3886, 3887, 3888
496, 2249, 2251, 2252, 2250, 3889, 3890, 3891, 3892
497, 2212, 2210, 117, 113, 3893, 3894, 675, 3895
498, 2242, 2244, 2271, 2243, 3896, 3897, 3898, 3899
499, 2168, 2279, 2281, 2278, 3900, 3901, 3902, 3903
500, 2286, 2288, 2289, 2287, 3904, 3905, 3906, 3907
501, 2309, 2311, 2312, 2310, 3908, 3909, 3910, 3911
502, 2313, 2315, 2320, 2314, 3912, 3913, 3914, 3915
503, 2302, 2304, 2323, 2303, 3916, 3917, 3918, 3919
504, 2295, 2294, 2325, 2293, 3920, 3921, 3922, 3923
505, 2329, 2331, 2334, 2330, 3924, 3925, 3926, 3927
506, 2282, 2350, 2351, 2284, 3928, 3929, 3930, 3931
507, 2233, 2232, 2354, 2231, 3932, 3933, 3934, 3935
508, 2260, 2259, 2357, 2258, 3936, 3937, 3938, 3939
509, 2326, 2231, 2354, 2327, 3940, 3934, 3941, 3942
510, 2209, 2208, 2365, 2207, 3943, 3944, 3945, 3946
511, 2117, 2280, 2365, 2208, 3947, 3948, 3944, 3949
512, 2375, 2374, 2337, 2373, 3950, 3951, 3952, 3953
513, 2376, 2378, 2379, 2377, 3954, 3955, 3956, 3957
514, 2384, 2386, 2240, 2385, 3958, 3959, 3960, 3961
515, 2383, 2293, 2391, 2390, 3962, 3963, 3964, 3965
516, 2393, 2392, 2248, 2200, 3966, 3967, 3968, 3969
517, 2380, 2382, 2396, 2381, 3970, 3971, 3972, 3973
518, 2255, 2398, 2399, 2397, 3974, 3975, 3976, 3977
519, 2346, 2348, 2412, 2347, 3978, 3979, 3980, 3981
520, 2382, 2380, 2416, 2157, 3970, 3982, 3983, 3984
521, 2105, 2177, 2176, 2106, 3985, 3986, 3987, 3988
522, 2121, 2266, 2429, 2265, 3989, 3990, 3991, 3992
523, 2196, 2411, 2316, 2227, 3993, 3994, 3995, 3996
524, 2443, 2445, 2447, 2444, 3997, 3998, 3999, 4000
525, 2362, 2361, 2352, 2360, 4001, 4002, 4003, 4004
526, 2452, 2454, 2455, 2453, 4005, 4006, 4007, 4008
527, 2212, 2211, 2461, 2210, 4009, 4010, 4011, 3893
528, 2456, 2458, 617, 2457, 4012, 4013, 4014, 4015
529, 2479, 2478, 2480, 2477, 4016, 4017, 4018, 4019
530, 2475, 2449, 2450, 2481, 4020, 4021, 4022, 4023
531, 2444, 2482, 2485, 2443, 4024, 4025, 4026, 4000
532, 2441, 2440, 2497, 2439, 4027, 4028, 4029, 4030
533, 2141, 2519, 2520, 2459, 4031, 4032, 4033, 4034
534, 2495, 2498, 2489, 2496, 4035, 4036, 4037, 4038
535, 2475, 2476, 2149, 2449, 4039, 4040, 4041, 4020
536, 2538, 2537, 2539, 2536, 4042, 4043, 4044, 4045
537, 2538, 2397, 2399, 2540, 4046, 3976, 4047, 4048
538, 2545, 2544, 2546, 2543, 4049, 4050, 4051, 4052
539, 2548, 2547, 2554, 2549, 4053, 4054, 4055, 4056
540, 2555, 2556, 2557, 2464, 4057, 4058, 4059, 4060
541, 2448, 2562, 2564, 2563, 4061, 4062, 4063, 4064
542, 2470, 2566, 2567, 2565, 4065, 4066, 4067, 4068
543, 2364, 2470, 2565, 2363, 4069, 4068, 4070, 4071
544, 2569, 2571, 2577, 2570, 4072, 4073, 4074, 4075
545, 2579, 167, 748, 2578, 4076, 750, 4077, 4078
546, 2581, 2580, 2173, 2174, 4079, 4080, 4081, 4082
547, 2591, 2590, 2139, 2589, 4083, 4084, 4085, 4086
548, 2601, 589, 590, 2600, 4087, 621, 4088, 4089
549, 2597, 2599, 2604, 2598, 4090, 4091, 4092, 4093
550, 2607, 2606, 2217, 2605, 4094, 4095, 4096, 4097
551, 2609, 2611, 2612, 2610, 4098, 4099, 4100, 4101
552, 2174, 2586, 2614, 2581, 4102, 4103, 4104, 4082
553, 2391, 2293, 2325, 2613, 3963, 3922, 4105, 4106
554, 2617, 2411, 2196, 2618, 4107, 3993, 4108, 4109
555, 2621, 2431, 2269, 2270, 4110, 4111, 4112, 4113
556, 2621, 2270, 2626, 2622, 4113, 4114, 4115, 4116
557, 2178, 2180, 2629, 2179, 4117, 4118, 4119, 4120
558, 2631, 2630, 2633, 2632, 4121, 4122, 4123, 4124
559, 2148, 2145, 2637, 2636, 3839, 4125, 4126, 4127
560, 2643, 2645, 2646, 2644, 4128, 4129, 4130, 4131
561, 2643, 2540, 2399, 2647, 4132, 4047, 4133, 4134
562, 2649, 2651, 2648, 2650, 4135, 4136, 4137, 4138
563, 2114, 2657, 37, 33, 4139, 4140, 657, 4141
564, 2660, 2629, 2663, 2650, 4142, 4143, 4144, 4145
565, 2662, 2661, 2663, 2629, 4146, 4147, 4143, 4148
566, 2105, 2106, 2436, 2303, 3988, 4149, 4150, 4151
567, 2527, 2432, 2670, 2669, 4152, 4153, 4154, 4155
568, 2437, 2302, 2303, 2436, 4156, 3919, 4150, 4157
569, 2590, 2591, 609, 2676, 4083, 4158, 4159, 4160
570, 2484, 2483, 2685, 2684, 4161, 4162, 4163, 4164
571, 2411, 2617, 2687, 2616, 4107, 4165, 4166, 4167
572, 2688, 2690, 2691, 2689, 4168, 4169, 4170, 4171
573, 2695, 2234, 2524, 2696, 4172, 4173, 4174, 4175
574, 2694, 2693, 2697, 2692, 4176, 4177, 4178, 4179
575, 2673, 2700, 2701, 2672, 4180, 4181, 4182, 4183
576, 2215, 2635, 2703, 2634, 4184, 4185, 4186, 4187
577, 97, 93, 2703, 2635, 680, 4188, 4185, 4189
578, 2278, 2704, 2705, 2168, 4190, 4191, 4192, 3903
579, 2688, 2702, 2706, 2690, 4193, 4194, 4195, 4168
580, 2414, 2413, 2714, 2415, 4196, 4197, 4198, 4199
581, 2719, 2718, 2720, 2615, 4200, 4201, 4202, 4203
582, 2613, 2615, 2720, 2391, 4204, 4202, 4205, 4106
583, 2590, 2592, 2141, 2139, 4206, 4207, 3837, 4084
584, 2582, 2358, 2723, 2583, 4208, 4209, 4210, 4211
585, 2359, 2199, 2723, 2358, 4212, 4213, 4209, 4214
586, 2728, 2640, 2729, 2727, 4215, 4216, 4217, 4218
587, 2133, 2394, 695, 2132, 4219, 4220, 4221, 3833
588, 2436, 2435, 2732, 2437, 4222, 4223, 4224, 4157
589, 2413, 2733, 2585, 2714, 4225, 4226, 4227, 4197
590, 2437, 2732, 2733, 2413, 4224, 4228, 4225, 4229
591, 2346, 2347, 2574, 2349, 3981, 4230, 4231, 4232
592, 2303, 2324, 2485, 2105, 4233, 4234, 4235, 4151
593, 2741, 2742, 2595, 2508, 4236, 4237, 4238, 4239
594, 2741, 2743, 2670, 2433, 4240, 4241, 4242, 4243
595, 2752, 2633, 613, 614, 4244, 4245, 645, 4246
596, 2461, 2745, 2756, 2746, 4247, 4248, 4249, 4250
597, 2188, 2197, 2353, 2190, 3861, 4251, 4252, 3865
598, 2763, 2655, 166, 2764, 4253, 4254, 4255, 4256
599, 2625, 2653, 2766, 2624, 4257, 4258, 4259, 4260
600, 2765, 2768, 2539, 2767, 4261, 4262, 4263, 4264
601, 2678, 2677, 2210, 2460, 4265, 4266, 4267, 4268
602, 2568, 2775, 2776, 2774, 4269, 4270, 4271, 4272
603, 2777, 456, 457, 2119, 4273, 476, 4274, 4275
604, 2601, 2780, 434, 435, 4276, 4277, 454, 4278
605, 2693, 2369, 2370, 2778, 4279, 4280, 4281, 4282
606, 2688, 2689, 2786, 459, 4171, 4283, 4284, 4285
607, 2207, 2789, 592, 591, 4286, 4287, 623, 4288
608, 418, 2322, 2802, 417, 4289, 4290, 4291, 437
609, 2322, 2803, 2804, 2802, 4292, 4293, 4294, 4290
610, 2118, 458, 459, 2786, 4295, 478, 4284, 4296
611, 2239, 2809, 167, 2579, 4297, 4298, 4076, 4299
612, 2801, 2274, 2812, 2800, 4300, 4301, 4302, 4303
613, 2203, 2204, 2721, 2814, 4304, 4305, 4306, 4307
614, 2809, 2239, 2116, 2125, 4297, 4308, 4309, 4310
615, 2775, 2568, 2362, 2360, 4269, 4311, 4004, 4312
616, 2136, 2138, 2710, 2137, 4313, 4314, 4315, 4316
617, 2561, 2170, 2357, 2259, 4317, 4318, 3937, 4319
618, 2322, 2781, 2446, 2803, 4320, 4321, 4322, 4292
619, 2805, 2817, 752, 753, 4323, 4324, 760, 4325
620, 13, 153, 2819, 2818, 663, 4326, 4327, 4328
621, 2822, 2821, 2825, 2820, 4329, 4330, 4331, 4332
622, 2323, 2810, 2831, 2813, 4333, 4334, 4335, 4336
623, 2321, 2212, 113, 109, 4337, 3895, 676, 4338
624, 2227, 2316, 2602, 2146, 3995, 4339, 4340, 4341
625, 2602, 2316, 2277, 2600, 4339, 4342, 4343, 4344
626, 2275, 2277, 2316, 2276, 4345, 4342, 4346, 4347
627, 2111, 2112, 741, 742, 4348, 4349, 745, 4350
628, 2362, 69, 65, 2361, 4351, 688, 4352, 4001
629, 2834, 2833, 49, 45, 4353, 4354, 654, 4355
630, 2126, 743, 167, 2809, 4356, 747, 4298, 4357
631, 2695, 2696, 2835, 2832, 4175, 4358, 4359, 4360
632, 2804, 2803, 2446, 2683, 4293, 4322, 4361, 4362
633, 2138, 2795, 2836, 2710, 4363, 4364, 4365, 4314
634, 2112, 2111, 2839, 2113, 4348, 4366, 4367, 4368
635, 2833, 2817, 2805, 49, 4369, 4323, 4370, 4354
636, 2413, 2414, 472, 2842, 4196, 4371, 4372, 4373
637, 2413, 2842, 2302, 2437, 4373, 4374, 4156, 4229
638, 45, 41, 2843, 2834, 655, 4375, 4376, 4355
639, 2489, 2488, 2844, 2496, 4377, 4378, 4379, 4037
640, 2119, 2845, 589, 2777, 4380, 4381, 4382, 4275
641, 29, 25, 2127, 2115, 659, 4383, 4384, 4385
642, 2125, 2127, 25, 2124, 4386, 4383, 4387, 4388
643, 2115, 2127, 2125, 2116, 4384, 4386, 4309, 3823
644, 2303, 2323, 2813, 2324, 3918, 4336, 4389, 4233
645, 2275, 434, 2780, 2277, 4390, 4277, 4391, 4345
646, 2119, 457, 458, 2118, 4274, 477, 4295, 4392
647, 2207, 591, 590, 2209, 4288, 622, 4393, 3946
648, 2118, 2117, 2845, 2119, 4394, 4395, 4380, 4392
649, 2854, 2228, 2856, 2855, 4396, 4397, 4398, 4399
650, 2209, 2845, 2117, 2208, 4400, 4395, 3949, 3943
651, 2834, 2841, 2858, 2833, 4401, 4402, 4403, 4353
652, 25, 21, 2839, 2124, 660, 4404, 4405, 4387
653, 592, 2146, 2602, 591, 3880, 4340, 4406, 623
654, 2851, 2853, 2859, 2852, 4407, 4408, 4409, 4410
655, 2239, 2241, 2385, 2240, 4411, 4412, 3960, 4413
656, 2468, 2620, 2862, 2467, 4414, 4415, 4416, 4417
657, 2124, 2126, 2809, 2125, 4418, 4357, 4310, 4388
658, 2601, 2600, 2277, 2780, 4089, 4343, 4391, 4276
659, 2322, 418, 419, 2781, 4289, 438, 4419, 4320
660, 2600, 590, 591, 2602, 4088, 622, 4406, 4344
661, 2635, 2213, 101, 97, 4420, 4421, 679, 4189
662, 2209, 590, 589, 2845, 4393, 621, 4381, 4400
663, 2811, 2802, 2804, 2810, 4422, 4294, 4423, 4424
664, 2140, 2417, 2290, 2142, 4425, 4426, 4427, 3835
665, 2810, 2804, 2683, 2831, 4423, 4362, 4428, 4334
666, 2728, 2727, 2364, 2164, 4218, 4429, 4430, 4431
667, 2871, 2872, 2354, 2232, 4432, 4433, 3933, 4434
668, 2117, 2118, 2786, 2280, 4394, 4296, 4435, 3947
669, 2470, 2364, 2727, 2471, 4069, 4429, 4436, 4437
670, 2280, 2786, 2689, 2691, 4435, 4283, 4170, 4438
671, 2275, 2276, 2881, 2875, 4347, 4439, 4440, 4441
672, 2873, 2327, 2354, 2874, 4442, 3941, 4443, 4444
673, 2811, 154, 417, 2802, 4445, 436, 4291, 4422
674, 2240, 2386, 2116, 2239, 3959, 3824, 4308, 4413
675, 2882, 2351, 2877, 2878, 4446, 4447, 4448, 4449
676, 435, 155, 589, 2601, 455, 620, 4087, 4278
677, 2808, 755, 756, 2840, 4450, 763, 4451, 4452
678, 2124, 2839, 2111, 2126, 4405, 4366, 4453, 4418
679, 742, 743, 2126, 2111, 746, 4356, 4453, 4350
680, 2301, 2884, 599, 598, 4454, 4455, 630, 4456
681, 456, 2777, 589, 155, 4273, 4382, 620, 475
682, 2348, 2346, 2446, 2781, 3978, 4457, 4321, 4458
683, 2887, 2886, 2888, 2390, 4459, 4460, 4461, 4462
684, 2890, 2700, 2673, 2852, 4463, 4180, 4464, 4465
685, 2559, 2531, 2356, 2392, 4466, 4467, 4468, 4469
686, 33, 29, 2115, 2114, 658, 4385, 3822, 4141
687, 2385, 2861, 2891, 2384, 4470, 4471, 4472, 3961
688, 2858, 2841, 2891, 2686, 4402, 4473, 4474, 4475
689, 2849, 2892, 468, 469, 4476, 4477, 488, 4478
690, 2412, 2573, 2574, 2347, 4479, 4480, 4230, 3980
691, 2113, 2839, 21, 17, 4367, 4404, 661, 4481
692, 2818, 2113, 17, 13, 4482, 4481, 662, 4328
693, 2807, 2808, 61, 57, 4483, 4484, 690, 4485
694, 2806, 53, 49, 2805, 4486, 653, 4370, 4487
695, 2866, 2894, 2898, 2865, 4488, 4489, 4490, 4491
696, 2904, 2903, 2906, 2902, 4492, 4493, 4494, 4495
697, 2808, 2807, 754, 755, 4483, 4496, 762, 4450
698, 57, 158, 754, 2807, 691, 4497, 4496, 4485
699, 2805, 753, 754, 2806, 4325, 761, 4498, 4487
700, 2641, 2908, 2718, 2719, 4499, 4500, 4200, 4501
701, 2176, 2177, 715, 714, 3986, 4502, 718, 4503
702, 53, 2806, 754, 158, 4486, 4498, 4497, 652
703, 2910, 2912, 2913, 2911, 4504, 4505, 4506, 4507
704, 3730, 2229, 2914, 2230, 4508, 4509, 4510, 4511
705, 2390, 2391, 2720, 2887, 3964, 4205, 4512, 4462
706, 601, 2641, 2719, 2642, 4513, 4501, 4514, 4515
707, 2356, 2531, 2926, 2530, 4467, 4516, 4517, 4518
708, 2430, 2446, 2346, 2349, 4519, 4457, 4232, 4520
709, 2332, 2333, 2260, 2258, 4521, 4522, 3939, 4523
710, 2925, 2924, 2642, 2719, 4524, 4525, 4514, 4526
711, 2101, 2099, 2290, 2417, 3817, 4527, 4426, 4528
712, 2930, 2929, 2236, 2237, 4529, 4530, 3881, 4531
713, 2513, 2512, 2932, 2511, 4532, 4533, 4534, 4535
714, 2219, 2218, 2269, 2217, 4536, 4537, 4538, 4539
715, 2467, 2862, 2933, 2520, 4416, 4540, 4541, 4542
716, 2932, 2931, 2934, 2511, 4543, 4544, 4545, 4534
717, 610, 2561, 2259, 609, 4546, 4319, 4547, 641
718, 2260, 608, 609, 2259, 4548, 640, 4547, 3936
719, 2899, 2901, 2224, 2900, 4549, 4550, 4551, 4552
720, 2178, 2179, 2628, 2181, 4120, 4553, 4554, 4555
721, 2863, 2864, 2938, 2628, 4556, 4557, 4558, 4559
722, 2577, 2571, 2632, 2576, 4073, 4560, 4561, 4562
723, 2207, 2697, 2698, 2789, 4563, 4564, 4565, 4286
724, 2953, 2955, 2956, 2954, 4566, 4567, 4568, 4569
725, 2957, 2958, 2962, 2961, 4570, 4571, 4572, 4573
726, 2844, 2857, 2481, 2496, 4574, 4575, 4576, 4379
727, 600, 599, 2884, 2908, 631, 4455, 4577, 4578
728, 610, 2171, 2170, 2561, 4579, 4580, 4317, 4546
729, 2495, 2496, 2481, 2450, 4038, 4576, 4022, 4581
730, 2467, 2469, 2722, 2468, 4582, 4583, 4584, 4417
731, 2515, 2514, 2706, 2516, 4585, 4586, 4587, 4588
732, 2923, 2720, 2718, 2883, 4589, 4201, 4590, 4591
733, 2908, 2884, 2883, 2718, 4577, 4592, 4590, 4500
734, 2610, 2612, 2617, 2618, 4100, 4593, 4109, 4594
735, 2978, 2980, 2970, 2979, 4595, 4596, 4597, 4598
736, 2617, 2612, 2981, 2687, 4593, 4599, 4600, 4165
737, 2177, 2105, 2485, 2482, 3985, 4235, 4025, 4601
738, 2975, 2974, 2595, 2973, 4602, 4603, 4604, 4605
739, 2982, 2984, 2985, 2983, 4606, 4607, 4608, 4609
740, 2394, 2133, 2987, 2395, 4219, 4610, 4611, 4612
741, 2133, 2135, 2991, 2987, 3832, 4613, 4614, 4610
742, 2998, 2997, 2372, 2996, 4615, 4616, 4617, 4618
743, 2247, 2355, 2513, 2246, 4619, 4620, 4621, 3888
744, 2761, 2762, 612, 2562, 4622, 4623, 4624, 4625
745, 2564, 2562, 612, 611, 4062, 4624, 643, 4626
746, 2179, 2629, 2660, 2627, 4119, 4142, 4627, 4628
747, 2152, 2582, 2583, 2154, 4629, 4211, 4630, 4631
748, 2140, 2418, 3000, 2417, 4632, 4633, 4634, 4425
749, 2290, 2291, 2517, 2292, 4635, 4636, 4637, 4638
750, 2971, 2972, 2796, 2797, 4639, 4640, 4641, 4642
751, 2290, 2099, 2102, 2291, 4527, 3816, 4643, 4635
752, 2880, 3004, 607, 606, 4644, 4645, 638, 4646
753, 2214, 2215, 2456, 2748, 4647, 4648, 4649, 4650
754, 3008, 2983, 3010, 3009, 4651, 4652, 4653, 4654
755, 728, 3011, 2122, 2120, 4655, 4656, 4657, 4658
756, 2932, 2512, 3020, 2318, 4533, 4659, 4660, 4661
757, 3024, 2523, 2525, 2767, 4662, 4663, 4664, 4665
758, 3017, 3019, 2767, 2525, 4666, 4667, 4664, 4668
759, 2176, 714, 160, 3026, 4503, 717, 4669, 4670
760, 2112, 2113, 2818, 2440, 4368, 4482, 4671, 4672
761, 3031, 2969, 2796, 2877, 4673, 4674, 4675, 4676
762, 3031, 2350, 2609, 2610, 4677, 4678, 4101, 4679
763, 2282, 2284, 3032, 2283, 3931, 4680, 4681, 4682
764, 2685, 2483, 2858, 2686, 4162, 4683, 4475, 4684
765, 2716, 2103, 2363, 2565, 4685, 4686, 4070, 4687
766, 2649, 2650, 2663, 2652, 4138, 4144, 4688, 4689
767, 422, 423, 2235, 3039, 442, 4690, 4691, 4692
768, 3034, 3040, 2388, 2427, 4693, 4694, 4695, 4696
769, 2920, 2921, 3048, 2110, 4697, 4698, 4699, 4700
770, 3055, 3054, 2281, 3053, 4701, 4702, 4703, 4704
771, 2192, 2191, 3060, 2598, 3866, 4705, 4706, 4707
772, 2285, 2890, 2611, 2609, 4708, 4709, 4098, 4710
773, 3026, 3050, 2960, 3057, 4711, 4712, 4713, 4714
774, 3050, 3026, 160, 2943, 4711, 4669, 4715, 4716
775, 2867, 3064, 2158, 3063, 4717, 4718, 4719, 4720
776, 2312, 2497, 2819, 2816, 4721, 4722, 4723, 4724
777, 2485, 2490, 2445, 2443, 4725, 4726, 3997, 4026
778, 2884, 2301, 2299, 2883, 4454, 4727, 4728, 4592
779, 2571, 2942, 2631, 2632, 4729, 4730, 4124, 4560
780, 2555, 2305, 2306, 2556, 4731, 4732, 4733, 4057
781, 2697, 2693, 2778, 2698, 4177, 4282, 4734, 4564
782, 2566, 2889, 2897, 2946, 4735, 4736, 4737, 4738
783, 2993, 2995, 3086, 2992, 4739, 4740, 4741, 4742
784, 3085, 3084, 3087, 3083, 4743, 4744, 4745, 4746
785, 3090, 2753, 3094, 3011, 4747, 4748, 4749, 4750
786, 2292, 2448, 2142, 2290, 4751, 4752, 4427, 4638
787, 2797, 2986, 2749, 2971, 4753, 4754, 4755, 4642
788, 2170, 2705, 2335, 2357, 4756, 4757, 4758, 4318
789, 2750, 2749, 3101, 2751, 4759, 4760, 4761, 4762
790, 3102, 3103, 3104, 2377, 4763, 4764, 4765, 4766
791, 2282, 2283, 2701, 2285, 4682, 4767, 4768, 4769
792, 2955, 2953, 159, 3115, 4566, 4770, 4771, 4772
793, 3116, 2779, 2773, 3117, 4773, 4774, 4775, 4776
794, 2293, 2383, 2828, 2295, 3962, 4777, 4778, 3923
795, 2945, 2897, 2295, 2828, 4779, 4780, 4778, 4781
796, 3122, 3121, 3124, 3123, 4782, 4783, 4784, 4785
797, 2911, 3126, 3042, 2910, 4786, 4787, 4788, 4507
798, 3080, 2991, 2653, 2625, 4789, 4790, 4257, 4791
799, 2997, 2395, 2987, 3001, 4792, 4611, 4793, 4794
800, 2542, 2619, 2456, 2457, 4795, 4796, 4015, 4797
801, 2818, 2819, 2497, 2440, 4327, 4722, 4028, 4671
802, 2462, 2463, 3131, 3129, 4798, 4799, 4800, 4801
803, 3135, 3136, 3137, 3077, 4802, 4803, 4804, 4805
804, 3079, 3078, 3135, 3077, 4806, 4807, 4805, 4808
805, 3132, 3134, 3138, 3133, 4809, 4810, 4811, 4812
806, 2792, 2729, 2640, 2638, 4813, 4216, 4814, 4815
807, 2553, 3143, 2352, 2361, 4816, 4817, 4002, 4818
808, 2149, 2830, 2451, 2449, 4819, 4820, 4821, 4041
809, 2424, 3151, 3152, 3150, 4822, 4823, 4824, 4825
810, 472, 473, 3160, 2842, 492, 4826, 4827, 4372
811, 3148, 3149, 3163, 2332, 4828, 4829, 4830, 4831
812, 2534, 2535, 3166, 2533, 4832, 4833, 4834, 4835
813, 3164, 3165, 3168, 3167, 4836, 4837, 4838, 4839
814, 2588, 2596, 3171, 2587, 4840, 4841, 4842, 4843
815, 2341, 3153, 2754, 2626, 4844, 4845, 4846, 4847
816, 3173, 3068, 3069, 3172, 4848, 4849, 4850, 4851
817, 2578, 748, 166, 2655, 4077, 749, 4254, 4852
818, 2794, 3176, 2243, 3177, 4853, 4854, 4855, 4856
819, 2793, 2558, 3176, 2794, 4857, 4858, 4853, 4859
820, 2548, 2549, 3182, 3181, 4056, 4860, 4861, 4862
821, 2172, 3007, 133, 129, 4863, 4864, 670, 4865
822, 2122, 2123, 2266, 2121, 4866, 4867, 3989, 4868
823, 2628, 2938, 2744, 2181, 4558, 4869, 4870, 4554
824, 3193, 3194, 3195, 3133, 4871, 4872, 4873, 4874
825, 3201, 3200, 3084, 3085, 4875, 4876, 4743, 4877
826, 3204, 3203, 3205, 3202, 4878, 4879, 4880, 4881
827, 3208, 3207, 3209, 3206, 4882, 4883, 4884, 4885
828, 2253, 2336, 2677, 2678, 4886, 4887, 4265, 4888
829, 3210, 3214, 3215, 3008, 4889, 4890, 4891, 4892
830, 2173, 2175, 3145, 2174, 3873, 4893, 4894, 4081
831, 2430, 2621, 2622, 2788, 4895, 4116, 4896, 4897
832, 3227, 3229, 3230, 3228, 4898, 4899, 4900, 4901
833, 2521, 2522, 3053, 2281, 4902, 4903, 4703, 4904
834, 3234, 2993, 3025, 3233, 4905, 4906, 4907, 4908
835, 2154, 2583, 3231, 2569, 4630, 4909, 4910, 4911
836, 3036, 2691, 2690, 3238, 4912, 4169, 4913, 4914
837, 2706, 2514, 3238, 2690, 4586, 4915, 4913, 4195
838, 2789, 2698, 593, 592, 4565, 4916, 624, 4287
839, 2778, 3092, 593, 2698, 4917, 4918, 4916, 4734
840, 2444, 715, 2177, 2482, 4919, 4502, 4601, 4024
841, 3118, 3223, 3159, 3120, 4920, 4921, 4922, 4923
842, 2709, 2296, 2297, 3128, 4924, 4925, 4926, 4927
843, 3240, 2846, 2338, 2339, 4928, 4929, 4930, 4931
844, 3246, 2226, 2224, 2901, 4932, 4933, 4550, 4934
845, 3248, 3247, 3250, 3249, 4935, 4936, 4937, 4938
846, 2869, 2868, 3251, 2766, 4939, 4940, 4941, 4942
847, 2584, 2849, 3253, 2850, 4943, 4944, 4945, 4946
848, 2849, 469, 470, 3253, 4478, 489, 4947, 4944
849, 3184, 3259, 3084, 3200, 4948, 4949, 4876, 4950
850, 3255, 3257, 3260, 3256, 4951, 4952, 4953, 4954
851, 3105, 3261, 3262, 3225, 4955, 4956, 4957, 4958
852, 3106, 3107, 3261, 3105, 4959, 4960, 4955, 4961
853, 2130, 3128, 2297, 2129, 4962, 4926, 4963, 3826
854, 2190, 2353, 2360, 2352, 4252, 4964, 4003, 4965
855, 2353, 2359, 2775, 2360, 4966, 4967, 4312, 4964
856, 3041, 3265, 2954, 2956, 4968, 4969, 4568, 4970
857, 2297, 2296, 3267, 2298, 4925, 4971, 4972, 4973
858, 2573, 2608, 2605, 2575, 4974, 4975, 4976, 4977
859, 2739, 2737, 2181, 2744, 4978, 4979, 4870, 4980
860, 2737, 3183, 2178, 2181, 4981, 4982, 4555, 4979
861, 3156, 3155, 3278, 2851, 4983, 4984, 4985, 4986
862, 2920, 2892, 2849, 2922, 4987, 4476, 4988, 4989
863, 2737, 2738, 3089, 2740, 4990, 4991, 4992, 4993
864, 2633, 2730, 612, 613, 4994, 4995, 644, 4245
865, 2578, 2654, 2668, 2656, 4996, 4997, 4998, 4999
866, 2730, 3283, 611, 612, 5000, 5001, 643, 4995
867, 421, 422, 3039, 2428, 441, 4692, 5002, 5003
868, 2744, 2469, 2467, 2739, 5004, 4582, 5005, 4980
869, 2929, 2930, 3285, 3284, 4529, 5006, 5007, 5008
870, 3038, 603, 602, 3287, 5009, 634, 5010, 5011
871, 2652, 3287, 2642, 2924, 5012, 5013, 4525, 5014
872, 605, 604, 2662, 2658, 636, 5015, 5016, 5017
873, 2529, 2603, 2176, 3026, 5018, 5019, 4670, 5020
874, 2937, 2935, 3295, 2966, 5021, 5022, 5023, 5024
875, 2139, 2563, 2564, 2589, 5025, 4063, 5026, 4085
876, 2448, 2563, 2139, 2142, 4064, 5025, 3836, 4752
877, 3091, 594, 593, 3092, 5027, 625, 4918, 5028
878, 2193, 2206, 2909, 2798, 5029, 5030, 5031, 5032
879, 3143, 2553, 2840, 3144, 4816, 5033, 5034, 5035
880, 3081, 3082, 2731, 2977, 5036, 5037, 5038, 5039
881, 3082, 3283, 2730, 2731, 5040, 5000, 5041, 5037
882, 2578, 2655, 2763, 2654, 4852, 4253, 5042, 4996
883, 459, 460, 2702, 2688, 479, 5043, 4193, 4285
884, 3286, 2702, 460, 461, 5044, 5043, 480, 5045
885, 2697, 2207, 2365, 2692, 4563, 3945, 5046, 4178
886, 3146, 2298, 3267, 3296, 5047, 4972, 5048, 5049
887, 2441, 741, 2112, 2440, 5050, 4349, 4672, 4027
888, 3299, 3300, 3302, 3298, 5051, 5052, 5053, 5054
889, 2136, 2137, 602, 603, 4316, 5055, 634, 5056
890, 2851, 3278, 3301, 2853, 4985, 5057, 5058, 4407
891, 2272, 2274, 2801, 2273, 5059, 4300, 5060, 5061
892, 2301, 2300, 3303, 2299, 5062, 5063, 5064, 4727
893, 2942, 2934, 2931, 2631, 5065, 4544, 5066, 4730
894, 2206, 2147, 592, 593, 5067, 3877, 624, 5068
895, 2920, 467, 468, 2892, 5069, 487, 4477, 4987
896, 2464, 2466, 3304, 2465, 5070, 5071, 5072, 5073
897, 2464, 2465, 711, 161, 5073, 5074, 713, 5075
898, 2247, 2356, 2530, 2355, 5076, 4518, 5077, 4619
899, 2513, 2355, 2530, 2512, 4620, 5077, 5078, 4532
900, 2203, 2814, 2864, 2815, 4307, 5079, 5080, 5081
901, 2834, 2843, 2891, 2841, 4376, 5082, 4473, 4401
902, 2579, 3051, 2241, 2239, 5083, 5084, 4411, 4299
903, 2420, 2419, 3306, 2421, 5085, 5086, 5087, 5088
904, 2110, 2108, 467, 2920, 3819, 5089, 5069, 4700
905, 2749, 2986, 2909, 3101, 4754, 5090, 5091, 4760
906, 2798, 2909, 2986, 2797, 5031, 5090, 4753, 5092
907, 2881, 2687, 2981, 3169, 5093, 4600, 5094, 5095
908, 2267, 2268, 756, 757, 5096, 5097, 764, 5098
909, 2420, 2421, 3311, 3308, 5088, 5099, 5100, 5101
910, 3169, 2981, 2859, 2853, 5094, 5102, 4408, 5103
911, 2611, 2859, 2981, 2612, 5104, 5102, 4599, 4099
912, 434, 2275, 2875, 433, 4390, 4441, 5105, 453
913, 2325, 2791, 2925, 2613, 5106, 5107, 5108, 4105
914, 3315, 3027, 2153, 2570, 5109, 5110, 5111, 5112
915, 2569, 2570, 2153, 2154, 4075, 5111, 5113, 4911
916, 2363, 2166, 2164, 2364, 5114, 3846, 4430, 4071
917, 41, 37, 2657, 2843, 656, 4140, 5115, 4375
918, 2385, 2241, 3052, 3318, 4412, 5116, 5117, 5118
919, 603, 3038, 2663, 2661, 5009, 5119, 4147, 5120
920, 2317, 2319, 2932, 2318, 5121, 5122, 4661, 5123
921, 2931, 2932, 2319, 2976, 4543, 5122, 5124, 5125
922, 2513, 2999, 2723, 2246, 5126, 5127, 5128, 4621
923, 2583, 2723, 2999, 3231, 4210, 5127, 5129, 4909
924, 2349, 2574, 2572, 2431, 4231, 5130, 5131, 5132
925, 2934, 2942, 3231, 2999, 5065, 5133, 5129, 5134
926, 2908, 2641, 601, 600, 4499, 4513, 632, 4578
927, 2774, 2776, 2152, 2183, 4271, 5135, 5136, 5137
928, 2179, 2627, 2863, 2628, 4628, 5138, 4559, 4553
929, 2415, 471, 472, 2414, 5139, 491, 4371, 4199
930, 2943, 2465, 3304, 3050, 5140, 5072, 5141, 4716
931, 3160, 2304, 2302, 2842, 5142, 3916, 4374, 4827
932, 2781, 419, 420, 2348, 4419, 439, 5143, 4458
933, 3320, 3319, 3322, 3266, 5144, 5145, 5146, 5147
934, 2638, 2640, 2863, 2639, 4814, 5148, 5149, 5150
935, 3027, 2824, 3323, 2153, 5151, 5152, 5153, 5110
936, 617, 618, 2824, 3027, 649, 5154, 5151, 5155
937, 2658, 2662, 2629, 2180, 5016, 4148, 4118, 5156
938, 618, 619, 2823, 2824, 650, 5157, 5158, 5154
939, 3256, 3260, 3316, 3324, 4953, 5159, 5160, 5161
940, 2349, 2431, 2621, 2430, 5132, 4110, 4895, 4520
941, 2168, 2169, 3081, 2279, 5162, 5163, 5164, 3900
942, 3291, 3292, 3331, 3294, 5165, 5166, 5167, 5168
943, 3309, 3312, 3214, 3210, 5169, 5170, 4889, 5171
944, 2198, 2246, 2723, 2199, 3885, 5128, 4213, 3859
945, 2615, 2613, 2925, 2719, 4204, 5108, 4526, 4203
946, 2570, 2577, 616, 3315, 4074, 5172, 5173, 5112
947, 3027, 3315, 616, 617, 5109, 5173, 648, 5155
948, 2702, 3286, 2516, 2706, 5044, 5174, 4587, 4194
949, 3005, 3183, 2737, 2740, 5175, 4981, 4993, 5176
950, 2755, 2622, 2626, 2754, 5177, 4115, 4846, 5178
951, 2254, 3016, 3333, 3015, 5179, 5180, 5181, 5182
952, 2660, 2639, 2863, 2627, 5183, 5149, 5138, 4627
953, 2154, 2153, 3323, 2152, 5113, 5153, 5184, 4631
954, 3337, 3336, 3338, 3335, 5185, 5186, 5187, 5188
955, 715, 2444, 2447, 716, 4919, 3999, 5189, 719
956, 2879, 2659, 2658, 2180, 5190, 5191, 5156, 5192
957, 3294, 3331, 3339, 3334, 5167, 5193, 5194, 5195
958, 3035, 3036, 2682, 3037, 5196, 5197, 5198, 5199
959, 73, 2568, 2774, 77, 5200, 4272, 5201, 686
960, 2104, 3289, 2167, 2166, 5202, 5203, 3847, 5204
961, 2122, 2121, 3340, 2120, 4868, 5205, 5206, 4657
962, 2909, 2206, 593, 594, 5030, 5068, 625, 5207
963, 3284, 3341, 2236, 2929, 5208, 5209, 4530, 5008
964, 3082, 3313, 611, 3283, 5210, 5211, 5001, 5040
965, 2977, 3342, 2279, 3081, 5212, 5213, 5164, 5039
966, 2281, 2279, 3342, 2521, 3901, 5213, 5214, 4904
967, 2676, 3281, 3089, 2590, 5215, 5216, 5217, 4160
968, 3005, 2880, 2879, 3183, 5218, 5219, 5220, 5175
969, 2180, 2178, 3183, 2879, 4117, 4982, 5220, 5192
970, 2675, 3348, 427, 3347, 5221, 5222, 5223, 5224
971, 2730, 2633, 2630, 2731, 4994, 4122, 5225, 5041
972, 2977, 2731, 2630, 2976, 5038, 5225, 5226, 5227
973, 3036, 3035, 2280, 2691, 5196, 5228, 4438, 4912
974, 3037, 2365, 2280, 3035, 5229, 3948, 5228, 5199
975, 3346, 3345, 2787, 3344, 5230, 5231, 5232, 5233
976, 3352, 3351, 3353, 3350, 5234, 5235, 5236, 5237
977, 728, 2120, 3340, 163, 4658, 5206, 5238, 730
978, 2348, 420, 421, 2412, 5143, 440, 5239, 3979
979, 2573, 2412, 421, 2428, 4479, 5239, 5003, 5240
980, 3332, 3286, 461, 462, 5241, 5045, 481, 5242
981, 2502, 3327, 3357, 3326, 5243, 5244, 5245, 5246
982, 2732, 3127, 2585, 2733, 5247, 5248, 4226, 4228
983, 2862, 2620, 2161, 2159, 4415, 5249, 5250, 5251
984, 2159, 2161, 2721, 2160, 5250, 5252, 5253, 5254
985, 2620, 2468, 2721, 2161, 4414, 5255, 5252, 5249
986, 2396, 2421, 3306, 3354, 5256, 5087, 5257, 5258
987, 3355, 2401, 3361, 3356, 5259, 5260, 5261, 5262
988, 2853, 3301, 2785, 3169, 5058, 5263, 5264, 5103
989, 3358, 3360, 3362, 3359, 5265, 5266, 5267, 5268
990, 2816, 2819, 153, 149, 4723, 4326, 664, 5269
991, 594, 595, 3101, 2909, 626, 5270, 5091, 5207
992, 3355, 3208, 3206, 3365, 5271, 4885, 5272, 5273
993, 3368, 3367, 3369, 3366, 5274, 5275, 5276, 5277
994, 431, 3301, 3278, 430, 5278, 5057, 5279, 450
995, 2823, 89, 85, 2182, 5280, 683, 3874, 5281
996, 3363, 3364, 3372, 3173, 5282, 5283, 5284, 5285
997, 2937, 2966, 3376, 3375, 5024, 5286, 5287, 5288
998, 2373, 2337, 3377, 3373, 3952, 5289, 5290, 5291
999, 2917, 2389, 3166, 3378, 5292, 5293, 5294, 5295
1000, 3383, 3259, 3385, 3384, 5296, 5297, 5298, 5299
1001, 3389, 3056, 3387, 3388, 5300, 5301, 5302, 5303
1002, 2206, 2193, 2194, 2147, 5029, 3857, 3878, 5067
1003, 3068, 3071, 3702, 3070, 5304, 5305, 5306, 5307
1004, 2146, 2194, 2196, 2227, 3879, 3856, 3996, 4341
1005, 3399, 2762, 2761, 3400, 5308, 4622, 5309, 5310
1006, 612, 2762, 3399, 613, 4623, 5308, 5311, 644
1007, 2686, 2546, 2544, 2685, 5312, 4050, 5313, 4684
1008, 2285, 2609, 2350, 2282, 4710, 4678, 3928, 4769
1009, 2624, 2623, 3404, 2625, 5314, 5315, 5316, 4260
1010, 2623, 3405, 3043, 3404, 5317, 5318, 5319, 5315
1011, 2160, 2721, 2204, 3179, 5253, 4305, 5320, 5321
1012, 3179, 2204, 2202, 3406, 5320, 5322, 5323, 5324
1013, 2738, 2519, 2141, 2592, 5325, 4031, 4207, 5326
1014, 2468, 2722, 2814, 2721, 4584, 5327, 4306, 5255
1015, 432, 2785, 3301, 431, 5328, 5263, 5278, 451
1016, 2880, 606, 2659, 2879, 4646, 5329, 5190, 5219
1017, 3089, 3281, 3005, 2740, 5216, 5330, 5176, 4992
1018, 2683, 2490, 2813, 2831, 5331, 5332, 4335, 4428
1019, 2880, 3005, 3281, 3004, 5218, 5330, 5333, 4644
1020, 2485, 2324, 2813, 2490, 4234, 4389, 5332, 4725
1021, 471, 2415, 3253, 470, 5139, 5334, 4947, 490
1022, 2850, 3253, 2415, 2714, 4945, 5334, 4198, 5335
1023, 2204, 2203, 2799, 2202, 4304, 5336, 5337, 5322
1024, 2581, 2614, 3420, 3352, 4104, 5338, 5339, 5340
1025, 3022, 3023, 3229, 3021, 5341, 5342, 5343, 5344
1026, 3380, 3382, 3421, 3381, 5345, 5346, 5347, 5348
1027, 2823, 2182, 3323, 2824, 5281, 5349, 5152, 5158
1028, 3424, 3425, 3265, 3406, 5350, 5351, 5352, 5353
1029, 616, 2577, 2576, 615, 5172, 4562, 5354, 647
1030, 3427, 3426, 3422, 3012, 5355, 5356, 5357, 5358
1031, 2944, 3410, 3429, 3428, 5359, 5360, 5361, 5362
1032, 3431, 3422, 3426, 3430, 5363, 5356, 5364, 5365
1033, 3332, 462, 463, 3079, 5242, 482, 5366, 5367
1034, 3440, 3442, 3443, 3441, 5368, 5369, 5370, 5371
1035, 3400, 2517, 3437, 3439, 5372, 5373, 5374, 5375
1036, 2137, 2710, 2296, 2709, 4315, 5376, 4924, 5377
1037, 2137, 2709, 601, 602, 5377, 5378, 633, 5055
1038, 2152, 3323, 2182, 2183, 5184, 5349, 3876, 5136
1039, 3357, 3327, 2334, 2331, 5244, 5379, 3925, 5380
1040, 2686, 2891, 2861, 2546, 4474, 4471, 5381, 5312
1041, 433, 2875, 2785, 432, 5105, 5382, 5328, 452
1042, 2969, 2618, 2196, 2195, 5383, 4108, 3855, 5384
1043, 3452, 3454, 3075, 3453, 5385, 5386, 5387, 5388
1044, 2636, 2606, 2607, 2148, 5389, 4094, 5390, 4127
1045, 2665, 2645, 2643, 2647, 5391, 4128, 4134, 5392
1046, 3169, 2785, 2875, 2881, 5264, 5382, 4440, 5095
1047, 2665, 2647, 2399, 2664, 5392, 4133, 5393, 5394
1048, 3435, 3451, 2747, 2474, 5395, 5396, 5397, 5398
1049, 3364, 2157, 2158, 3064, 5399, 5400, 4718, 5401
1050, 2149, 2476, 2596, 2151, 4040, 5402, 5403, 3842
1051, 2136, 3320, 3266, 2138, 5404, 5147, 5405, 4313
1052, 3467, 3466, 3468, 3465, 5406, 5407, 5408, 5409
1053, 611, 3313, 2171, 610, 5211, 5410, 4579, 642
1054, 149, 145, 3469, 2816, 665, 5411, 5412, 5269
1055, 2361, 65, 61, 2553, 4352, 689, 5413, 4818
1056, 2176, 2603, 3321, 2106, 5019, 5414, 5415, 3987
1057, 3470, 3472, 3473, 3471, 5416, 5417, 5418, 5419
1058, 2529, 2527, 3321, 2603, 5420, 5421, 5414, 5018
1059, 3470, 3475, 3476, 3474, 5422, 5423, 5424, 5425
1060, 2435, 2436, 2106, 3321, 4222, 4149, 5415, 5426
1061, 2498, 3402, 2793, 2489, 5427, 5428, 5429, 4036
1062, 2553, 61, 2808, 2840, 5413, 4484, 4452, 5033
1063, 3478, 3477, 3446, 3413, 5430, 5431, 5432, 5433
1064, 3094, 3153, 2343, 2123, 5434, 5435, 5436, 5437
1065, 3479, 3053, 3232, 3480, 5438, 5439, 5440, 5441
1066, 2358, 2582, 2775, 2359, 4208, 5442, 4967, 4214
1067, 3395, 3396, 3390, 3392, 5443, 5444, 5445, 5446
1068, 3078, 464, 465, 3280, 5447, 484, 5448, 5449
1069, 3482, 2462, 3129, 3483, 5450, 4801, 5451, 5452
1070, 2744, 2938, 2722, 2469, 4869, 5453, 4583, 5004
1071, 3484, 3475, 3485, 3460, 5454, 5455, 5456, 5457
1072, 2976, 2319, 3342, 2977, 5124, 5458, 5212, 5227
1073, 2521, 3342, 2319, 2317, 5214, 5458, 5121, 5459
1074, 2814, 2722, 2938, 2864, 5327, 5453, 4557, 5079
1075, 2214, 2216, 2860, 2213, 5460, 5461, 5462, 5463
1076, 2531, 2559, 3241, 2926, 4466, 5464, 5465, 4516
1077, 3406, 3265, 3041, 3179, 5352, 4968, 5466, 5324
1078, 3139, 3490, 3492, 3217, 5467, 5468, 5469, 5470
1079, 2532, 2533, 3093, 3343, 5471, 5472, 5473, 5474
1080, 89, 2823, 619, 157, 5280, 5157, 651, 682
1081, 2164, 2165, 3496, 2728, 3849, 5475, 5476, 4431
1082, 3083, 3326, 3357, 3441, 5477, 5245, 5478, 5479
1083, 2566, 2470, 2471, 2889, 4065, 4437, 5480, 4735
1084, 3083, 3441, 3443, 3085, 5479, 5370, 5481, 4746
1085, 2167, 2799, 3496, 2165, 5482, 5483, 5475, 3848
1086, 3415, 3446, 3497, 3444, 5484, 5485, 5486, 5487
1087, 2203, 2815, 3496, 2799, 5081, 5488, 5483, 5336
1088, 2343, 2342, 3498, 3409, 5489, 5490, 5491, 5492
1089, 2492, 3501, 3432, 3500, 5493, 5494, 5495, 5496
1090, 3504, 3442, 3505, 3414, 5497, 5498, 5499, 5500
1091, 2729, 2895, 2471, 2727, 5501, 5502, 4436, 4217
1092, 2963, 3486, 2829, 2888, 5503, 5504, 5505, 5506
1093, 2267, 757, 168, 2423, 5098, 765, 5507, 5508
1094, 3456, 3457, 3515, 3458, 5509, 5510, 5511, 5512
1095, 3110, 3111, 3514, 2961, 5513, 5514, 5515, 5516
1096, 3517, 3520, 3476, 3519, 5517, 5518, 5519, 5520
1097, 2961, 3514, 3521, 2957, 5515, 5521, 5522, 4573
1098, 2434, 2433, 2670, 2432, 5523, 4242, 4153, 5524
1099, 2172, 129, 170, 2162, 4865, 671, 5525, 3852
1100, 3040, 3524, 734, 3523, 5526, 5527, 5528, 5529
1101, 2833, 2858, 2483, 2817, 4403, 4683, 5530, 4369
1102, 3392, 3398, 3525, 3395, 5531, 5532, 5533, 5446
1103, 2484, 752, 2817, 2483, 5534, 4324, 5530, 4161
1104, 3528, 3527, 3529, 3526, 5535, 5536, 5537, 5538
1105, 3436, 2474, 2472, 3023, 5539, 5540, 5541, 5542
1106, 2746, 2756, 2758, 2790, 4249, 5543, 5544, 5545
1107, 2737, 2739, 2519, 2738, 4978, 5546, 5325, 4990
1108, 2739, 2467, 2520, 2519, 5005, 4542, 4032, 5546
1109, 3522, 3427, 2759, 2757, 5547, 5548, 5549, 5550
1110, 3354, 3530, 2381, 2396, 5551, 5552, 3972, 5258
1111, 2746, 3532, 2678, 2460, 5553, 5554, 4268, 5555
1112, 2518, 3534, 3230, 3533, 5556, 5557, 5558, 5559
1113, 3281, 608, 607, 3004, 5560, 639, 4645, 5333
1114, 3340, 3537, 721, 163, 5561, 5562, 724, 5238
1115, 3256, 3258, 3540, 3255, 5563, 5564, 5565, 4954
1116, 2767, 2539, 2537, 3024, 4263, 4043, 5566, 4665
1117, 2560, 2393, 2268, 2267, 5567, 5568, 5096, 5569
1118, 3545, 3548, 3549, 3547, 5570, 5571, 5572, 5573
1119, 3378, 3550, 3551, 3379, 5574, 5575, 5576, 5577
1120, 3299, 3298, 3552, 3297, 5054, 5578, 5579, 5580
1121, 2693, 2699, 2262, 2369, 5581, 5582, 5583, 4279
1122, 2261, 2263, 2369, 2262, 5584, 5585, 5583, 5586
1123, 2261, 2262, 2699, 2264, 5586, 5582, 5587, 5588
1124, 3552, 3120, 3241, 3297, 5589, 5590, 5591, 5579
1125, 2123, 2122, 3011, 3094, 4866, 4656, 4749, 5437
1126, 3229, 3023, 2472, 3230, 5342, 5541, 5592, 4899
1127, 2473, 2619, 3542, 2472, 5593, 5594, 5595, 5596
1128, 3141, 3140, 3553, 3139, 5597, 5598, 5599, 5600
1129, 3554, 3228, 3558, 3557, 5601, 5602, 5603, 5604
1130, 3086, 3560, 3561, 3559, 5605, 5606, 5607, 5608
1131, 2537, 2538, 2540, 3541, 4042, 4048, 5609, 5610
1132, 2498, 3401, 3535, 3402, 5611, 5612, 5613, 5427
1133, 2684, 751, 752, 2484, 5614, 759, 5534, 4164
1134, 2992, 2994, 3025, 2993, 5615, 5616, 4906, 4742
1135, 2573, 2428, 3039, 2608, 5240, 5002, 5617, 4974
1136, 2189, 2190, 2352, 3143, 3862, 4965, 4817, 5618
1137, 2235, 3277, 2608, 3039, 5619, 5620, 5617, 4691
1138, 619, 2703, 93, 157, 5621, 4188, 681, 651
1139, 3265, 3425, 700, 2954, 5351, 5622, 5623, 4969
1140, 3554, 3555, 3227, 3228, 5624, 5625, 4901, 5601
1141, 2568, 73, 69, 2362, 5200, 687, 4351, 4311
1142, 2316, 2411, 2616, 2276, 3994, 4167, 5626, 4346
1143, 2687, 2881, 2276, 2616, 5093, 4439, 5626, 4166
1144, 3562, 3564, 3209, 3207, 5627, 5628, 4883, 5629
1145, 2624, 2766, 3251, 2765, 4259, 4941, 5630, 5631
1146, 2517, 2518, 3533, 3437, 5632, 5559, 5633, 5373
1147, 2869, 2766, 2653, 2870, 4942, 4258, 5634, 5635
1148, 3444, 3497, 3462, 3502, 5486, 5636, 5637, 5638
1149, 2711, 2712, 2272, 2273, 5639, 5640, 5061, 5641
1150, 3196, 3197, 3028, 3199, 5642, 5643, 5644, 5645
1151, 2637, 2479, 3067, 2708, 5646, 5647, 5648, 5649
1152, 3057, 2960, 2959, 2528, 4713, 5650, 5651, 5652
1153, 2958, 2957, 2438, 2959, 4570, 5653, 5654, 5655
1154, 3071, 3068, 3173, 3372, 5304, 4848, 5284, 5656
1155, 3427, 3012, 3013, 2759, 5358, 5657, 5658, 5548
1156, 3555, 3554, 3432, 3556, 5624, 5659, 5660, 5661
1157, 3131, 2463, 2231, 2326, 4799, 5662, 3940, 5663
1158, 2891, 2843, 2657, 2384, 5082, 5115, 5664, 4472
1159, 2114, 2386, 2384, 2657, 3825, 3958, 5664, 4139
1160, 2765, 3251, 3570, 2768, 5630, 5665, 5666, 4261
1161, 2713, 2715, 3343, 2712, 5667, 5668, 5669, 5670
1162, 2713, 2717, 3573, 2715, 5671, 5672, 5673, 5667
1163, 3109, 3108, 2950, 2949, 5674, 5675, 5676, 5677
1164, 3364, 3064, 3071, 3372, 5401, 5678, 5656, 5283
1165, 2562, 2448, 2292, 2761, 4061, 4751, 5679, 4625
1166, 3400, 2761, 2292, 2517, 5309, 5679, 4637, 5372
1167, 2314, 2487, 3282, 2486, 5680, 5681, 5682, 5683
1168, 3180, 2486, 3282, 3581, 5684, 5682, 5685, 5686
1169, 2976, 2630, 2631, 2931, 5226, 4121, 5066, 5125
1170, 3583, 3582, 3296, 3267, 5687, 5688, 5048, 5689
1171, 3386, 3433, 3438, 3434, 5690, 5691, 5692, 5693
1172, 3008, 3009, 3310, 3210, 4654, 5694, 5695, 4892
1173, 3338, 3587, 3129, 3131, 5696, 5697, 4800, 5698
1174, 3469, 145, 4, 3291, 5411, 666, 5699, 5700
1175, 2300, 2301, 598, 597, 5062, 4456, 629, 5701
1176, 2186, 2151, 2596, 2588, 5702, 5403, 4840, 5703
1177, 3007, 2172, 2163, 3006, 4863, 3851, 5704, 5705
1178, 3595, 3045, 3405, 3594, 5706, 5707, 5708, 5709
1179, 2520, 2933, 2418, 2459, 4541, 5710, 5711, 4033
1180, 3147, 2933, 2862, 2913, 5712, 4540, 5713, 5714
1181, 3590, 3006, 2163, 3531, 5715, 5704, 5716, 5717
1182, 3597, 3591, 3599, 3245, 5718, 5719, 5720, 5721
1183, 2226, 3246, 3597, 3245, 4932, 5722, 5721, 5723
1184, 3170, 3257, 3214, 3312, 5724, 5725, 5170, 5726
1185, 3354, 3601, 3589, 3530, 5727, 5728, 5729, 5551
1186, 3189, 2587, 3171, 3188, 5730, 4842, 5731, 5732
1187, 423, 424, 2237, 2235, 443, 5733, 3884, 4690
1188, 3188, 3171, 3603, 3602, 5731, 5734, 5735, 5736
1189, 2141, 2459, 2418, 2140, 4034, 5711, 4632, 3834
1190, 3606, 3608, 3104, 3607, 5737, 5738, 5739, 5740
1191, 3243, 2904, 2902, 3059, 5741, 4495, 5742, 5743
1192, 3606, 3607, 3609, 3605, 5740, 5744, 5745, 5746
1193, 3580, 3113, 3111, 3579, 5747, 5748, 5749, 5750
1194, 2336, 2162, 170, 125, 5751, 5525, 672, 5752
1195, 2158, 2157, 2416, 2156, 5400, 3983, 5753, 5754
1196, 3006, 3590, 3530, 3589, 5715, 5755, 5729, 5756
1197, 2405, 2404, 2480, 2478, 5757, 5758, 4017, 5759
1198, 3424, 699, 700, 3425, 5760, 709, 5622, 5350
1199, 473, 474, 3611, 3160, 493, 5761, 5762, 4826
1200, 3612, 2242, 2548, 3181, 5763, 5764, 4862, 5765
1201, 3612, 3613, 2244, 2242, 5766, 5767, 3896, 5763
1202, 3021, 3522, 2757, 2760, 5768, 5550, 5769, 5770
1203, 3615, 3162, 3614, 3020, 5771, 5772, 5773, 5774
1204, 2972, 2971, 3349, 3165, 4639, 5775, 5776, 5777
1205, 2526, 2245, 2253, 2409, 5778, 5779, 5780, 5781
1206, 2465, 2943, 160, 711, 5140, 4715, 712, 5074
1207, 2542, 3617, 3542, 2619, 5782, 5783, 5594, 4795
1208, 2673, 2672, 2988, 2671, 4183, 5784, 5785, 5786
1209, 3210, 3310, 2872, 3309, 5695, 5787, 5788, 5171
1210, 2674, 2671, 2988, 2675, 5789, 5785, 5790, 5791
1211, 2671, 2674, 3156, 2673, 5789, 5792, 5793, 5786
1212, 133, 3652, 3331, 137, 5794, 5795, 5796, 669
1213, 137, 3331, 3292, 141, 5796, 5166, 5797, 668
1214, 3061, 2150, 2155, 2192, 5798, 3844, 3867, 5799
1215, 2738, 2592, 2590, 3089, 5326, 4206, 5217, 4991
1216, 3338, 3131, 2326, 3335, 5698, 5663, 5800, 5187
1217, 3625, 3394, 3626, 3273, 5801, 5802, 5803, 5804
1218, 2988, 2989, 3348, 2675, 5805, 5806, 5221, 5790
1219, 2327, 2328, 3335, 2326, 5807, 5808, 5800, 3942
1220, 2912, 3563, 3147, 2913, 5809, 5810, 5714, 4505
1221, 2933, 3147, 3000, 2418, 5712, 5811, 4633, 5710
1222, 3047, 3630, 2422, 3629, 5812, 5813, 5814, 5815
1223, 2994, 2992, 2835, 2696, 5615, 5816, 4358, 5817
1224, 3316, 3260, 3189, 3317, 5159, 5818, 5819, 5820
1225, 2310, 3294, 3334, 2309, 5821, 5195, 5822, 3911
1226, 3386, 3602, 3603, 3380, 5823, 5735, 5824, 5825
1227, 721, 3537, 2271, 3631, 5562, 5826, 5827, 5828
1228, 3340, 3536, 3177, 3537, 5829, 5830, 5831, 5561
1229, 2735, 3637, 2551, 3636, 5832, 5833, 5834, 5835
1230, 3115, 159, 692, 3100, 4771, 701, 5836, 5837
1231, 3638, 3344, 2787, 3483, 5838, 5232, 5839, 5840
1232, 2221, 2220, 3639, 2222, 5841, 5842, 5843, 5844
1233, 3639, 3640, 3641, 3447, 5845, 5846, 5847, 5848
1234, 2216, 3451, 3644, 2952, 5849, 5850, 5851, 5852
1235, 2920, 2922, 3049, 2921, 4989, 5853, 5854, 4697
1236, 2749, 3645, 3349, 2971, 5855, 5856, 5775, 4755
1237, 2453, 2455, 2770, 3146, 4007, 5857, 5858, 5859
1238, 2770, 2455, 3649, 2769, 5857, 5860, 5861, 5862
1239, 2247, 2248, 2392, 2356, 3887, 3967, 4468, 5076
1240, 2321, 2952, 2211, 2212, 5863, 5864, 4009, 4337
1241, 2230, 2914, 3568, 3648, 4510, 5865, 5866, 5867
1242, 2109, 466, 467, 2108, 5868, 486, 5089, 3818
1243, 3047, 3629, 751, 2684, 5815, 5869, 5614, 5870
1244, 2455, 2454, 3263, 3649, 4006, 5871, 5872, 5860
1245, 2589, 610, 609, 2591, 5873, 641, 4158, 4086
1246, 2454, 3264, 3654, 3263, 5874, 5875, 5876, 5871
1247, 2544, 2545, 2940, 3403, 4049, 5877, 5878, 5879
1248, 2864, 2863, 3496, 2815, 4556, 5880, 5488, 5080
1249, 2238, 2236, 3341, 2144, 3882, 5209, 5881, 5882
1250, 2533, 2532, 3651, 2534, 5471, 5883, 5884, 4835
1251, 2956, 3042, 3126, 3041, 5885, 4787, 5886, 4970
1252, 3431, 3659, 2894, 2866, 5887, 5888, 4488, 5889
1253, 2425, 3661, 3511, 3660, 5890, 5891, 5892, 5893
1254, 2431, 2572, 2217, 2269, 5131, 5894, 4538, 4111
1255, 2425, 3663, 3616, 3662, 5895, 5896, 5897, 5898
1256, 2425, 3660, 2261, 3663, 5893, 5899, 5900, 5895
1257, 2295, 2897, 2889, 2896, 4780, 4736, 5901, 5902
1258, 2895, 2896, 2889, 2471, 5903, 5901, 5480, 5502
1259, 2915, 3665, 3666, 3664, 5904, 5905, 5906, 5907
1260, 3224, 3262, 3491, 3553, 5908, 5909, 5910, 5911
1261, 3490, 3139, 3553, 3491, 5467, 5599, 5910, 5912
1262, 2874, 3668, 3669, 2873, 5913, 5914, 5915, 4444
1263, 125, 121, 2677, 2336, 673, 5916, 4887, 5752
1264, 2919, 2918, 2427, 2917, 5917, 5918, 5919, 5920
1265, 2925, 2649, 2652, 2924, 5921, 4689, 5014, 4524
1266, 2964, 2963, 2888, 2886, 5922, 5506, 4460, 5923
1267, 2964, 2886, 2887, 2965, 5923, 4459, 5924, 5925
1268, 3142, 3047, 3046, 3670, 5926, 5927, 5928, 5929
1269, 77, 2774, 2183, 81, 5201, 5137, 3875, 685
1270, 3328, 2871, 3598, 3329, 5930, 5931, 5932, 5933
1271, 2452, 3669, 3668, 3667, 5934, 5914, 5935, 5936
1272, 3254, 3439, 3437, 3617, 5937, 5374, 5938, 5939
1273, 3239, 3650, 2855, 2848, 5940, 5941, 5942, 5943
1274, 2634, 2458, 2456, 2215, 5944, 4012, 4648, 4187
1275, 2332, 3163, 3673, 2333, 4830, 5945, 5946, 4521
1276, 3064, 2867, 2865, 3071, 4717, 5947, 5948, 5678
1277, 2978, 3674, 3592, 2501, 5949, 5950, 5951, 5952
1278, 2339, 2885, 3675, 3240, 5953, 5954, 5955, 4931
1279, 2517, 2291, 3534, 2518, 4636, 5956, 5556, 5632
1280, 2291, 2102, 3558, 3534, 4643, 5957, 5958, 5956
1281, 2656, 3051, 2579, 2578, 5959, 5083, 4078, 4999
1282, 2656, 3052, 2241, 3051, 5960, 5116, 5084, 5959
1283, 2332, 2258, 2357, 2335, 4523, 3938, 4758, 5961
1284, 2961, 2962, 2664, 3110, 4572, 5962, 5963, 5516
1285, 2584, 2850, 2714, 2585, 4946, 5335, 4227, 5964
1286, 2854, 2855, 3650, 3573, 4399, 5941, 5965, 5966
1287, 2409, 2253, 2678, 3532, 5780, 4888, 5554, 5967
1288, 3211, 3212, 3678, 3137, 5968, 5969, 5970, 5971
1289, 2948, 3679, 3324, 3316, 5972, 5973, 5160, 5974
1290, 2757, 2759, 3449, 2758, 5549, 5975, 5976, 5977
1291, 2720, 2923, 2965, 2887, 4589, 5978, 5924, 4512
1292, 2790, 2758, 3449, 2410, 5544, 5976, 5979, 5980
1293, 3643, 3642, 2228, 2854, 5981, 5982, 4396, 5983
1294, 3680, 3681, 2167, 3289, 5984, 5985, 5203, 5986
1295, 3408, 3407, 3304, 2466, 5987, 5988, 5071, 5989
1296, 3026, 3057, 2528, 2529, 4714, 5652, 5990, 5020
1297, 3050, 3304, 3407, 2960, 5141, 5988, 5991, 4712
1298, 2341, 2626, 2270, 3154, 4847, 4114, 5992, 5993
1299, 2269, 2218, 3154, 2270, 4537, 5994, 5992, 4112
1300, 2708, 2219, 2636, 2637, 5995, 5996, 4126, 5649
1301, 2189, 3143, 3144, 2268, 5618, 5035, 5997, 5998
1302, 3512, 2307, 3683, 3513, 5999, 6000, 6001, 6002
1303, 2708, 2707, 2218, 2219, 6003, 6004, 4536, 5995
1304, 2424, 3610, 3486, 2426, 6005, 6006, 6007, 6008
1305, 3559, 3685, 3075, 3073, 6009, 6010, 6011, 6012
1306, 2281, 3054, 2704, 2278, 4702, 6013, 4190, 3902
1307, 2840, 756, 2268, 3144, 4451, 5097, 5997, 5034
1308, 3562, 3207, 3356, 3448, 5629, 6014, 6015, 6016
1309, 3662, 3689, 3691, 3151, 6017, 6018, 6019, 6020
1310, 3695, 3694, 3580, 3693, 6021, 6022, 6023, 6024
1311, 2942, 2571, 2569, 3231, 4729, 4072, 4910, 5133
1312, 2566, 2946, 3272, 2567, 4738, 6025, 6026, 4066
1313, 3553, 3140, 3670, 2939, 5598, 6027, 6028, 6029
1314, 2315, 2939, 3670, 2940, 6030, 6028, 6031, 6032
1315, 3356, 3207, 3208, 3355, 6014, 4882, 5271, 5262
1316, 3634, 2289, 3401, 3684, 6033, 6034, 6035, 6036
1317, 2552, 3634, 3647, 3699, 6037, 6038, 6039, 6040
1318, 2935, 2937, 3122, 2936, 5021, 6041, 6042, 6043
1319, 2237, 424, 425, 2930, 5733, 444, 6044, 4531
1320, 2854, 3573, 2717, 3643, 5966, 5672, 6045, 5983
1321, 2991, 2135, 2870, 2653, 4613, 6046, 5634, 4790
1322, 2491, 2492, 3500, 2494, 6047, 5496, 6048, 6049
1323, 3419, 3418, 3337, 3417, 6050, 6051, 6052, 6053
1324, 2263, 2916, 3510, 2371, 6054, 6055, 6056, 6057
1325, 3100, 692, 3708, 3099, 5836, 6058, 6059, 6060
1326, 2254, 2255, 2397, 2257, 6061, 3977, 6062, 6063
1327, 2251, 3097, 3099, 3098, 6064, 6065, 6066, 6067
1328, 3337, 3335, 2328, 3417, 5188, 5808, 6068, 6052
1329, 154, 2811, 3611, 474, 4445, 6069, 5761, 494
1330, 3160, 3611, 2323, 2304, 5762, 6070, 3917, 5142
1331, 2810, 2323, 3611, 2811, 4333, 6070, 6069, 4424
1332, 2509, 2508, 2595, 2507, 6071, 4238, 6072, 6073
1333, 3380, 3603, 2476, 2475, 5824, 6074, 4039, 6075
1334, 2666, 2668, 2487, 2667, 6076, 6077, 6078, 6079
1335, 3002, 3003, 2451, 2830, 6080, 6081, 4820, 6082
1336, 2654, 3282, 2487, 2668, 6083, 5681, 6077, 4997
1337, 3656, 2534, 3651, 3711, 6084, 5884, 6085, 6086
1338, 3155, 429, 430, 3278, 6087, 449, 5279, 4984
1339, 2800, 3709, 3619, 2801, 6088, 6089, 6090, 4303
1340, 2433, 2438, 2742, 2741, 6091, 6092, 4236, 4243
1341, 2370, 2369, 2263, 2371, 4280, 5585, 6057, 6093
1342, 2633, 2752, 2576, 2632, 4244, 6094, 4561, 4123
1343, 2576, 2752, 614, 615, 6094, 4246, 646, 5354
1344, 3596, 3351, 3352, 3420, 6095, 5234, 5339, 6096
1345, 2663, 3038, 3287, 2652, 5119, 5011, 5012, 4688
1346, 3310, 2874, 2354, 2872, 6097, 4443, 4433, 5787
1347, 2130, 2128, 598, 599, 3829, 6098, 630, 6099
1348, 601, 2642, 3287, 602, 4515, 5013, 5010, 633
1349, 2523, 2524, 3018, 2525, 6100, 6101, 6102, 4663
1350, 3014, 3063, 2158, 2156, 6103, 4719, 5754, 6104
1351, 3306, 2419, 3569, 3307, 5086, 6105, 6106, 6107
1352, 2625, 3404, 2366, 3080, 5316, 6108, 6109, 4791
1353, 3280, 465, 466, 2109, 5448, 485, 5868, 6110
1354, 3280, 2109, 2107, 3279, 6110, 3821, 6111, 6112
1355, 2272, 3093, 3715, 2274, 6113, 6114, 6115, 5059
1356, 3713, 3022, 2756, 2745, 6116, 6117, 4248, 6118
1357, 3042, 2956, 3716, 3062, 5885, 6119, 6120, 6121
1358, 2837, 2838, 2441, 2439, 6122, 6123, 4030, 6124
1359, 3232, 3614, 3162, 3219, 6125, 5772, 6126, 6127
1360, 2311, 2309, 3719, 3718, 3908, 6128, 6129, 6130
1361, 2533, 3166, 3715, 3093, 4834, 6131, 6114, 5472
1362, 2559, 2392, 2393, 2560, 4469, 3966, 5567, 6132
1363, 2310, 2312, 2816, 3469, 3910, 4724, 5412, 6133
1364, 3521, 2973, 2595, 2742, 6134, 4604, 4237, 6135
1365, 2666, 3293, 3318, 3052, 6136, 6137, 5117, 6138
1366, 3293, 2861, 2385, 3318, 6139, 4470, 5118, 6137
1367, 603, 2661, 2662, 604, 5120, 4146, 5015, 635
1368, 2333, 607, 608, 2260, 6140, 639, 4548, 4522
1369, 2906, 3720, 3712, 2902, 6141, 6142, 6143, 4494
1370, 3016, 2907, 3721, 3333, 6144, 6145, 6146, 5180
1371, 2129, 2769, 3649, 2131, 6147, 5861, 6148, 3827
1372, 741, 2441, 2838, 165, 5050, 6123, 6149, 744
1373, 3149, 3148, 3389, 3305, 4828, 6150, 6151, 6152
1374, 3687, 3688, 3349, 3645, 6153, 6154, 5856, 6155
1375, 3349, 3688, 3168, 3165, 6154, 6156, 4837, 5776
1376, 3340, 2121, 2265, 3536, 5205, 3992, 6157, 5829
1377, 3428, 3429, 3411, 3459, 5361, 6158, 6159, 6160
1378, 2381, 3530, 3590, 3531, 5552, 5755, 5717, 6161
1379, 2715, 3573, 3650, 3585, 5673, 5965, 6162, 6163
1380, 2144, 2148, 2607, 2238, 3840, 5390, 6164, 5882
1381, 3244, 2716, 2565, 2567, 6165, 4687, 4067, 6166
1382, 2166, 2363, 2103, 2104, 5114, 4686, 6167, 5204
1383, 2757, 2758, 2756, 2760, 5977, 5543, 6168, 5769
1384, 3021, 2760, 2756, 3022, 5770, 6168, 6117, 5344
1385, 2587, 2187, 2186, 2588, 6169, 6170, 5703, 4843
1386, 2658, 2659, 606, 605, 5191, 5329, 637, 5017
1387, 2916, 3509, 3303, 3510, 6171, 6172, 6173, 6055
1388, 2288, 2286, 3466, 3635, 3904, 6174, 6175, 6176
1389, 2186, 2187, 3314, 2185, 6170, 6177, 6178, 6179
1390, 2421, 2396, 2382, 3311, 5256, 3971, 6180, 5099
1391, 3724, 3723, 3725, 3722, 6181, 6182, 6183, 6184
1392, 2751, 3101, 595, 596, 4761, 5270, 627, 6185
1393, 2611, 2890, 2852, 2859, 4709, 4465, 4409, 5104
1394, 2607, 3277, 2235, 2238, 6186, 5619, 3883, 6164
1395, 3469, 3291, 3294, 2310, 5700, 5168, 5821, 6133
1396, 3312, 3309, 3328, 3314, 5169, 6187, 6188, 6189
1397, 3314, 3328, 3329, 2185, 6188, 5933, 6190, 6178
1398, 3524, 2764, 166, 734, 6191, 4255, 737, 5527
1399, 3311, 3364, 3363, 3308, 6192, 5282, 6193, 5100
1400, 3306, 3307, 3719, 3727, 6107, 6194, 6195, 6196
1401, 2701, 2283, 2950, 3108, 4767, 6197, 5675, 6198
1402, 3281, 2676, 609, 608, 5215, 4159, 640, 5560
1403, 2911, 2913, 2862, 2159, 4506, 5713, 5251, 6199
1404, 3243, 3244, 3728, 2904, 6200, 6201, 6202, 5741
1405, 2903, 2904, 3728, 2905, 4492, 6202, 6203, 6204
1406, 2983, 3008, 3215, 2982, 4651, 4891, 6205, 4609
1407, 3230, 3534, 3558, 3228, 5557, 5958, 5602, 4900
1408, 2198, 2188, 2200, 2248, 3858, 3864, 3968, 3886
1409, 2173, 3709, 164, 2201, 6206, 6207, 6208, 3870
1410, 2497, 2312, 2311, 2439, 4721, 3909, 6209, 4029
1411, 2837, 2175, 2205, 2838, 6210, 3872, 6211, 6122
1412, 3093, 2272, 2712, 3343, 6113, 5640, 5669, 5473
1413, 2921, 3049, 2594, 3048, 5854, 6212, 6213, 4698
1414, 2636, 2219, 2217, 2606, 5996, 4539, 4095, 5389
1415, 3633, 2230, 3648, 3632, 6214, 5867, 6215, 6216
1416, 3632, 3648, 2250, 2252, 6215, 6217, 3891, 6218
1417, 2100, 3557, 3558, 2102, 6219, 5603, 5957, 3815
1418, 2877, 2876, 3164, 2878, 6220, 6221, 6222, 4448
1419, 2265, 2429, 2488, 2442, 3991, 6223, 6224, 6225
1420, 3197, 3729, 2966, 3295, 6226, 6227, 5023, 6228
1421, 2249, 2250, 3648, 3568, 3892, 6217, 5866, 6229
1422, 2255, 2254, 3015, 2256, 6061, 5182, 6230, 6231
1423, 2395, 2997, 2998, 694, 4792, 4615, 6232, 6233
1424, 3556, 3522, 3021, 3555, 6234, 5768, 6235, 5661
1425, 2668, 2666, 3052, 2656, 6076, 6138, 5960, 4998
1426, 3555, 3021, 3229, 3227, 6235, 5343, 4898, 5625
1427, 2890, 2285, 2701, 2700, 4708, 4768, 4181, 4463
1428, 3166, 2535, 3550, 3378, 4833, 6236, 5574, 5294
1429, 3109, 2672, 2701, 3108, 6237, 4182, 6198, 5674
1430, 2492, 2491, 3565, 2493, 6047, 6238, 6239, 6240
1431, 2871, 3328, 3309, 2872, 5930, 6187, 5788, 4432
1432, 3598, 2191, 2184, 3329, 6241, 3869, 6242, 5932
1433, 3387, 3209, 3564, 3388, 6243, 5628, 6244, 5302
1434, 3653, 3652, 133, 3007, 6245, 5794, 4864, 6246
1435, 2202, 2799, 2167, 3681, 5337, 5482, 5985, 6247
1436, 3710, 2755, 3090, 2447, 6248, 6249, 6250, 6251
1437, 2170, 2171, 3313, 2169, 4580, 5410, 6252, 6253
1438, 3082, 3081, 2169, 3313, 5036, 5163, 6252, 5210
1439, 3417, 2328, 2327, 2873, 6068, 5807, 4442, 6254
1440, 3291, 4, 141, 3292, 5699, 667, 5797, 5165
1441, 2973, 3112, 3114, 2975, 6255, 6256, 6257, 4605
1442, 2229, 3730, 2856, 2228, 4508, 6258, 4397, 6259
1443, 2540, 2643, 2644, 3541, 4132, 4131, 6260, 5609
1444, 3608, 2376, 2377, 3104, 6261, 3957, 4765, 5738
1445, 3575, 2882, 2878, 3577, 6262, 4449, 6263, 6264
1446, 3575, 2284, 2351, 2882, 6265, 3930, 4446, 6262
1447, 3678, 3212, 2726, 2725, 5969, 6266, 6267, 6268
1448, 2404, 2951, 2477, 2480, 6269, 6270, 4018, 5758
1449, 3434, 2951, 2947, 3588, 6271, 6272, 6273, 6274
1450, 2622, 2755, 3710, 2788, 5177, 6248, 6275, 4896
1451, 2764, 3524, 3735, 3726, 6191, 6276, 6277, 6278
1452, 3279, 2107, 3736, 3690, 6111, 6279, 6280, 6281
1453, 2110, 3048, 3736, 2107, 4699, 6282, 6279, 3820
1454, 3589, 3653, 3007, 3006, 6283, 6246, 5705, 5756
1455, 3632, 3600, 3737, 3633, 6284, 6285, 6286, 6216
1456, 3267, 2296, 2710, 2836, 4971, 5376, 4365, 6287
1457, 2199, 2359, 2353, 2197, 4212, 4966, 4251, 3860
1458, 2967, 2970, 3737, 3600, 6288, 6289, 6285, 6290
1459, 2693, 2694, 3739, 2699, 4176, 6291, 6292, 5581
1460, 2800, 2812, 735, 736, 4302, 6293, 739, 6294
1461, 2680, 2681, 3739, 2682, 6295, 6296, 6297, 6298
1462, 2211, 2952, 3644, 3450, 5864, 5851, 6299, 6300
1463, 2672, 3109, 3740, 2988, 6237, 6301, 6302, 5784
1464, 2745, 3450, 3435, 3713, 6303, 6304, 6305, 6118
1465, 2594, 3199, 3028, 3226, 6306, 5644, 6307, 6308
1466, 2169, 2168, 2705, 2170, 5162, 4192, 4756, 6253
1467, 2490, 2683, 3741, 2445, 5331, 6309, 6310, 4726
1468, 2446, 2430, 3741, 2683, 4519, 6311, 6309, 4361
1469, 2694, 2692, 2365, 3037, 4179, 5046, 5229, 6312
1470, 3687, 3686, 3649, 3263, 6313, 6314, 5872, 6315
1471, 2214, 2748, 2473, 2747, 4650, 6316, 6317, 6318
1472, 2983, 2985, 3654, 3010, 4608, 6319, 6320, 4652
1473, 2967, 2968, 2979, 2970, 6321, 6322, 4597, 6288
1474, 2408, 2407, 2526, 2409, 6323, 6324, 5781, 6325
1475, 3170, 3312, 3314, 2187, 5726, 6189, 6177, 6326
1476, 2216, 2214, 2747, 3451, 5460, 6318, 5396, 5849
1477, 427, 3348, 3285, 426, 5222, 6327, 6328, 446
1478, 2989, 3284, 3285, 3348, 6329, 5007, 6327, 5806
1479, 2930, 425, 426, 3285, 6044, 445, 6328, 5006
1480, 3179, 3041, 3126, 2160, 5466, 5886, 6330, 5321
1481, 2954, 700, 159, 2953, 5623, 710, 4770, 4569
1482, 2911, 2159, 2160, 3126, 6199, 5254, 6330, 4786
1483, 2472, 2474, 2747, 2473, 5540, 5397, 6317, 5596
1484, 3338, 3336, 3248, 3620, 5186, 6331, 6332, 6333
1485, 2427, 2918, 3362, 3034, 5918, 6334, 6335, 4696
1486, 3286, 3332, 3076, 2516, 5241, 6336, 6337, 5174
1487, 2919, 2944, 3362, 2918, 6338, 6339, 6334, 5917
1488, 3079, 3077, 3076, 3332, 4808, 6340, 6336, 5367
1489, 3482, 2784, 2736, 3742, 6341, 6342, 6343, 6344
1490, 3678, 2515, 2516, 3076, 6345, 4588, 6337, 6346
1491, 2145, 2143, 2405, 2478, 3838, 6347, 5759, 6348
1492, 2742, 2438, 2957, 3521, 6092, 5653, 5522, 6135
1493, 3296, 3419, 2453, 3146, 6349, 6350, 5859, 5049
1494, 3331, 3652, 3601, 3339, 5795, 6351, 6352, 5193
1495, 3334, 3339, 3601, 3727, 5194, 6352, 6353, 6354
1496, 3727, 3601, 3354, 3306, 6353, 5727, 5257, 6196
1497, 2214, 2213, 2635, 2215, 5463, 4420, 4184, 4647
1498, 2265, 2442, 2793, 2794, 6225, 6355, 4859, 6356
1499, 2488, 2489, 2793, 2442, 4377, 5429, 6355, 6224
1500, 2268, 2393, 2200, 2189, 5568, 3969, 3863, 5998
1501, 3438, 3433, 3381, 3161, 5691, 6357, 6358, 6359
1502, 3380, 3381, 3433, 3386, 5348, 6357, 5690, 5825
1503, 2624, 3019, 3017, 2623, 6360, 4666, 6361, 5314
1504, 3546, 3746, 3130, 3745, 6362, 6363, 6364, 6365
1505, 2422, 168, 751, 3629, 6366, 758, 5869, 5814
1506, 3706, 3705, 2504, 3707, 6367, 6368, 6369, 6370
1507, 2505, 2506, 3707, 2504, 6371, 6372, 6369, 6373
1508, 3043, 3044, 3747, 2368, 6374, 6375, 6376, 6377
1509, 2861, 3293, 2543, 2546, 6139, 6378, 4051, 5381
1510, 2666, 2667, 2543, 3293, 6079, 6379, 6378, 6136
1511, 2534, 3656, 3550, 2535, 6084, 6380, 6236, 4832
1512, 3486, 2963, 3661, 2426, 5503, 6381, 6382, 6007
1513, 2424, 2426, 3661, 2425, 6008, 6382, 5890, 6383
1514, 2586, 3307, 3569, 2614, 6384, 6106, 6385, 4103
1515, 3391, 3390, 3138, 3134, 6386, 6387, 4810, 6388
1516, 3744, 3506, 2223, 3743, 6389, 6390, 6391, 6392
1517, 2155, 2151, 2186, 2184, 3843, 5702, 6393, 3868
1518, 3645, 2749, 2750, 3646, 5855, 4759, 6394, 6395
1519, 3594, 3405, 2623, 3017, 5708, 5317, 6361, 6396
1520, 2457, 2541, 3748, 2542, 6397, 6398, 6399, 4797
1521, 3643, 3700, 3069, 3642, 6400, 6401, 6402, 5981
1522, 3697, 3696, 3694, 3695, 6403, 6404, 6021, 6405
1523, 2451, 3290, 2498, 2495, 6406, 6407, 4035, 6408
1524, 697, 698, 3289, 2104, 707, 6409, 5202, 6410
1525, 3654, 2985, 3168, 3688, 6319, 6411, 6156, 6412
1526, 3643, 2717, 3353, 3700, 6045, 6413, 6414, 6400
1527, 2573, 2575, 2572, 2574, 4977, 6415, 5130, 4480
1528, 3024, 3025, 2994, 2523, 6416, 5616, 6417, 4662
1529, 2696, 2524, 2523, 2994, 4174, 6100, 6417, 5817
1530, 3568, 3664, 3666, 3750, 6418, 5906, 6419, 6420
1531, 2914, 2915, 3664, 3568, 6421, 5907, 6418, 5865
1532, 3751, 3730, 2230, 3633, 6422, 4511, 6214, 6423
1533, 3141, 3142, 3670, 3140, 6424, 5929, 6027, 5597
1534, 3097, 2251, 2249, 3566, 6064, 3889, 6425, 6426
1535, 3305, 2779, 3752, 3149, 6427, 6428, 6429, 6152
1536, 2545, 2320, 2315, 2940, 6430, 3913, 6032, 5877
1537, 2993, 3234, 2306, 2995, 4905, 6431, 6432, 4739
1538, 2307, 2308, 2995, 2306, 6433, 6434, 6432, 6435
1539, 2868, 3033, 3570, 3251, 6436, 6437, 5665, 4940
1540, 2873, 3669, 3419, 3417, 5915, 6438, 6053, 6254
1541, 2216, 2952, 2321, 2860, 5852, 5863, 6439, 5461
1542, 3562, 3641, 3367, 3368, 6440, 6441, 5274, 6442
1543, 2507, 2593, 3199, 2594, 6443, 6444, 6306, 6445
1544, 2624, 2765, 2767, 3019, 5631, 4264, 4667, 6360
1545, 3509, 2916, 3660, 3511, 6171, 6446, 5892, 6447
1546, 2263, 2261, 3660, 2916, 5584, 5899, 6446, 6054
1547, 2956, 2955, 3237, 3716, 4567, 6448, 6449, 6119
1548, 3062, 3716, 3237, 3235, 6120, 6449, 6450, 6451
1549, 2644, 2646, 3234, 3233, 4130, 6452, 4908, 6453
1550, 2644, 3233, 3025, 3541, 6453, 4907, 6454, 6260
1551, 3719, 3307, 2586, 3718, 6194, 6384, 6455, 6129
1552, 2174, 3145, 3718, 2586, 4894, 6456, 6455, 4102
1553, 3270, 3754, 3192, 3753, 6457, 6458, 6459, 6460
1554, 3737, 3738, 3751, 3633, 6461, 6462, 6423, 6286
1555, 3511, 2964, 2965, 3509, 6463, 5925, 6464, 6447
1556, 3661, 2963, 2964, 3511, 6381, 5922, 6463, 5891
1557, 2675, 3347, 3755, 2674, 5224, 6465, 6466, 5791
1558, 3737, 2970, 2980, 3738, 6289, 4596, 6467, 6461
1559, 3739, 2681, 2264, 2699, 6296, 6468, 5587, 6292
1560, 427, 428, 3755, 3347, 447, 6469, 6465, 5223
1561, 2680, 2679, 2264, 2681, 6470, 6471, 6468, 6295
1562, 3029, 3030, 3137, 3136, 6472, 6473, 4803, 6474
1563, 2897, 2945, 3757, 2946, 4779, 6475, 6476, 4737
1564, 2145, 2478, 2479, 2637, 6348, 4016, 5646, 4125
1565, 2946, 3757, 3271, 3272, 6476, 6477, 6478, 6025
1566, 3739, 2694, 3037, 2682, 6291, 6312, 5198, 6297
1567, 3645, 3646, 3686, 3687, 6395, 6479, 6313, 6155
1568, 3727, 3719, 2309, 3334, 6195, 6128, 5822, 6354
1569, 2144, 3341, 2990, 2143, 5881, 6480, 6481, 3841
1570, 3653, 3589, 3601, 3652, 6283, 5728, 6351, 6245
1571, 2507, 2595, 2974, 2593, 6072, 4603, 6482, 6443
1572, 2989, 2990, 3341, 3284, 6483, 6480, 5208, 6329
1573, 2342, 2341, 3154, 2340, 6484, 5993, 6485, 6486
1574, 2342, 2343, 3153, 2341, 5489, 5435, 4844, 6484
1575, 3192, 3191, 3698, 3190, 6487, 6488, 6489, 6490
1576, 3199, 2593, 2974, 3196, 6444, 6482, 6491, 5645
1577, 2210, 2677, 121, 117, 4266, 5916, 674, 3894
1578, 2408, 2380, 2381, 2407, 6492, 3973, 6493, 6323
1579, 2580, 2581, 3352, 3758, 4079, 5340, 6494, 6495
1580, 2472, 3542, 3533, 3230, 5595, 6496, 5558, 5592
1581, 2474, 3436, 3713, 3435, 5539, 6497, 6305, 5398
1582, 2703, 619, 618, 2634, 5621, 650, 6498, 4186
1583, 2473, 2748, 2456, 2619, 6316, 4649, 4796, 5593
1584, 2775, 2582, 2152, 2776, 5442, 4629, 5135, 4270
1585, 2673, 3156, 2851, 2852, 5793, 4986, 4410, 4464
1586, 3047, 2684, 2685, 3046, 5870, 4163, 6499, 5927
1587, 2543, 2667, 2320, 2545, 6379, 6500, 6430, 4052
1588, 3111, 3110, 2398, 3579, 5513, 6501, 6502, 5749
1589, 3266, 3322, 3752, 3325, 5146, 6503, 6504, 6505
1590, 2779, 3116, 3325, 3752, 4773, 6506, 6504, 6428
1591, 3177, 3536, 2265, 2794, 5830, 6157, 6356, 4856
1592, 2664, 2399, 2398, 3110, 5393, 3975, 6501, 5963
1593, 2419, 3420, 2614, 3569, 6507, 5338, 6385, 6105
1594, 2526, 3531, 2163, 2245, 6508, 5716, 3850, 5778
1595, 2508, 2509, 3760, 2510, 6071, 6509, 6510, 6511
1596, 611, 610, 2589, 2564, 642, 5873, 5026, 4626
1597, 2186, 2185, 3329, 2184, 6179, 6190, 6242, 6393
1598, 2669, 2670, 2743, 3127, 4154, 4241, 6512, 6513
1599, 2508, 2510, 2743, 2741, 6511, 6514, 4240, 4239
1600, 3022, 3713, 3436, 3023, 6116, 6497, 5542, 5341
1601, 109, 105, 2860, 2321, 677, 6515, 6439, 4338
1602, 2213, 2860, 105, 101, 5462, 6515, 678, 4421
1603, 3363, 3175, 3351, 3596, 6516, 6517, 6095, 6518
1604, 2912, 3565, 2491, 3563, 6519, 6238, 6520, 5809
1605, 3650, 3239, 3711, 3651, 5940, 6521, 6085, 6522
1606, 2846, 3240, 3711, 3239, 4928, 6523, 6521, 6524
1607, 2249, 3568, 3750, 3567, 6229, 6420, 6525, 6526
1608, 2175, 2837, 3718, 3145, 6210, 6527, 6456, 4893
1609, 2249, 3567, 3236, 3566, 6526, 6528, 6529, 6425
1610, 3690, 3136, 3135, 3279, 6530, 4802, 6531, 6281
1611, 2638, 2651, 2791, 2792, 6532, 6533, 6534, 4815
1612, 2925, 2791, 2651, 2649, 5107, 6533, 4135, 5921
1613, 3424, 3406, 2202, 3681, 5353, 5323, 6247, 6535
1614, 3364, 3311, 2382, 2157, 6192, 6180, 3984, 5399
1615, 2992, 3086, 3559, 2835, 4741, 5608, 6536, 5816
1616, 2608, 3277, 2607, 2605, 5620, 6186, 4097, 4975
1617, 2572, 2575, 2605, 2217, 6415, 4976, 4096, 5894
1618, 2367, 2372, 3080, 2366, 6537, 6538, 6109, 6539
1619, 3408, 2962, 2958, 3407, 6540, 4571, 6541, 5987
1620, 2959, 2960, 3407, 2958, 5650, 5991, 6541, 5655
1621, 2311, 3718, 2837, 2439, 6130, 6527, 6124, 6209
1622, 2408, 2409, 3532, 2410, 6325, 5967, 6542, 6543
1623, 3137, 3030, 3762, 3211, 6473, 6544, 6545, 5971
1624, 2863, 2640, 2728, 3496, 5148, 4215, 5476, 5880
1625, 3164, 2876, 2972, 3165, 6221, 6546, 5777, 4836
1626, 3029, 3028, 3762, 3030, 6547, 6548, 6544, 6472
1627, 3667, 3264, 2454, 2452, 6549, 5874, 4005, 5936
1628, 3146, 2770, 2297, 2298, 5858, 6550, 4973, 5047
1629, 2935, 3211, 3762, 3295, 6551, 6545, 6552, 5022
1630, 2499, 2500, 3763, 2502, 6553, 6554, 6555, 6556
1631, 2499, 2501, 3592, 2500, 6557, 5951, 6558, 6553
1632, 3254, 3399, 3400, 3439, 6559, 5310, 5375, 5937
1633, 3764, 3152, 3151, 3691, 6560, 4823, 6019, 6561
1634, 3254, 614, 613, 3399, 6562, 645, 5311, 6559
1635, 2940, 3670, 3046, 3403, 6031, 5928, 6563, 5878
1636, 2544, 3403, 3046, 2685, 5879, 6563, 6499, 5313
1637, 3118, 3120, 3552, 3119, 4923, 5589, 6564, 6565
1638, 2708, 3067, 3066, 2707, 5648, 6566, 6567, 6003
1639, 3065, 2340, 3154, 3066, 6568, 6485, 6569, 6570
1640, 2218, 2707, 3066, 3154, 6004, 6567, 6569, 5994
1641, 2548, 2242, 2243, 3176, 5764, 3899, 4854, 6571
1642, 3320, 2136, 603, 604, 5404, 5056, 635, 6572
1643, 3709, 2800, 736, 164, 6088, 6294, 740, 6207
1644, 2847, 2848, 2855, 2856, 6573, 5942, 4398, 6574
1645, 2547, 2548, 3176, 2558, 4053, 6571, 4858, 6575
1646, 2715, 3585, 2532, 3343, 6163, 6576, 5474, 5668
1647, 3010, 3667, 3668, 3009, 6577, 5935, 6578, 4653
1648, 3650, 3651, 2532, 3585, 6522, 5883, 6576, 6162
1649, 2772, 2771, 3374, 2773, 6579, 6580, 6581, 6582
1650, 2754, 3153, 3094, 2753, 4845, 5434, 4748, 6583
1651, 2306, 3234, 2646, 2556, 6431, 6452, 6584, 4733
1652, 2645, 2557, 2556, 2646, 6585, 4058, 6584, 4129
1653, 2650, 2648, 2639, 2660, 4137, 6586, 5183, 4145
1654, 3267, 2836, 3252, 3583, 6287, 6587, 6588, 5689
1655, 2498, 3290, 3684, 3401, 6407, 6589, 6035, 5611
1656, 2959, 2434, 2432, 2528, 6590, 5524, 6591, 5651
1657, 2433, 2434, 2959, 2438, 5523, 6590, 5654, 6091
1658, 3711, 3240, 3675, 3656, 6523, 5955, 6592, 6086
1659, 2395, 694, 695, 2394, 6233, 704, 4220, 4612
1660, 2599, 2734, 3766, 2735, 6593, 6594, 6595, 6596
1661, 3091, 3092, 2778, 2370, 5028, 4917, 4281, 6597
1662, 2267, 3299, 3297, 2560, 6598, 5580, 6599, 5569
1663, 2560, 3297, 3241, 2559, 6599, 5591, 5464, 6132
1664, 2451, 3003, 3684, 3290, 6081, 6600, 6589, 6406
1665, 2398, 2255, 2256, 3579, 3974, 6231, 6601, 6502
1666, 2654, 2763, 3581, 3282, 5042, 6602, 5685, 6083
1667, 2764, 3726, 3581, 2763, 6278, 6603, 6602, 4256
1668, 3673, 606, 607, 2333, 6604, 638, 6140, 5946
1669, 2664, 2962, 3408, 2665, 5962, 6540, 6605, 5394
1670, 3649, 3686, 3756, 2131, 6314, 6606, 6607, 6148
1671, 2618, 2969, 3031, 2610, 5383, 4673, 4679, 4594
1672, 3310, 3009, 3668, 2874, 5694, 6578, 5913, 6097
1673, 2397, 2538, 2536, 2257, 4046, 4045, 6608, 6062
1674, 2768, 3570, 2536, 2539, 5666, 6609, 4044, 4262
1675, 2972, 2876, 2877, 2796, 6546, 6220, 4675, 4640
1676, 3033, 2257, 2536, 3570, 6610, 6608, 6609, 6437
1677, 2350, 3031, 2877, 2351, 4677, 4676, 4447, 3929
1678, 2639, 2648, 2651, 2638, 6586, 4136, 6532, 5150
1679, 3280, 3279, 3135, 3078, 6112, 6531, 4807, 5449
1680, 3079, 463, 464, 3078, 5366, 483, 5447, 4806
1681, 723, 2555, 2464, 161, 6611, 4060, 5075, 727
1682, 2430, 2788, 3710, 3741, 4897, 6275, 6612, 6311
1683, 2187, 2587, 3189, 3170, 6169, 5730, 6613, 6326
1684, 2997, 3001, 3080, 2372, 4794, 6614, 6538, 4616
1685, 2991, 3080, 3001, 2987, 4789, 6614, 4793, 4614
1686, 2211, 3450, 2745, 2461, 6300, 6303, 4247, 4010
1687, 3419, 3669, 2452, 2453, 6438, 5934, 4008, 6350
1688, 3537, 3177, 2243, 2271, 5831, 4855, 3898, 5826
1689, 3686, 3646, 2750, 3756, 6479, 6394, 6615, 6606
1690, 3509, 2965, 2299, 3303, 6464, 6616, 5064, 6172
1691, 597, 598, 3756, 2750, 629, 6617, 6615, 6618
1692, 2883, 2299, 2965, 2923, 4728, 6616, 5978, 4591
1693, 2725, 2680, 2682, 2724, 6619, 6298, 6620, 6621
1694, 3113, 3112, 3514, 3111, 6622, 6623, 5514, 5748
1695, 2725, 2726, 2679, 2680, 6267, 6624, 6470, 6619
1696, 2973, 3521, 3514, 3112, 6134, 5521, 6623, 6255
1697, 2826, 2827, 2888, 2829, 6625, 6626, 5505, 6627
1698, 2826, 2828, 2383, 2827, 6628, 4777, 6629, 6625
1699, 3449, 2759, 3013, 3464, 5975, 5658, 6630, 6631
1700, 2156, 2416, 3464, 3013, 5753, 6632, 6630, 6633
1701, 2390, 2888, 2827, 2383, 4461, 6626, 6629, 3965
1702, 2488, 2429, 3498, 2844, 6223, 6634, 6635, 4378
1703, 600, 601, 2709, 3128, 632, 5378, 4927, 6636
1704, 2665, 3408, 2557, 2645, 6605, 6637, 6585, 5391
1705, 2464, 2557, 3408, 2466, 4059, 6637, 5989, 5070
1706, 2513, 2511, 2934, 2999, 4535, 4545, 5134, 5126
1707, 3452, 3584, 3714, 3543, 6638, 6639, 6640, 6641
1708, 3450, 3644, 3451, 3435, 6299, 5850, 5395, 6304
1709, 3538, 3628, 3768, 3627, 6642, 6643, 6644, 6645
1710, 2376, 3608, 3768, 3628, 6261, 6646, 6643, 6647
1711, 614, 3254, 3748, 615, 6562, 6648, 6649, 646
1712, 3132, 3158, 3159, 3223, 6650, 6651, 4921, 6652
1713, 2529, 2528, 2432, 2527, 5990, 6591, 4152, 5420
1714, 3132, 3219, 3162, 3158, 6653, 6126, 6654, 6650
1715, 2542, 3748, 3254, 3617, 6399, 6648, 5939, 5782
1716, 3681, 3680, 699, 3424, 5984, 6655, 5760, 6535
1717, 3289, 698, 699, 3680, 6409, 708, 6655, 5986
1718, 2253, 2245, 2162, 2336, 5779, 3853, 5751, 4886
1719, 617, 2458, 2634, 618, 4013, 5944, 6498, 649
1720, 3124, 3125, 2506, 3123, 6656, 6657, 6658, 4784
1721, 3070, 3702, 3665, 3703, 5306, 6659, 6660, 6661
1722, 3667, 3010, 3654, 3264, 6577, 6320, 5875, 6549
1723, 3321, 2527, 2669, 2435, 5421, 4155, 6662, 5426
1724, 2746, 2790, 2410, 3532, 5545, 5980, 6542, 5553
1725, 3619, 3709, 2173, 2580, 6089, 6206, 4080, 6663
1726, 2509, 2507, 2594, 3049, 6073, 6445, 6212, 6664
1727, 3127, 2732, 2435, 2669, 5247, 4223, 6662, 6513
1728, 2343, 3409, 2266, 2123, 5492, 6665, 4867, 5436
1729, 2493, 3701, 3501, 2492, 6666, 6667, 5493, 6240
1730, 2525, 3018, 3594, 3017, 6102, 6668, 6396, 4668
1731, 3432, 3501, 3701, 3430, 5494, 6667, 6669, 6670
1732, 2225, 2234, 2695, 2224, 6671, 4172, 6672, 6673
1733, 2486, 3178, 2313, 2314, 6674, 6675, 3915, 5683
1734, 2849, 2584, 3760, 2922, 4943, 6676, 6677, 4988
1735, 2509, 3049, 2922, 3760, 6664, 5853, 6677, 6509
1736, 2585, 2510, 3760, 2584, 6678, 6510, 6676, 5964
1737, 3619, 2580, 3758, 2711, 6663, 6495, 6679, 6680
1738, 2515, 2724, 3238, 2514, 6681, 6682, 4915, 4585
1739, 3036, 3238, 2724, 2682, 4914, 6682, 6620, 5197
1740, 2711, 3758, 3352, 3350, 6679, 6494, 5237, 6683
1741, 3212, 3213, 3692, 2726, 6684, 6685, 6686, 6266
1742, 3136, 3690, 3736, 3029, 6530, 6280, 6687, 6474
1743, 3390, 3391, 3398, 3392, 6386, 6688, 5531, 5445
1744, 2537, 3541, 3025, 3024, 5610, 6454, 6416, 5566
1745, 2594, 3226, 3736, 3048, 6308, 6689, 6282, 6213
1746, 3028, 3029, 3736, 3226, 6547, 6687, 6689, 6307
1747, 3730, 3751, 2847, 2856, 6422, 6690, 6574, 6258
1748, 2552, 3699, 3636, 2551, 6040, 6691, 5834, 6692
1749, 3751, 2338, 2846, 2847, 6693, 4929, 6694, 6690
1750, 2867, 3063, 3014, 3578, 4720, 6103, 6695, 6696
1751, 2264, 2679, 3769, 3616, 6471, 6697, 6698, 6699
1752, 2679, 2726, 3692, 3769, 6624, 6686, 6700, 6697
1753, 3380, 2475, 3770, 3382, 6075, 6701, 6702, 5345
1754, 3246, 2901, 2899, 2928, 4934, 4549, 6703, 6704
1755, 2847, 2846, 3239, 2848, 6694, 6524, 5943, 6573
1756, 2521, 2317, 2318, 2522, 5459, 5123, 6705, 4902
1757, 3507, 3506, 3744, 3508, 6706, 6389, 6707, 6708
1758, 3099, 3708, 2820, 3098, 6059, 6709, 6710, 6066
1759, 2912, 2910, 3771, 3565, 4504, 6711, 6712, 6519
1760, 3235, 3765, 3771, 3062, 6713, 6714, 6715, 6451
1761, 3042, 3062, 3771, 2910, 6121, 6715, 6711, 4788
1762, 3618, 3091, 2370, 2371, 6716, 6597, 6093, 6717
1763, 2493, 3565, 3771, 3765, 6239, 6712, 6714, 6718
1764, 3076, 3077, 3137, 3678, 6340, 4804, 5970, 6346
1765, 2724, 2515, 3678, 2725, 6681, 6345, 6268, 6621
1766, 2939, 2315, 3204, 2941, 6030, 6719, 6720, 6721
1767, 3518, 3508, 3744, 3517, 6722, 6707, 6723, 6724
1768, 2314, 2320, 2667, 2487, 3914, 6500, 6078, 5680
1769, 3458, 3515, 3205, 3203, 5511, 6725, 4879, 6726
1770, 2743, 2510, 2585, 3127, 6514, 6678, 5248, 6512
1771, 3373, 2501, 2499, 2373, 6727, 6557, 6728, 5291
1772, 3326, 3330, 2499, 2502, 6729, 6730, 6556, 5246
1773, 594, 3091, 3618, 595, 5027, 6716, 6731, 626
1774, 3757, 2945, 3773, 3271, 6475, 6732, 6733, 6477
1775, 3706, 3271, 3773, 3705, 6734, 6733, 6735, 6367
1776, 3095, 2898, 2894, 3096, 6736, 4489, 6737, 6738
1777, 3172, 3175, 3363, 3173, 6739, 6516, 5285, 4851
1778, 3393, 2378, 3626, 3394, 6740, 6741, 5802, 6742
1779, 2820, 2825, 3772, 3098, 4331, 6743, 6744, 6710
1780, 3003, 3002, 3774, 3647, 6080, 6745, 6746, 6747
1781, 3662, 3616, 3769, 3689, 5897, 6698, 6748, 6017
1782, 3691, 3689, 3769, 3692, 6018, 6748, 6700, 6749
1783, 3551, 3672, 3384, 3385, 6750, 6751, 5298, 6752
1784, 2857, 3770, 2475, 2481, 6753, 6701, 4023, 4575
1785, 3562, 3448, 3447, 3641, 6016, 6754, 5847, 6440
1786, 3257, 3170, 3189, 3260, 5724, 6613, 5818, 4952
1787, 2345, 696, 697, 2344, 6755, 706, 6756, 6757
1788, 2332, 2335, 3775, 3148, 5961, 6758, 6759, 4831
1789, 3624, 2223, 2221, 3526, 6760, 6761, 6762, 6763
1790, 3054, 3056, 3775, 2704, 6764, 6765, 6766, 6013
1791, 2705, 2704, 3775, 2335, 4191, 6766, 6758, 4757
1792, 2222, 3528, 3526, 2221, 6767, 5538, 6762, 5844
1793, 2829, 2503, 3773, 2826, 6768, 6769, 6770, 6627
1794, 2504, 3705, 3773, 2503, 6368, 6735, 6769, 6771
1795, 2103, 2344, 697, 2104, 6772, 6756, 6410, 6167
1796, 3498, 2342, 2340, 3499, 5490, 6486, 6773, 6774
1797, 2526, 2407, 2381, 3531, 6324, 6493, 6161, 6508
1798, 3065, 3423, 3499, 2340, 6775, 6776, 6773, 6568
1799, 3624, 3526, 3529, 3625, 6763, 5537, 6777, 6778
1800, 3259, 3184, 3186, 3385, 4948, 6779, 6780, 5297
1801, 2995, 2308, 3560, 3086, 6434, 6781, 5605, 4740
1802, 3479, 3480, 3365, 3206, 5441, 6782, 5272, 6783
1803, 2129, 2297, 2770, 2769, 4963, 6550, 5862, 6147
1804, 3219, 3195, 3480, 3232, 6784, 6785, 5440, 6127
1805, 2210, 2461, 2746, 2460, 4011, 4250, 5555, 4267
1806, 3158, 3162, 3615, 3157, 6654, 5771, 6786, 6787
1807, 2512, 2530, 3615, 3020, 5078, 6788, 5774, 4659
1808, 3147, 3563, 3779, 3000, 5810, 6789, 6790, 5811
1809, 2329, 3676, 3780, 3677, 6791, 6792, 6793, 6794
1810, 2307, 3512, 3560, 2308, 5999, 6795, 6781, 6433
1811, 2494, 3779, 3563, 2491, 6796, 6789, 6520, 6049
1812, 2329, 2927, 3174, 3676, 6797, 6798, 6799, 6791
1813, 734, 735, 3781, 3523, 738, 6800, 6801, 5528
1814, 3750, 3666, 2898, 3095, 6419, 6802, 6736, 6803
1815, 2400, 2401, 3355, 2403, 6804, 5259, 6805, 6806
1816, 2222, 3361, 2401, 2402, 6807, 5260, 6808, 6809
1817, 3575, 3574, 3258, 3576, 6810, 6811, 6812, 6813
1818, 2791, 2325, 2294, 2792, 5106, 3921, 6814, 6534
1819, 2844, 3498, 3499, 2857, 6635, 6774, 6815, 4574
1820, 3632, 2252, 3772, 3600, 6218, 6816, 6817, 6284
1821, 2825, 2967, 3600, 3772, 6818, 6290, 6817, 6743
1822, 2251, 3098, 3772, 2252, 6067, 6744, 6816, 3890
1823, 3412, 3411, 3429, 3410, 6819, 6158, 5360, 6820
1824, 3412, 3222, 3220, 3411, 6821, 6822, 6823, 6819
1825, 3551, 3550, 3656, 3672, 5575, 6380, 6824, 6750
1826, 3384, 3672, 3656, 3675, 6751, 6824, 6592, 6825
1827, 2906, 2903, 3721, 2907, 4493, 6826, 6145, 6827
1828, 2896, 2895, 2294, 2295, 5903, 6828, 3920, 5902
1829, 3422, 3431, 2866, 3578, 5363, 5889, 6829, 6830
1830, 2462, 2233, 2231, 2463, 6831, 3935, 5662, 4798
1831, 3773, 2945, 2828, 2826, 6732, 4781, 6628, 6770
1832, 3523, 3781, 2388, 3040, 6801, 6832, 4694, 5529
1833, 3371, 3366, 3369, 3370, 6833, 5276, 6834, 6835
1834, 2389, 2388, 3781, 2387, 6836, 6832, 6837, 6838
1835, 3515, 3516, 3242, 3205, 6839, 6840, 6841, 6725
1836, 2476, 3603, 3171, 2596, 6074, 5734, 4841, 5402
1837, 3704, 3517, 3519, 3623, 6842, 5520, 6843, 6844
1838, 3622, 3519, 3476, 3621, 6845, 5519, 6846, 6847
1839, 3212, 3211, 2935, 3213, 5968, 6551, 6848, 6684
1840, 2499, 3330, 2375, 2373, 6730, 6849, 3953, 6728
1841, 3071, 2865, 2898, 3702, 5948, 4490, 6850, 5305
1842, 3434, 3438, 2477, 2951, 5692, 6851, 6270, 6271
1843, 2479, 2477, 3438, 3161, 4019, 6851, 6359, 6852
1844, 3542, 3617, 3437, 3533, 5783, 5938, 5633, 6496
1845, 2447, 3090, 162, 716, 6250, 6853, 720, 5189
1846, 2754, 2753, 3090, 2755, 6583, 4747, 6249, 5178
1847, 2504, 2503, 3610, 2505, 6771, 6854, 6855, 6373
1848, 3123, 2506, 2505, 3150, 6658, 6371, 6856, 6857
1849, 2424, 3150, 2505, 3610, 4825, 6856, 6855, 6005
1850, 3012, 3422, 3578, 3014, 5357, 6830, 6695, 6858
1851, 3262, 3261, 3525, 3491, 4956, 6859, 6860, 5909
1852, 2871, 2232, 3761, 3598, 4434, 6861, 6862, 5931
1853, 3368, 2771, 3564, 3562, 6863, 6864, 5627, 6442
1854, 3635, 3466, 3467, 3182, 6175, 5406, 6865, 6866
1855, 3012, 3014, 2156, 3013, 6858, 6104, 6633, 5657
1856, 2865, 2867, 3578, 2866, 5947, 6696, 6829, 4491
1857, 3475, 3484, 3621, 3476, 5454, 6867, 6846, 5423
1858, 2927, 3130, 3746, 3174, 6868, 6363, 6869, 6798
1859, 3196, 3198, 3729, 3197, 6870, 6871, 6226, 5642
1860, 3761, 2232, 2233, 3742, 6861, 3932, 6872, 6873
1861, 3150, 3152, 3122, 3123, 4824, 6874, 4785, 6857
1862, 3096, 3269, 3786, 3095, 6875, 6876, 6877, 6738
1863, 3543, 3544, 3746, 3546, 6878, 6879, 6362, 6880
1864, 3750, 3095, 3786, 3567, 6803, 6877, 6881, 6525
1865, 3444, 3445, 3416, 3415, 6882, 6883, 6884, 5487
1866, 3582, 3247, 3248, 3336, 6885, 4935, 6331, 6886
1867, 3459, 3455, 3359, 3428, 6887, 6888, 6889, 6160
1868, 3414, 3413, 3446, 3415, 6890, 5432, 5484, 6891
1869, 3411, 3220, 3605, 3459, 6823, 6892, 6893, 6159
1870, 3167, 3577, 2878, 3164, 6894, 6263, 6222, 4839
1871, 597, 596, 3787, 2300, 628, 6895, 6896, 5701
1872, 2371, 3510, 3787, 3618, 6056, 6897, 6898, 6717
1873, 3303, 2300, 3787, 3510, 5063, 6896, 6897, 6173
1874, 595, 3618, 3787, 596, 6731, 6898, 6895, 627
1875, 3430, 3426, 3556, 3432, 5364, 6899, 5660, 6670
1876, 3218, 3217, 3492, 3216, 6900, 5469, 6901, 6902
1877, 3522, 3556, 3426, 3427, 6234, 6899, 5355, 5547
1878, 3560, 3512, 3613, 3561, 6795, 6903, 6904, 5606
1879, 3218, 3141, 3139, 3217, 6905, 5600, 5470, 6900
1880, 2947, 2948, 3316, 3588, 6906, 5974, 6907, 6273
1881, 3723, 3724, 3592, 3674, 6181, 6908, 5950, 6909
1882, 3513, 2244, 3613, 3512, 6910, 5767, 6903, 6002
1883, 3731, 3116, 3117, 3250, 6911, 4776, 6912, 6913
1884, 3472, 3539, 3274, 3275, 6914, 6915, 6916, 6917
1885, 3273, 3274, 3788, 3276, 6918, 6919, 6920, 6921
1886, 3499, 3423, 3770, 2857, 6776, 6922, 6753, 6815
1887, 2257, 3033, 3789, 2254, 6610, 6923, 6924, 6063
1888, 3502, 3503, 3445, 3444, 6925, 6926, 6882, 5638
1889, 2868, 3720, 3789, 3033, 6927, 6928, 6923, 6436
1890, 3421, 3382, 3770, 3423, 5346, 6702, 6922, 6929
1891, 2547, 2558, 2793, 3402, 6575, 4857, 5428, 6930
1892, 3481, 3193, 3133, 3138, 6931, 4874, 4811, 6932
1893, 2784, 2787, 3345, 2783, 6933, 5231, 6934, 6935
1894, 3513, 3683, 723, 722, 6001, 6936, 726, 6937
1895, 2306, 2305, 3683, 2307, 4732, 6938, 6000, 6435
1896, 2555, 723, 3683, 2305, 6611, 6936, 6938, 4731
1897, 3379, 3551, 3385, 3186, 5576, 6752, 6780, 6939
1898, 3355, 3365, 3194, 2403, 5273, 6940, 6941, 6805
1899, 3480, 3195, 3194, 3365, 6785, 4872, 6940, 6782
1900, 3388, 3564, 2771, 2772, 6244, 6864, 6579, 6942
1901, 2233, 2462, 3482, 3742, 6831, 5450, 6344, 6872
1902, 2400, 2403, 3194, 3193, 6806, 6941, 4871, 6943
1903, 2974, 2975, 3791, 3196, 4602, 6944, 6945, 6491
1904, 3658, 3443, 3442, 3504, 6946, 5369, 5497, 6947
1905, 3493, 3494, 3621, 3463, 6948, 6949, 6950, 6951
1906, 3455, 3456, 3358, 3359, 6952, 6953, 5268, 6888
1907, 3366, 3371, 3792, 3374, 6833, 6954, 6955, 6956
1908, 2192, 2598, 2604, 3061, 4707, 4092, 6957, 5799
1909, 3792, 3371, 3370, 3620, 6954, 6835, 6958, 6959
1910, 2449, 2451, 2495, 2450, 4821, 6408, 4581, 4021
1911, 2949, 2950, 3679, 2948, 5676, 6960, 5972, 6961
1912, 3069, 3700, 3353, 3172, 6401, 6414, 6962, 4850
1913, 3363, 3596, 2420, 3308, 6518, 6963, 5101, 6193
1914, 3120, 3159, 2926, 3241, 4922, 6964, 5465, 5590
1915, 3330, 3326, 3083, 3088, 6729, 5477, 6965, 6966
1916, 3529, 3527, 3794, 3397, 5536, 6967, 6968, 6969
1917, 2955, 3115, 3571, 3237, 4772, 6970, 6971, 6448
1918, 3395, 3397, 3794, 3396, 6972, 6968, 6973, 5443
1919, 3528, 3784, 3794, 3527, 6974, 6975, 6967, 5535
1920, 3729, 3198, 3376, 2966, 6871, 6976, 5286, 6227
1921, 2552, 2551, 3493, 2550, 6692, 6977, 6978, 6979
1922, 2224, 3074, 3072, 2900, 6980, 6981, 6982, 4551
1923, 2927, 2899, 2900, 3130, 6983, 4552, 6984, 6868
1924, 2885, 2374, 2375, 2893, 6985, 3950, 6986, 6987
1925, 2885, 2339, 2337, 2374, 5953, 6988, 3951, 6985
1926, 3489, 3790, 3767, 3487, 6989, 6990, 6991, 6992
1927, 3566, 3236, 3237, 3571, 6529, 6993, 6971, 6994
1928, 3172, 3353, 3351, 3175, 6962, 5235, 6517, 6739
1929, 3056, 3389, 3148, 3775, 5300, 6150, 6759, 6765
1930, 3360, 3358, 3180, 3749, 5265, 6995, 6996, 6997
1931, 3360, 3749, 3726, 3735, 6997, 6998, 6277, 6999
1932, 2494, 3500, 3557, 2100, 6048, 7000, 6219, 7001
1933, 3581, 3726, 3749, 3180, 6603, 6998, 6996, 5686
1934, 3201, 3658, 3776, 3185, 7002, 7003, 7004, 7005
1935, 2254, 3789, 2907, 3016, 6924, 7006, 6144, 5179
1936, 3142, 3141, 3218, 3302, 6424, 6905, 7007, 7008
1937, 3216, 3298, 3302, 3218, 7009, 5053, 7007, 6902
1938, 3504, 3657, 3776, 3658, 7010, 7011, 7003, 6947
1939, 2541, 2457, 617, 616, 6397, 4014, 648, 7012
1940, 2131, 3756, 598, 2128, 6607, 6617, 6098, 3828
1941, 3415, 3416, 3504, 3414, 6884, 7013, 5500, 6891
1942, 3658, 3201, 3085, 3443, 7002, 4877, 5481, 6946
1943, 2261, 2264, 3616, 3663, 5588, 6699, 5896, 5900
1944, 2750, 2751, 596, 597, 4762, 6185, 628, 6618
1945, 3386, 3434, 3588, 3795, 5693, 6274, 7014, 7015
1946, 2906, 2907, 3789, 3720, 6827, 7006, 6928, 6141
1947, 3665, 3702, 2898, 3666, 6659, 6850, 6802, 5905
1948, 2417, 3000, 3779, 2101, 4634, 6790, 7016, 4528
1949, 3483, 2787, 2784, 3482, 5839, 6933, 6341, 5452
1950, 2783, 2782, 2736, 2784, 7017, 7018, 6342, 6935
1951, 3184, 3200, 3201, 3185, 4950, 4875, 7005, 7019
1952, 3539, 3474, 3476, 3520, 7020, 5424, 5518, 7021
1953, 3543, 3545, 3778, 3544, 7022, 7023, 7024, 6878
1954, 3112, 3113, 3793, 3114, 6622, 7025, 7026, 6256
1955, 2100, 2101, 3779, 2494, 3814, 7016, 6796, 7001
1956, 3746, 3544, 3778, 3174, 6879, 7024, 7027, 6869
1957, 2329, 3677, 3440, 2331, 6794, 7028, 7029, 3924
1958, 3479, 3206, 3209, 3387, 6783, 4884, 6243, 7030
1959, 3441, 3357, 2331, 3440, 5478, 5380, 7029, 5371
1960, 3721, 2903, 2905, 3782, 6826, 6204, 7031, 7032
1961, 3721, 3782, 3192, 3190, 7032, 7033, 6490, 7034
1962, 3366, 3374, 2771, 3368, 6956, 6580, 6863, 5277
1963, 3699, 3647, 3774, 3636, 6039, 6746, 7035, 6691
1964, 2416, 2380, 2408, 3464, 3982, 6492, 7036, 6632
1965, 3636, 3774, 3061, 2604, 7035, 7037, 6957, 7038
1966, 3128, 2130, 599, 600, 4962, 6099, 631, 6636
1967, 3456, 3655, 3180, 3358, 7039, 7040, 6995, 6953
1968, 3456, 3458, 3178, 3655, 5512, 7041, 7042, 7039
1969, 3543, 3546, 3454, 3452, 6880, 7043, 5385, 6641
1970, 3073, 3075, 3454, 3072, 6011, 5386, 7044, 7045
1971, 3109, 2949, 3799, 2406, 5677, 7046, 7047, 7048
1972, 2951, 2404, 3799, 2947, 6269, 7049, 7050, 6272
1973, 3047, 3142, 3302, 3630, 5926, 7008, 7051, 5812
1974, 2948, 2947, 3799, 2949, 6906, 7050, 7046, 6961
1975, 2405, 2406, 3799, 2404, 7052, 7047, 7049, 5757
1976, 3118, 3134, 3132, 3223, 7053, 4809, 6652, 4920
1977, 2224, 2226, 3595, 2225, 4933, 7054, 7055, 6673
1978, 3044, 3599, 3591, 3747, 7056, 5719, 7057, 6375
1979, 2524, 2234, 2225, 3018, 4173, 6671, 7058, 6101
1980, 3592, 3724, 3747, 3591, 6908, 7059, 7057, 7060
1981, 3430, 3701, 3659, 3431, 6669, 7061, 5887, 5365
1982, 3096, 2894, 3659, 3268, 6737, 5888, 7062, 7063
1983, 2419, 2420, 3596, 3420, 5085, 6963, 6096, 6507
1984, 2493, 3268, 3659, 3701, 7064, 7062, 7061, 6666
1985, 3378, 3379, 2919, 2917, 5577, 7065, 5920, 5295
1986, 2729, 2792, 2294, 2895, 4813, 6814, 6828, 5501
1987, 3594, 3018, 2225, 3595, 6668, 7058, 7055, 5709
1988, 3410, 2944, 2919, 3671, 5359, 6338, 7066, 7067
1989, 3684, 3003, 3647, 3634, 6600, 6747, 6038, 6036
1990, 695, 696, 2345, 2132, 705, 6755, 7068, 4221
1991, 2486, 3180, 3655, 3178, 5684, 7040, 7042, 6674
1992, 3053, 2522, 3614, 3232, 4903, 7069, 6125, 5439
1993, 3020, 3614, 2522, 2318, 5773, 7069, 6705, 4660
1994, 3493, 2551, 3637, 3494, 6977, 5833, 7070, 6948
1995, 2134, 2132, 2345, 3058, 3830, 7068, 7071, 7072
1996, 2223, 3624, 3276, 3743, 6760, 7073, 7074, 6391
1997, 3587, 3370, 3369, 3638, 7075, 6834, 7076, 7077
1998, 3242, 3783, 3105, 3225, 7078, 7079, 4958, 7080
1999, 3106, 3105, 3783, 3102, 4961, 7079, 7081, 7082
2000, 2836, 2795, 3731, 3252, 4364, 7083, 7084, 6587
2001, 3242, 3225, 3202, 3205, 7080, 7085, 4880, 6841
2002, 2138, 3266, 3731, 2795, 5405, 7086, 7083, 4363
2003, 3493, 3495, 3468, 2550, 7087, 7088, 7089, 6978
2004, 3224, 2941, 3204, 3202, 7090, 6720, 4881, 7091
2005, 3466, 2286, 2550, 3468, 6174, 7092, 7089, 5407
2006, 3599, 3595, 2226, 3245, 7093, 7054, 5723, 5720
2007, 3419, 3296, 3582, 3418, 6349, 5688, 7094, 6050
2008, 3116, 3731, 3266, 3325, 6911, 7086, 6505, 6506
2009, 3247, 3252, 3731, 3250, 7095, 7084, 6913, 4936
2010, 3624, 3625, 3273, 3276, 6778, 5804, 6921, 7073
2011, 3113, 3580, 3694, 3793, 5747, 6022, 7096, 7025
2012, 3696, 3732, 3793, 3694, 7097, 7098, 7096, 6404
2013, 2734, 2599, 2597, 2736, 6593, 4090, 7099, 7100
2014, 3636, 2604, 2599, 2735, 7038, 4091, 6596, 5835
2015, 3274, 3273, 3626, 3275, 6918, 5803, 7101, 6916
2016, 3133, 3195, 3219, 3132, 4873, 6784, 6653, 4812
2017, 3216, 3492, 3391, 3119, 6901, 7102, 7103, 7104
2018, 3118, 3119, 3391, 3134, 6565, 7103, 6388, 7053
2019, 3559, 3073, 2832, 2835, 6012, 7105, 4359, 6536
2020, 2224, 2695, 2832, 3074, 6672, 4360, 7106, 6980
2021, 3460, 3462, 3549, 3461, 7107, 7108, 7109, 7110
2022, 3072, 3074, 2832, 3073, 6981, 7106, 7105, 7045
2023, 3766, 2734, 3704, 3623, 6594, 7111, 6844, 7112
2024, 3768, 3767, 3790, 3627, 7113, 6990, 7114, 6644
2025, 3448, 3356, 3361, 3447, 6015, 5261, 7115, 6754
2026, 3453, 3075, 3685, 3798, 5387, 6010, 7116, 7117
2027, 3538, 3627, 3790, 3473, 6645, 7114, 7118, 7119
2028, 3517, 3704, 2782, 3518, 6842, 7120, 7121, 6724
2029, 3248, 3249, 3792, 3620, 4938, 7122, 6959, 6332
2030, 2773, 3374, 3792, 3117, 6581, 6955, 7123, 4775
2031, 2919, 3379, 3186, 3671, 7065, 6939, 7124, 7066
2032, 3184, 3187, 3671, 3186, 7125, 7126, 7124, 6779
2033, 3733, 3732, 3696, 3734, 7127, 7097, 7128, 7129
2034, 3178, 3458, 3203, 2313, 7041, 6726, 7130, 6675
2035, 2315, 2313, 3203, 3204, 3912, 7130, 4878, 6719
2036, 2372, 2367, 3803, 2996, 6537, 7131, 7132, 4617
2037, 3058, 3059, 3805, 2134, 7133, 7134, 7135, 7072
2038, 3198, 3806, 3732, 3733, 7136, 7137, 7127, 7138
2039, 3734, 3376, 3198, 3733, 7139, 6976, 7138, 7129
2040, 2935, 2936, 3764, 3213, 6043, 7140, 7141, 6848
2041, 3691, 3692, 3213, 3764, 6749, 6685, 7141, 6561
2042, 3122, 3152, 3764, 2936, 6874, 6560, 7140, 6042
2043, 2135, 2134, 3805, 2870, 3831, 7135, 7142, 6046
2044, 2902, 3712, 3805, 3059, 6143, 7143, 7134, 5742
2045, 3330, 3088, 2893, 2375, 6966, 7144, 6986, 6849
2046, 3725, 2968, 2821, 3803, 7145, 7146, 7147, 7148
2047, 3099, 3097, 3572, 3100, 6065, 7149, 7150, 6060
2048, 3571, 3115, 3100, 3572, 6970, 5837, 7150, 7151
2049, 3571, 3572, 3097, 3566, 7151, 7149, 6426, 6994
2050, 2967, 2825, 2821, 2968, 6818, 4330, 7146, 6321
2051, 2822, 2996, 3803, 2821, 7152, 7132, 7147, 4329
2052, 3717, 3161, 3381, 3421, 7153, 6358, 5347, 7154
2053, 3761, 3742, 2736, 2597, 6873, 6343, 7099, 7155
2054, 2377, 2379, 3106, 3102, 3956, 7156, 7082, 4766
2055, 2379, 3777, 3107, 3106, 7157, 7158, 4959, 7156
2056, 3796, 3640, 3802, 3346, 7159, 7160, 7161, 7162
2057, 3067, 2479, 3161, 3717, 5647, 6852, 7153, 7163
2058, 3066, 3067, 3717, 3065, 6566, 7163, 7164, 6570
2059, 3717, 3421, 3423, 3065, 7154, 6929, 6775, 7164
2060, 3612, 3181, 3586, 3797, 5765, 7165, 7166, 7167
2061, 3467, 3584, 3797, 3586, 7168, 7169, 7166, 7170
2062, 3467, 3586, 3181, 3182, 7170, 7165, 4861, 6865
2063, 3576, 3032, 2284, 3575, 7171, 4680, 6265, 6813
2064, 3748, 2541, 616, 615, 6398, 7012, 647, 6649
2065, 3762, 3028, 3197, 3295, 6548, 5643, 6228, 6552
2066, 2797, 2796, 3808, 2798, 4641, 7172, 7173, 5092
2067, 735, 2812, 2387, 3781, 6293, 7174, 6837, 6800
2068, 3477, 3478, 3780, 3778, 5430, 7175, 7176, 7177
2069, 3505, 3677, 3780, 3478, 7178, 6793, 7175, 7179
2070, 3387, 3055, 3053, 3479, 7180, 4704, 5438, 7030
2071, 3676, 3174, 3778, 3780, 6799, 7027, 7176, 6792
2072, 3456, 3455, 3609, 3457, 6952, 7181, 7182, 5509
2073, 3515, 3457, 3609, 3516, 5510, 7182, 7183, 6839
2074, 3698, 3191, 3124, 3800, 6488, 7184, 7185, 7186
2075, 2501, 3373, 2980, 2978, 6727, 7187, 4595, 5952
2076, 3166, 2389, 2387, 3715, 5293, 6838, 7188, 6131
2077, 2274, 3715, 2387, 2812, 6115, 7188, 7174, 4301
2078, 3502, 3462, 3460, 3485, 5637, 7107, 5456, 7189
2079, 2193, 2798, 3808, 2195, 5032, 7173, 7190, 3854
2080, 3621, 3484, 3460, 3463, 6867, 5457, 7191, 6950
2081, 3096, 3268, 2493, 3269, 7063, 7064, 7192, 6875
2082, 2195, 3808, 2796, 2969, 7190, 7172, 4674, 5384
2083, 3109, 2406, 2405, 3740, 7048, 7052, 7193, 6301
2084, 2989, 2988, 3740, 2990, 5805, 6302, 7194, 6483
2085, 2143, 2990, 3740, 2405, 6481, 7194, 7193, 6347
2086, 3119, 3552, 3298, 3216, 6564, 5578, 7009, 7104
2087, 2334, 3327, 2502, 3763, 5379, 5243, 6555, 7195
2088, 3519, 3622, 3766, 3623, 6845, 7196, 7112, 6843
2089, 2712, 2711, 3350, 2713, 5639, 6683, 7197, 5670
2090, 2717, 2713, 3350, 3353, 5671, 7197, 5236, 6413
2091, 3621, 3494, 3637, 3622, 6949, 7070, 7198, 6847
2092, 2410, 3449, 3464, 2408, 5979, 6631, 7036, 6543
2093, 3777, 3397, 3395, 3107, 7199, 6972, 7200, 7158
2094, 3261, 3107, 3395, 3525, 4960, 7200, 5533, 6859
2095, 3735, 3034, 3362, 3360, 7201, 6335, 5266, 6999
2096, 2735, 3766, 3622, 3637, 6595, 7196, 7198, 5832
2097, 3582, 3583, 3252, 3247, 5687, 6588, 7095, 6885
2098, 2205, 2201, 164, 731, 3871, 6208, 732, 7202
2099, 3768, 3608, 3606, 3767, 6646, 5737, 7203, 7113
2100, 3712, 2869, 2870, 3805, 7204, 5635, 7142, 7143
2101, 2388, 2389, 2917, 2427, 6836, 5292, 5919, 4695
2102, 3044, 3045, 3595, 3599, 7205, 5706, 7093, 7056
2103, 3687, 3263, 3654, 3688, 6315, 5876, 6412, 6153
2104, 2378, 2376, 3628, 3626, 3954, 6647, 7206, 6741
2105, 694, 2998, 3809, 693, 6232, 7207, 7208, 703
2106, 3122, 2937, 3375, 3121, 6041, 5288, 7209, 4782
2107, 3124, 3121, 3375, 3800, 4783, 7209, 7210, 7185
2108, 3557, 3500, 3432, 3554, 7000, 5495, 5659, 5604
2109, 2820, 3708, 3809, 2822, 6709, 7211, 7212, 4332
2110, 3102, 3783, 3810, 3103, 7081, 7213, 7214, 4763
2111, 2838, 2205, 731, 165, 6211, 7202, 733, 6149
2112, 3682, 3288, 3765, 3235, 7215, 7216, 6713, 7217
2113, 2493, 3765, 3288, 3269, 6718, 7216, 7218, 7192
2114, 3582, 3336, 3337, 3418, 6886, 5185, 6051, 7094
2115, 3271, 3270, 3728, 3272, 7219, 7220, 7221, 6478
2116, 3674, 2978, 2979, 3723, 5949, 4598, 7222, 6909
2117, 2567, 3272, 3728, 3244, 6026, 7221, 6201, 6166
2118, 2968, 3725, 3723, 2979, 7145, 6182, 7222, 6322
2119, 3751, 3738, 3377, 2338, 6462, 7223, 7224, 6693
2120, 3414, 3505, 3478, 3413, 5499, 7179, 5433, 6890
2121, 2339, 2338, 3377, 2337, 4930, 7224, 5289, 6988
2122, 3373, 3377, 3738, 2980, 5290, 7223, 6467, 7187
2123, 2984, 3759, 3577, 3167, 7225, 7226, 6894, 7227
2124, 3258, 3574, 3759, 3540, 6811, 7228, 7229, 5564
2125, 3575, 3577, 3759, 3574, 6264, 7226, 7228, 6810
2126, 2899, 2330, 2334, 2928, 7230, 3926, 7231, 6703
2127, 3543, 3714, 3548, 3545, 6640, 7232, 5570, 7022
2128, 3155, 3156, 2674, 3755, 4983, 5792, 6466, 7233
2129, 2899, 2927, 2329, 2330, 6983, 6797, 3927, 7230
2130, 3549, 3548, 3714, 3801, 5571, 7232, 7234, 7235
2131, 3605, 3609, 3455, 3459, 5745, 7181, 6887, 6893
2132, 2401, 2400, 3784, 2402, 6804, 7236, 7237, 6808
2133, 3193, 3481, 3784, 2400, 6931, 7238, 7236, 6943
2134, 3794, 3784, 3481, 3396, 6975, 7238, 7239, 6973
2135, 3090, 3011, 728, 162, 4750, 4655, 729, 6853
2136, 3793, 3732, 3806, 3114, 7098, 7137, 7240, 7026
2137, 3196, 3791, 3806, 3198, 6945, 7241, 7136, 6870
2138, 2996, 2822, 3809, 2998, 7152, 7212, 7207, 4618
2139, 2975, 3114, 3806, 3791, 6257, 7240, 7241, 6944
2140, 3462, 3497, 3547, 3549, 5636, 7242, 5572, 7108
2141, 3477, 3547, 3497, 3446, 7243, 7242, 5485, 5431
2142, 3389, 3388, 2772, 3305, 5303, 6942, 7244, 6151
2143, 2773, 2779, 3305, 2772, 4774, 6427, 7244, 6582
2144, 2900, 3072, 3745, 3130, 6982, 7245, 6364, 6984
2145, 3072, 3454, 3546, 3745, 7044, 7043, 6365, 7245
2146, 692, 693, 3809, 3708, 702, 7208, 7211, 6058
2147, 2554, 3635, 3182, 2549, 7246, 6866, 4860, 4055
2148, 3696, 3697, 3190, 3698, 6403, 7247, 6489, 7248
2149, 3015, 3333, 3697, 3695, 5181, 7249, 6405, 7250
2150, 2944, 3428, 3359, 3362, 5362, 6889, 5267, 6339
2151, 3721, 3190, 3697, 3333, 7034, 7247, 7249, 6146
2152, 3671, 3187, 3412, 3410, 7126, 7251, 6820, 7067
2153, 2267, 2423, 3300, 3299, 5508, 7252, 5051, 6598
2154, 3630, 3302, 3300, 2422, 7051, 5052, 7253, 5813
2155, 168, 2422, 3300, 2423, 6366, 7253, 7252, 5507
2156, 3776, 3222, 3412, 3185, 7254, 6821, 7255, 7004
2157, 3397, 3777, 3393, 3529, 7199, 7256, 7257, 6969
2158, 3184, 3185, 3412, 3187, 7019, 7255, 7251, 7125
2159, 2378, 3393, 3777, 2379, 6740, 7256, 7157, 3955
2160, 3625, 3529, 3393, 3394, 6777, 7257, 6742, 5801
2161, 2149, 2150, 3002, 2830, 3845, 7258, 6082, 4819
2162, 2366, 2368, 3722, 2367, 7259, 7260, 7261, 6539
2163, 3460, 3461, 3811, 3463, 7110, 7262, 7263, 7191
2164, 2191, 3598, 3761, 3060, 6241, 6862, 7264, 4705
2165, 2598, 3060, 3761, 2597, 4706, 7264, 7155, 4093
2166, 3275, 3626, 3628, 3538, 7101, 7206, 6642, 7265
2167, 3807, 3495, 3811, 3801, 7266, 7267, 7268, 7269
2168, 3549, 3801, 3811, 3461, 7235, 7268, 7262, 7109
2169, 3493, 3463, 3811, 3495, 6951, 7263, 7267, 7087
2170, 2928, 2334, 3763, 3593, 7231, 7195, 7270, 7271
2171, 2500, 3592, 3593, 3763, 6558, 7272, 7270, 6554
2172, 3346, 3344, 3638, 3369, 5233, 5838, 7076, 7273
2173, 3610, 2503, 2829, 3486, 6854, 6768, 5504, 6006
2174, 3747, 3724, 3722, 2368, 7059, 6184, 7260, 6376
2175, 3803, 2367, 3722, 3725, 7131, 7261, 6183, 7148
2176, 3202, 3225, 3262, 3224, 7085, 4957, 5908, 7091
2177, 2939, 2941, 3224, 3553, 6721, 7090, 5911, 6029
2178, 3613, 3612, 3798, 3561, 5766, 7274, 7275, 6904
2179, 3453, 3798, 3612, 3797, 7117, 7274, 7167, 7276
2180, 3584, 3467, 3465, 3714, 7168, 5409, 7277, 6639
2181, 3592, 3591, 3597, 3593, 7060, 5718, 7278, 7272
2182, 3246, 2928, 3593, 3597, 6704, 7271, 7278, 5722
2183, 3495, 3807, 3465, 3468, 7266, 7279, 5408, 7088
2184, 2869, 3712, 3720, 2868, 7204, 6142, 6927, 4939
2185, 3801, 3714, 3465, 3807, 7234, 7277, 7279, 7269
2186, 429, 3155, 3755, 428, 6087, 7233, 6469, 448
2187, 3559, 3561, 3798, 3685, 5607, 7275, 7116, 6009
2188, 3069, 3703, 3812, 3642, 7280, 7281, 7282, 6402
2189, 3442, 3440, 3677, 3505, 5368, 7028, 7178, 5498
2190, 3034, 3735, 3524, 3040, 7201, 6276, 5526, 4693
2191, 3445, 3503, 3790, 3489, 6926, 7283, 6989, 7284
2192, 3221, 3804, 3489, 3487, 7285, 7286, 6992, 7287
2193, 3220, 3221, 3487, 3488, 7288, 7287, 7289, 7290
2194, 2103, 2716, 3813, 2344, 4685, 7291, 7292, 6772
2195, 3059, 3058, 3813, 3243, 7133, 7293, 7294, 5743
2196, 2345, 2344, 3813, 3058, 6757, 7292, 7293, 7071
2197, 3244, 3243, 3813, 2716, 6200, 7294, 7291, 6165
2198, 3615, 2530, 2926, 3157, 6788, 4517, 7295, 6786
2199, 3158, 3157, 2926, 3159, 6787, 7295, 6964, 6651
2200, 3804, 3416, 3445, 3489, 7296, 6883, 7284, 7286
2201, 3774, 3002, 2150, 3061, 6745, 7258, 5798, 7037
2202, 3083, 3087, 2893, 3088, 4745, 7297, 7144, 6965
2203, 3259, 3383, 3087, 3084, 5296, 7298, 4744, 4949
2204, 2222, 3639, 3447, 3361, 5843, 5848, 7115, 6807
2205, 3696, 3698, 3800, 3734, 7248, 7186, 7299, 7128
2206, 3375, 3376, 3734, 3800, 5287, 7139, 7299, 7210
2207, 2914, 2229, 3812, 2915, 4509, 7300, 7301, 6421
2208, 3704, 2734, 2736, 2782, 7111, 7100, 7018, 7120
2209, 3665, 2915, 3812, 3703, 5904, 7301, 7281, 6660
2210, 3602, 3386, 3795, 3188, 5823, 7015, 7302, 5736
2211, 3316, 3317, 3795, 3588, 5820, 7303, 7014, 6907
2212, 3189, 3188, 3795, 3317, 5732, 7302, 7303, 5819
2213, 2222, 2402, 3784, 3528, 6809, 7237, 6974, 6767
2214, 3151, 2424, 2425, 3662, 4822, 6383, 5898, 6020
2215, 3759, 2984, 2982, 3540, 7225, 4606, 7304, 7229
2216, 2711, 2273, 2801, 3619, 5641, 5060, 6090, 6680
2217, 2985, 2984, 3167, 3168, 4607, 7227, 4838, 6411
2218, 2228, 3642, 3812, 2229, 5982, 7282, 7300, 6259
2219, 3635, 2554, 3535, 2288, 7246, 7305, 7306, 6176
2220, 2286, 2287, 2552, 2550, 3907, 7307, 6979, 7092
2221, 3634, 2552, 2287, 2289, 6037, 7307, 3906, 6033
2222, 3402, 3535, 2554, 2547, 5613, 7305, 4054, 6930
2223, 2289, 2288, 3535, 3401, 3905, 7306, 5612, 6034
2224, 3319, 3673, 3163, 3322, 7308, 5945, 7309, 5145
2225, 3319, 605, 606, 3673, 7310, 637, 6604, 7308
2226, 2447, 2445, 3741, 3710, 3998, 6310, 6612, 6251
2227, 3579, 2256, 3693, 3580, 6601, 7311, 6023, 5750
2228, 2256, 3015, 3695, 3693, 6230, 7250, 6024, 7311
2229, 3054, 3055, 3387, 3056, 4701, 7180, 5301, 6764
2230, 2905, 3753, 3192, 3782, 7312, 6459, 7033, 7031
2231, 3728, 3270, 3753, 2905, 7220, 6460, 7312, 6203
2232, 3370, 3587, 3338, 3620, 7075, 5696, 6333, 6958
2233, 3483, 3129, 3587, 3638, 5451, 5697, 7077, 5840
2234, 3288, 3682, 3786, 3269, 7215, 7313, 6876, 7218
2235, 2506, 3125, 3785, 3707, 6657, 7314, 7315, 6372
2236, 3237, 3236, 3682, 3235, 6993, 7316, 7217, 6450
2237, 3567, 3786, 3682, 3236, 6881, 7313, 7316, 6528
2238, 3477, 3778, 3545, 3547, 7177, 7023, 5573, 7243
2239, 3398, 3490, 3491, 3525, 7317, 5912, 6860, 5532
2240, 3754, 3785, 3191, 3192, 7318, 7319, 6487, 6458
2241, 3124, 3191, 3785, 3125, 7184, 7319, 7314, 6656
2242, 3391, 3492, 3490, 3398, 7102, 5468, 7317, 6688
2243, 3087, 3383, 2885, 2893, 7298, 7320, 6987, 7297
2244, 3513, 3631, 2271, 2244, 7321, 5827, 3897, 6910
2245, 3498, 2429, 2266, 3409, 6634, 3990, 6665, 5491
2246, 3513, 722, 721, 3631, 6937, 725, 5828, 7321
2247, 3214, 3257, 3255, 3215, 5725, 4951, 7322, 4890
2248, 3275, 3538, 3473, 3472, 7265, 7119, 5417, 6917
2249, 3517, 3744, 3788, 3520, 6723, 7323, 7324, 5517
2250, 3752, 3322, 3163, 3149, 6503, 7309, 4829, 6429
2251, 3474, 3539, 3472, 3470, 7020, 6914, 5416, 5425
2252, 3274, 3539, 3520, 3788, 6915, 7021, 7324, 6919
2253, 3743, 3276, 3788, 3744, 7074, 6920, 7323, 6392
2254, 3384, 3675, 2885, 3383, 6825, 5954, 7320, 5299
2255, 2982, 3215, 3255, 3540, 6205, 7322, 5565, 7304
2256, 3792, 3249, 3250, 3117, 7122, 4937, 6912, 7123
2257, 2783, 3345, 3507, 3508, 6934, 7325, 6708, 7326
2258, 3319, 3320, 604, 605, 5144, 6572, 636, 7310
2259, 2221, 2223, 3506, 2220, 6761, 6390, 7327, 5841
2260, 3640, 3639, 2220, 3802, 5845, 5842, 7328, 7160
2261, 3507, 3802, 2220, 3506, 7329, 7328, 7327, 6706
2262, 3346, 3802, 3507, 3345, 7161, 7329, 7325, 5230
2263, 3502, 3485, 3471, 3503, 7189, 7330, 7331, 6925
2264, 3475, 3470, 3471, 3485, 5422, 5419, 7330, 5455
2265, 3453, 3797, 3584, 3452, 7276, 7169, 6638, 5388
2266, 3804, 3657, 3504, 3416, 7332, 7010, 7013, 7296
2267, 3790, 3503, 3471, 3473, 7283, 7331, 5418, 7118
2268, 2783, 3508, 3518, 2782, 7326, 6722, 7121, 7017
2269, 3396, 3481, 3138, 3390, 7239, 6932, 6387, 5444
2270, 3785, 3754, 3706, 3707, 7318, 7333, 6370, 7315
2271, 3271, 3706, 3754, 3270, 6734, 7333, 6457, 7219
2272, 3576, 3258, 3256, 3324, 6812, 5563, 5161, 7334
2273, 3404, 3043, 2368, 2366, 5319, 6377, 7259, 6108
2274, 3242, 3516, 3810, 3783, 6840, 7335, 7213, 7078
2275, 3044, 3043, 3405, 3045, 6374, 5318, 5707, 7205
2276, 3487, 3767, 3604, 3488, 6991, 7336, 7337, 7289
2277, 3605, 3220, 3488, 3604, 6892, 7290, 7337, 7338
2278, 3068, 3070, 3703, 3069, 5307, 6661, 7280, 4849
2279, 3605, 3604, 3767, 3606, 7338, 7336, 7203, 5746
2280, 3220, 3222, 3776, 3221, 6822, 7254, 7339, 7288
2281, 3324, 3679, 3032, 3576, 5973, 7340, 7171, 7334
2282, 2283, 3032, 3679, 2950, 4681, 7340, 6960, 6197
2283, 3804, 3221, 3776, 3657, 7285, 7339, 7011, 7332
2284, 3640, 3796, 3367, 3641, 7159, 7341, 6441, 5846
2285, 3103, 3810, 3607, 3104, 7214, 7342, 5739, 4764
2286, 3346, 3369, 3367, 3796, 7273, 5275, 7341, 7162
2287, 3516, 3609, 3607, 3810, 7183, 5744, 7342, 7335
*ELEMENT, type=S8, ELSET=Surface4
2288, 57, 7343, 806, 158, 7350, 7351, 808, 691
2289, 806, 7343, 56, 169, 7351, 7352, 805, 807
2290, 806, 7344, 53, 158, 7353, 7354, 652, 808
2291, 806, 169, 52, 7344, 807, 766, 7355, 7353
2292, 65, 7347, 64, 7346, 7356, 7357, 7358, 7359
2293, 7349, 48, 44, 307, 7360, 768, 7361, 7362
2294, 7349, 307, 45, 49, 7362, 7363, 654, 7364
2295, 307, 44, 40, 303, 7361, 769, 7365, 7366
2296, 307, 303, 41, 45, 7366, 7367, 655, 7363
2297, 303, 40, 36, 299, 7365, 770, 7368, 7369
2298, 303, 299, 37, 41, 7369, 7370, 656, 7367
2299, 299, 36, 32, 295, 7368, 771, 7371, 7372
2300, 299, 295, 33, 37, 7372, 7373, 657, 7370
2301, 295, 32, 28, 291, 7371, 772, 7374, 7375
2302, 295, 291, 29, 33, 7375, 7376, 658, 7373
2303, 291, 28, 24, 287, 7374, 773, 7377, 7378
2304, 291, 287, 25, 29, 7378, 7379, 659, 7376
2305, 287, 24, 20, 283, 7377, 774, 7380, 7381
2306, 287, 283, 21, 25, 7381, 7382, 660, 7379
2307, 283, 20, 16, 279, 7380, 775, 7383, 7384
2308, 283, 279, 17, 21, 7384, 7385, 661, 7382
2309, 279, 16, 12, 275, 7383, 776, 7386, 7387
2310, 279, 275, 13, 17, 7387, 7388, 662, 7385
2311, 275, 12, 152, 415, 7386, 777, 7389, 7390
2312, 275, 415, 153, 13, 7390, 7391, 663, 7388
2313, 411, 148, 144, 407, 7392, 779, 7393, 7394
2314, 411, 407, 145, 149, 7394, 7395, 665, 7396
2315, 415, 152, 148, 411, 7389, 778, 7392, 7397
2316, 415, 411, 149, 153, 7397, 7396, 664, 7391
2317, 198, 403, 141, 4, 7398, 7399, 667, 7400
2318, 198, 3, 140, 403, 7401, 781, 7402, 7398
2319, 407, 144, 3, 198, 7393, 780, 7401, 7403
2320, 407, 198, 4, 145, 7403, 7400, 666, 7395
2321, 399, 395, 133, 137, 7404, 7405, 669, 7406
2322, 399, 136, 132, 395, 7407, 783, 7408, 7404
2323, 403, 140, 136, 399, 7402, 782, 7407, 7409
2324, 403, 399, 137, 141, 7409, 7406, 668, 7399
2325, 395, 391, 129, 133, 7410, 7411, 670, 7405
2326, 395, 132, 128, 391, 7408, 784, 7412, 7410
2327, 391, 128, 191, 1062, 7412, 785, 7413, 7414
2328, 391, 1062, 170, 129, 7414, 7415, 671, 7411
2329, 1062, 191, 124, 387, 7413, 786, 7416, 7417
2330, 1062, 387, 125, 170, 7417, 7418, 672, 7415
2331, 387, 124, 120, 383, 7416, 787, 7419, 7420
2332, 387, 383, 121, 125, 7420, 7421, 673, 7418
2333, 383, 120, 116, 379, 7419, 788, 7422, 7423
2334, 383, 379, 117, 121, 7423, 7424, 674, 7421
2335, 379, 116, 112, 375, 7422, 789, 7425, 7426
2336, 379, 375, 113, 117, 7426, 7427, 675, 7424
2337, 375, 112, 108, 371, 7425, 790, 7428, 7429
2338, 375, 371, 109, 113, 7429, 7430, 676, 7427
2339, 371, 108, 104, 367, 7428, 791, 7431, 7432
2340, 371, 367, 105, 109, 7432, 7433, 677, 7430
2341, 367, 104, 100, 363, 7431, 792, 7434, 7435
2342, 367, 363, 101, 105, 7435, 7436, 678, 7433
2343, 359, 96, 92, 355, 7437, 794, 7438, 7439
2344, 359, 355, 93, 97, 7439, 7440, 680, 7441
2345, 363, 100, 96, 359, 7434, 793, 7437, 7442
2346, 363, 359, 97, 101, 7442, 7441, 679, 7436
2347, 1060, 351, 89, 157, 7443, 7444, 682, 7445
2348, 1060, 194, 88, 351, 7446, 796, 7447, 7443
2349, 355, 92, 194, 1060, 7438, 795, 7446, 7448
2350, 355, 1060, 157, 93, 7448, 7445, 681, 7440
2351, 351, 347, 85, 89, 7449, 7450, 683, 7444
2352, 351, 88, 84, 347, 7447, 797, 7451, 7449
2353, 347, 343, 81, 85, 7452, 7453, 684, 7450
2354, 347, 84, 80, 343, 7451, 798, 7454, 7452
2355, 343, 339, 77, 81, 7455, 7456, 685, 7453
2356, 343, 80, 76, 339, 7454, 799, 7457, 7455
2357, 339, 335, 73, 77, 7458, 7459, 686, 7456
2358, 339, 76, 72, 335, 7457, 800, 7460, 7458
2359, 335, 72, 68, 7348, 7460, 801, 7461, 7462
2360, 335, 7348, 69, 73, 7462, 7463, 687, 7459
2361, 7348, 7347, 65, 69, 7464, 7356, 688, 7463
2362, 7348, 68, 64, 7347, 7461, 802, 7357, 7464
2363, 7343, 7345, 60, 56, 7465, 7466, 804, 7352
2364, 7343, 57, 61, 7345, 7350, 690, 7467, 7465
2365, 7345, 7346, 64, 60, 7468, 7358, 803, 7466
2366, 7345, 61, 65, 7346, 7467, 689, 7359, 7468
2367, 49, 53, 7344, 7349, 653, 7354, 7469, 7364
2368, 48, 7349, 7344, 52, 7360, 7469, 7355, 767
*ELEMENT, type=S6, ELSET=Surface13
2369, 201, 224, 223, 7472, 233, 7473
2370, 223, 222, 201, 232, 704, 7473
2371, 227, 204, 205, 7474, 214, 700
2372, 205, 206, 227, 215, 709, 700
2373, 226, 225, 204, 235, 7475, 7476
2374, 204, 227, 226, 7474, 236, 7476
2375, 202, 203, 224, 212, 702, 7477
2376, 224, 201, 202, 7472, 211, 7477
*ELEMENT, type=S8, ELSET=Surface13
2377, 219, 7471, 222, 6, 7478, 7479, 231, 221
2378, 219, 7470, 208, 5, 7480, 7481, 218, 220
2379, 230, 7470, 219, 6, 7482, 7480, 221, 240
2380, 219, 5, 200, 7471, 220, 209, 7483, 7478
2381, 207, 228, 227, 206, 7484, 237, 709, 216
2382, 7471, 200, 201, 222, 7483, 210, 704, 7479
2383, 7470, 230, 229, 208, 7482, 239, 707, 7481
2384, 228, 207, 208, 229, 7484, 217, 707, 238
2385, 204, 225, 224, 203, 7475, 234, 702, 213
*ELEMENT, type=S6, ELSET=Surface14
2386, 266, 267, 253, 270, 760, 753
2387, 253, 254, 266, 261, 7487, 753
2388, 241, 242, 257, 245, 764, 757
2389, 257, 7486, 241, 7488, 7489, 757
2390, 255, 256, 243, 263, 763, 755
2391, 243, 7, 255, 247, 7490, 755
2392, 242, 243, 256, 246, 763, 7491
2393, 256, 257, 242, 264, 764, 7491
2394, 251, 252, 268, 259, 759, 751
2395, 268, 7485, 251, 7492, 7493, 751
2396, 252, 253, 267, 260, 760, 7494
2397, 267, 268, 252, 271, 759, 7494
2398, 254, 255, 7, 262, 7490, 7495
2399, 7, 266, 254, 269, 7487, 7495
*ELEMENT, type=S8, ELSET=Surface14
2400, 248, 9, 251, 7485, 250, 258, 7493, 7496
2401, 268, 8, 248, 7485, 272, 249, 7496, 7492
2402, 248, 8, 241, 7486, 249, 244, 7489, 7497
2403, 257, 9, 248, 7486, 265, 250, 7497, 7488
*ELEMENT, type=S8, ELSET=Surface17
2404, 10, 11, 12, 13, 273, 274, 275, 276
*ELEMENT, type=S8, ELSET=Surface18
2405, 14, 15, 16, 17, 277, 278, 279, 280
*ELEMENT, type=S8, ELSET=Surface19
2406, 18, 19, 20, 21, 281, 282, 283, 284
*ELEMENT, type=S8, ELSET=Surface20
2407, 23, 24, 25, 22, 286, 287, 288, 285
*ELEMENT, type=S8, ELSET=Surface21
2408, 26, 27, 28, 29, 289, 290, 291, 292
*ELEMENT, type=S8, ELSET=Surface22
2409, 30, 31, 32, 33, 293, 294, 295, 296
*ELEMENT, type=S8, ELSET=Surface23
2410, 35, 36, 37, 34, 298, 299, 300, 297
*ELEMENT, type=S8, ELSET=Surface24
2411, 39, 40, 41, 38, 302, 303, 304, 301
*ELEMENT, type=S8, ELSET=Surface25
2412, 42, 43, 44, 45, 305, 306, 307, 308
*ELEMENT, type=S8, ELSET=Surface26
2413, 47, 48, 49, 46, 310, 311, 312, 309
*ELEMENT, type=S8, ELSET=Surface27
2414, 50, 51, 52, 53, 313, 314, 315, 316
*ELEMENT, type=S8, ELSET=Surface28
2415, 190, 195, 169, 158, 1058, 1056, 806, 1013
*ELEMENT, type=S8, ELSET=Surface29
2416, 54, 55, 56, 57, 317, 318, 319, 320
*ELEMENT, type=S8, ELSET=Surface30
2417, 58, 59, 60, 61, 321, 322, 323, 324
*ELEMENT, type=S8, ELSET=Surface31
2418, 62, 63, 64, 65, 325, 326, 327, 328
*ELEMENT, type=S8, ELSET=Surface32
2419, 66, 67, 68, 69, 329, 330, 331, 332
*ELEMENT, type=S8, ELSET=Surface33
2420, 71, 72, 73, 70, 334, 335, 336, 333
*ELEMENT, type=S8, ELSET=Surface34
2421, 74, 75, 76, 77, 337, 338, 339, 340
*ELEMENT, type=S8, ELSET=Surface35
2422, 78, 79, 80, 81, 341, 342, 343, 344
*ELEMENT, type=S8, ELSET=Surface36
2423, 83, 84, 85, 82, 346, 347, 348, 345
*ELEMENT, type=S8, ELSET=Surface37
2424, 87, 88, 89, 86, 350, 351, 352, 349
*ELEMENT, type=S8, ELSET=Surface38
2425, 189, 193, 194, 157, 1059, 1035, 1060, 992
*ELEMENT, type=S8, ELSET=Surface39
2426, 90, 91, 92, 93, 353, 354, 355, 356
*ELEMENT, type=S8, ELSET=Surface40
2427, 94, 95, 96, 97, 357, 358, 359, 360
*ELEMENT, type=S8, ELSET=Surface41
2428, 98, 99, 100, 101, 361, 362, 363, 364
*ELEMENT, type=S8, ELSET=Surface42
2429, 102, 103, 104, 105, 365, 366, 367, 368
*ELEMENT, type=S8, ELSET=Surface43
2430, 107, 108, 109, 106, 370, 371, 372, 369
*ELEMENT, type=S8, ELSET=Surface44
2431, 110, 111, 112, 113, 373, 374, 375, 376
*ELEMENT, type=S8, ELSET=Surface45
2432, 114, 115, 116, 117, 377, 378, 379, 380
*ELEMENT, type=S8, ELSET=Surface46
2433, 119, 120, 121, 118, 382, 383, 384, 381
*ELEMENT, type=S8, ELSET=Surface47
2434, 123, 124, 125, 122, 386, 387, 388, 385
*ELEMENT, type=S8, ELSET=Surface48
2435, 188, 192, 191, 170, 1061, 1015, 1062, 972
*ELEMENT, type=S8, ELSET=Surface49
2436, 127, 128, 129, 126, 390, 391, 392, 389
*ELEMENT, type=S8, ELSET=Surface50
2437, 130, 131, 132, 133, 393, 394, 395, 396
*ELEMENT, type=S8, ELSET=Surface51
2438, 134, 135, 136, 137, 397, 398, 399, 400
*ELEMENT, type=S8, ELSET=Surface52
2439, 138, 139, 140, 141, 401, 402, 403, 404
*ELEMENT, type=S8, ELSET=Surface53
2440, 142, 143, 144, 145, 405, 406, 407, 408
*ELEMENT, type=S8, ELSET=Surface54
2441, 146, 147, 148, 149, 409, 410, 411, 412
*ELEMENT, type=S8, ELSET=Surface55
2442, 151, 152, 153, 150, 414, 415, 416, 413
*ELEMENT, type=S6, ELSET=Surface57
2443, 152, 7503, 148, 7504, 7505, 778
2444, 100, 7502, 96, 7506, 7507, 793
2445, 169, 7500, 52, 7508, 7509, 766
2446, 56, 7501, 169, 7510, 7511, 805
2447, 104, 7499, 100, 7512, 7513, 792
2448, 148, 7498, 144, 7514, 7515, 779
*ELEMENT, type=S8, ELSET=Surface57
2449, 76, 820, 821, 72, 7516, 854, 7517, 800
2450, 32, 36, 829, 830, 771, 7518, 863, 7519
2451, 124, 809, 810, 120, 7520, 843, 7521, 787
2452, 128, 132, 840, 841, 784, 7522, 874, 7523
2453, 24, 832, 833, 20, 7524, 866, 7525, 774
2454, 84, 88, 817, 818, 797, 7526, 851, 7527
2455, 837, 838, 140, 3, 871, 7528, 781, 7529
2456, 813, 108, 112, 812, 7530, 790, 7531, 846
2457, 72, 821, 822, 68, 7517, 855, 7532, 801
2458, 36, 40, 828, 829, 770, 7533, 862, 7518
2459, 811, 116, 120, 810, 7534, 788, 7521, 844
2460, 839, 840, 132, 136, 873, 7522, 783, 7535
2461, 826, 827, 44, 48, 860, 7536, 768, 7537
2462, 824, 60, 64, 823, 7538, 803, 7539, 857
2463, 815, 816, 194, 92, 849, 7540, 795, 7541
2464, 835, 12, 16, 834, 7542, 776, 7543, 868
2465, 834, 16, 20, 833, 7543, 775, 7525, 867
2466, 816, 817, 88, 194, 850, 7526, 796, 7540
2467, 823, 64, 68, 822, 7539, 802, 7532, 856
2468, 827, 828, 40, 44, 861, 7533, 769, 7536
2469, 838, 839, 136, 140, 872, 7535, 782, 7528
2470, 812, 112, 116, 811, 7531, 789, 7534, 845
2471, 12, 835, 7503, 152, 7542, 7544, 7504, 777
2472, 92, 96, 7502, 815, 794, 7507, 7545, 7541
2473, 48, 52, 7500, 826, 767, 7509, 7546, 7537
2474, 60, 824, 7501, 56, 7538, 7547, 7510, 804
2475, 108, 813, 7499, 104, 7530, 7548, 7512, 791
2476, 3, 144, 7498, 837, 780, 7515, 7549, 7529
2477, 837, 7498, 148, 836, 7549, 7514, 7550, 870
2478, 813, 814, 100, 7499, 847, 7551, 7513, 7548
2479, 824, 825, 169, 7501, 858, 7552, 7511, 7547
2480, 826, 7500, 169, 825, 7546, 7508, 7552, 859
2481, 815, 7502, 100, 814, 7545, 7506, 7551, 848
2482, 835, 836, 148, 7503, 869, 7550, 7505, 7544
2483, 76, 80, 819, 820, 799, 7553, 853, 7516
2484, 831, 28, 32, 830, 7554, 772, 7519, 864
2485, 124, 191, 171, 809, 786, 7555, 842, 7520
2486, 171, 191, 128, 841, 7555, 785, 7523, 875
2487, 24, 28, 831, 832, 773, 7554, 865, 7524
2488, 819, 80, 84, 818, 7553, 798, 7527, 852
*ELEMENT, type=S8, ELSET=Surface58
2489, 161, 173, 876, 711, 879, 878, 7556, 713
2490, 711, 876, 172, 160, 7556, 877, 880, 712
*ELEMENT, type=S8, ELSET=Surface59
2491, 882, 174, 161, 711, 884, 881, 713, 7557
2492, 175, 882, 711, 160, 883, 7557, 712, 885
*ELEMENT, type=S8, ELSET=Surface60
2493, 722, 888, 889, 723, 7558, 892, 7559, 726
2494, 722, 721, 887, 888, 725, 7560, 891, 7558
2495, 176, 887, 721, 163, 890, 7560, 724, 886
2496, 723, 889, 173, 161, 7559, 893, 879, 727
*ELEMENT, type=S8, ELSET=Surface61
2497, 163, 721, 895, 177, 724, 7561, 898, 894
2498, 721, 722, 896, 895, 725, 7562, 899, 7561
2499, 161, 174, 897, 723, 881, 901, 7563, 727
2500, 896, 722, 723, 897, 7562, 726, 7563, 900
*ELEMENT, type=S8, ELSET=Surface62
2501, 178, 903, 728, 162, 904, 7564, 729, 902
2502, 903, 176, 163, 728, 905, 886, 730, 7564
*ELEMENT, type=S8, ELSET=Surface63
2503, 728, 907, 179, 162, 7565, 908, 906, 729
2504, 163, 177, 907, 728, 894, 909, 7565, 730
*ELEMENT, type=S8, ELSET=Surface64
2505, 715, 911, 912, 716, 7566, 915, 7567, 719
2506, 715, 714, 910, 911, 718, 7568, 914, 7566
2507, 172, 910, 714, 160, 913, 7568, 717, 880
2508, 716, 912, 178, 162, 7567, 916, 902, 720
*ELEMENT, type=S8, ELSET=Surface65
2509, 160, 714, 917, 175, 717, 7569, 920, 885
2510, 714, 715, 918, 917, 718, 7570, 921, 7569
2511, 162, 179, 919, 716, 906, 923, 7571, 720
2512, 918, 715, 716, 919, 7570, 719, 7571, 922
*ELEMENT, type=S8, ELSET=Surface66
2513, 167, 181, 926, 743, 925, 929, 7572, 747
2514, 743, 926, 927, 742, 7572, 930, 7573, 746
2515, 741, 742, 927, 928, 745, 7573, 931, 7574
2516, 165, 741, 928, 180, 744, 7574, 932, 924
*ELEMENT, type=S8, ELSET=Surface67
2517, 742, 935, 934, 743, 7575, 938, 7576, 746
2518, 183, 167, 743, 934, 941, 747, 7576, 937
2519, 742, 741, 936, 935, 745, 7577, 939, 7575
2520, 741, 165, 182, 936, 744, 933, 940, 7577
*ELEMENT, type=S8, ELSET=Surface68
2521, 164, 184, 942, 731, 945, 944, 7578, 732
2522, 731, 942, 182, 165, 7578, 943, 933, 733
*ELEMENT, type=S8, ELSET=Surface69
2523, 947, 185, 164, 731, 949, 946, 732, 7579
2524, 180, 947, 731, 165, 948, 7579, 733, 924
*ELEMENT, type=S8, ELSET=Surface70
2525, 164, 185, 951, 736, 946, 954, 7580, 740
2526, 736, 951, 952, 735, 7580, 955, 7581, 739
2527, 734, 735, 952, 953, 738, 7581, 956, 7582
2528, 166, 734, 953, 186, 737, 7582, 957, 950
*ELEMENT, type=S8, ELSET=Surface71
2529, 735, 960, 959, 736, 7583, 963, 7584, 739
2530, 184, 164, 736, 959, 945, 740, 7584, 962
2531, 735, 734, 961, 960, 738, 7585, 964, 7583
2532, 734, 166, 187, 961, 737, 958, 965, 7585
*ELEMENT, type=S8, ELSET=Surface72
2533, 966, 187, 166, 748, 968, 958, 749, 7586
2534, 183, 966, 748, 167, 967, 7586, 750, 941
*ELEMENT, type=S8, ELSET=Surface73
2535, 166, 186, 969, 748, 950, 971, 7587, 749
2536, 748, 969, 181, 167, 7587, 970, 925, 750
*ELEMENT, type=S8, ELSET=Surface74
2537, 170, 125, 122, 188, 672, 388, 973, 972
*ELEMENT, type=S8, ELSET=Surface75
2538, 126, 129, 170, 188, 392, 671, 972, 974
*ELEMENT, type=S8, ELSET=Surface76
2539, 122, 125, 121, 118, 388, 673, 384, 975
*ELEMENT, type=S8, ELSET=Surface77
2540, 133, 129, 126, 130, 670, 392, 976, 396
*ELEMENT, type=S8, ELSET=Surface78
2541, 121, 117, 114, 118, 674, 380, 977, 384
*ELEMENT, type=S8, ELSET=Surface79
2542, 134, 137, 133, 130, 400, 669, 396, 978
*ELEMENT, type=S8, ELSET=Surface80
2543, 114, 117, 113, 110, 380, 675, 376, 979
*ELEMENT, type=S8, ELSET=Surface81
2544, 141, 137, 134, 138, 668, 400, 980, 404
*ELEMENT, type=S8, ELSET=Surface82
2545, 110, 113, 109, 106, 376, 676, 372, 981
*ELEMENT, type=S8, ELSET=Surface83
2546, 4, 141, 138, 1, 667, 404, 982, 199
*ELEMENT, type=S8, ELSET=Surface84
2547, 109, 105, 102, 106, 677, 368, 983, 372
*ELEMENT, type=S8, ELSET=Surface85
2548, 142, 145, 4, 1, 408, 666, 199, 984
*ELEMENT, type=S8, ELSET=Surface86
2549, 105, 101, 98, 102, 678, 364, 985, 368
*ELEMENT, type=S8, ELSET=Surface87
2550, 146, 149, 145, 142, 412, 665, 408, 986
*ELEMENT, type=S8, ELSET=Surface88
2551, 98, 101, 97, 94, 364, 679, 360, 987
*ELEMENT, type=S8, ELSET=Surface89
2552, 153, 149, 146, 150, 664, 412, 988, 416
*ELEMENT, type=S8, ELSET=Surface90
2553, 97, 93, 90, 94, 680, 356, 989, 360
*ELEMENT, type=S8, ELSET=Surface91
2554, 10, 13, 153, 150, 276, 663, 416, 990
*ELEMENT, type=S8, ELSET=Surface92
2555, 90, 93, 157, 189, 356, 681, 992, 991
*ELEMENT, type=S8, ELSET=Surface93
2556, 14, 17, 13, 10, 280, 662, 276, 993
*ELEMENT, type=S8, ELSET=Surface94
2557, 189, 157, 89, 86, 992, 682, 352, 994
*ELEMENT, type=S8, ELSET=Surface95
2558, 21, 17, 14, 18, 661, 280, 995, 284
*ELEMENT, type=S8, ELSET=Surface96
2559, 86, 89, 85, 82, 352, 683, 348, 996
*ELEMENT, type=S8, ELSET=Surface97
2560, 25, 21, 18, 22, 660, 284, 997, 288
*ELEMENT, type=S8, ELSET=Surface98
2561, 85, 81, 78, 82, 684, 344, 998, 348
*ELEMENT, type=S8, ELSET=Surface99
2562, 26, 29, 25, 22, 292, 659, 288, 999
*ELEMENT, type=S8, ELSET=Surface100
2563, 78, 81, 77, 74, 344, 685, 340, 1000
*ELEMENT, type=S8, ELSET=Surface101
2564, 33, 29, 26, 30, 658, 292, 1001, 296
*ELEMENT, type=S8, ELSET=Surface102
2565, 74, 77, 73, 70, 340, 686, 336, 1002
*ELEMENT, type=S8, ELSET=Surface103
2566, 37, 33, 30, 34, 657, 296, 1003, 300
*ELEMENT, type=S8, ELSET=Surface104
2567, 73, 69, 66, 70, 687, 332, 1004, 336
*ELEMENT, type=S8, ELSET=Surface105
2568, 38, 41, 37, 34, 304, 656, 300, 1005
*ELEMENT, type=S8, ELSET=Surface106
2569, 69, 65, 62, 66, 688, 328, 1006, 332
*ELEMENT, type=S8, ELSET=Surface107
2570, 42, 45, 41, 38, 308, 655, 304, 1007
*ELEMENT, type=S8, ELSET=Surface108
2571, 65, 61, 58, 62, 689, 324, 1008, 328
*ELEMENT, type=S8, ELSET=Surface109
2572, 49, 45, 42, 46, 654, 308, 1009, 312
*ELEMENT, type=S8, ELSET=Surface110
2573, 61, 57, 54, 58, 690, 320, 1010, 324
*ELEMENT, type=S8, ELSET=Surface111
2574, 50, 53, 49, 46, 316, 653, 312, 1011
*ELEMENT, type=S8, ELSET=Surface112
2575, 54, 57, 158, 190, 320, 691, 1013, 1012
*ELEMENT, type=S8, ELSET=Surface113
2576, 190, 158, 53, 50, 1013, 652, 316, 1014
*ELEMENT, type=S8, ELSET=Surface114
2577, 128, 191, 192, 127, 785, 1015, 1016, 390
*ELEMENT, type=S8, ELSET=Surface115
2578, 192, 191, 124, 123, 1015, 786, 386, 1017
*ELEMENT, type=S8, ELSET=Surface116
2579, 123, 124, 120, 119, 386, 787, 382, 1018
*ELEMENT, type=S8, ELSET=Surface117
2580, 132, 128, 127, 131, 784, 390, 1019, 394
*ELEMENT, type=S8, ELSET=Surface118
2581, 120, 116, 115, 119, 788, 378, 1020, 382
*ELEMENT, type=S8, ELSET=Surface119
2582, 135, 136, 132, 131, 398, 783, 394, 1021
*ELEMENT, type=S8, ELSET=Surface120
2583, 115, 116, 112, 111, 378, 789, 374, 1022
*ELEMENT, type=S8, ELSET=Surface121
2584, 140, 136, 135, 139, 782, 398, 1023, 402
*ELEMENT, type=S8, ELSET=Surface122
2585, 111, 112, 108, 107, 374, 790, 370, 1024
*ELEMENT, type=S8, ELSET=Surface123
2586, 3, 140, 139, 2, 781, 402, 1025, 197
*ELEMENT, type=S8, ELSET=Surface124
2587, 108, 104, 103, 107, 791, 366, 1026, 370
*ELEMENT, type=S8, ELSET=Surface125
2588, 143, 144, 3, 2, 406, 780, 197, 1027
*ELEMENT, type=S8, ELSET=Surface126
2589, 104, 100, 99, 103, 792, 362, 1028, 366
*ELEMENT, type=S8, ELSET=Surface127
2590, 147, 148, 144, 143, 410, 779, 406, 1029
*ELEMENT, type=S8, ELSET=Surface128
2591, 99, 100, 96, 95, 362, 793, 358, 1030
*ELEMENT, type=S8, ELSET=Surface129
2592, 152, 148, 147, 151, 778, 410, 1031, 414
*ELEMENT, type=S8, ELSET=Surface130
2593, 96, 92, 91, 95, 794, 354, 1032, 358
*ELEMENT, type=S8, ELSET=Surface131
2594, 11, 12, 152, 151, 274, 777, 414, 1033
*ELEMENT, type=S8, ELSET=Surface132
2595, 92, 194, 193, 91, 795, 1035, 1034, 354
*ELEMENT, type=S8, ELSET=Surface133
2596, 15, 16, 12, 11, 278, 776, 274, 1036
*ELEMENT, type=S8, ELSET=Surface134
2597, 193, 194, 88, 87, 1035, 796, 350, 1037
*ELEMENT, type=S8, ELSET=Surface135
2598, 20, 16, 15, 19, 775, 278, 1038, 282
*ELEMENT, type=S8, ELSET=Surface136
2599, 87, 88, 84, 83, 350, 797, 346, 1039
*ELEMENT, type=S8, ELSET=Surface137
2600, 24, 20, 19, 23, 774, 282, 1040, 286
*ELEMENT, type=S8, ELSET=Surface138
2601, 84, 80, 79, 83, 798, 342, 1041, 346
*ELEMENT, type=S8, ELSET=Surface139
2602, 27, 28, 24, 23, 290, 773, 286, 1042
*ELEMENT, type=S8, ELSET=Surface140
2603, 80, 76, 75, 79, 799, 338, 1043, 342
*ELEMENT, type=S8, ELSET=Surface141
2604, 32, 28, 27, 31, 772, 290, 1044, 294
*ELEMENT, type=S8, ELSET=Surface142
2605, 75, 76, 72, 71, 338, 800, 334, 1045
*ELEMENT, type=S8, ELSET=Surface143
2606, 36, 32, 31, 35, 771, 294, 1046, 298
*ELEMENT, type=S8, ELSET=Surface144
2607, 71, 72, 68, 67, 334, 801, 330, 1047
*ELEMENT, type=S8, ELSET=Surface145
2608, 39, 40, 36, 35, 302, 770, 298, 1048
*ELEMENT, type=S8, ELSET=Surface146
2609, 68, 64, 63, 67, 802, 326, 1049, 330
*ELEMENT, type=S8, ELSET=Surface147
2610, 43, 44, 40, 39, 306, 769, 302, 1050
*ELEMENT, type=S8, ELSET=Surface148
2611, 63, 64, 60, 59, 326, 803, 322, 1051
*ELEMENT, type=S8, ELSET=Surface149
2612, 48, 44, 43, 47, 768, 306, 1052, 310
*ELEMENT, type=S8, ELSET=Surface150
2613, 60, 56, 55, 59, 804, 318, 1053, 322
*ELEMENT, type=S8, ELSET=Surface151
2614, 51, 52, 48, 47, 314, 767, 310, 1054
*ELEMENT, type=S8, ELSET=Surface152
2615, 56, 169, 195, 55, 805, 1056, 1055, 318
*ELEMENT, type=S8, ELSET=Surface153
2616, 195, 169, 52, 51, 1056, 766, 314, 1057
*ELSET,ELSET=skir_sless_uprin_CLOAD
1, 2, 3, 4, 5, 6, 7, 8, 9, 10, 
11, 12, 13, 14, 15, 16, 17, 18, 19, 20, 
21, 22, 23, 24, 25, 26, 27, 28, 29, 30, 
31, 32, 33, 34, 35, 36, 37, 38, 39, 40, 
*ELSET,ELSET=skir_carbo_ctrin_XZFIX
59, 60, 61, 62, 63, 64, 65, 66, 67, 68, 
69, 70, 71, 72, 73, 74, 75, 76, 77, 78, 
79, 80, 81, 82, 83, 84, 85, 86, 87, 88, 
89, 90, 91, 92, 93, 94, 95, 96, 97, 98, 
*ELSET,ELSET=skir_opening2_CONT
41, 42, 43, 44, 45, 46, 47, 48, 49, 50, 
*ELSET,ELSET=skir_manhole_CONT
51, 52, 53, 54, 55, 56, 57, 58, 
*ELSET,ELSET=skir_sless
100, 101, 102, 103, 104, 105, 106, 107, 108, 109, 
110, 111, 112, 113, 114, 115, 116, 117, 118, 119, 
120, 121, 122, 123, 124, 125, 126, 127, 128, 129, 
130, 131, 132, 133, 134, 135, 136, 137, 138, 139, 
140, 141, 142, 143, 144, 145, 146, 147, 148, 149, 
150, 151, 152, 153, 154, 155, 156, 157, 158, 159, 
160, 161, 162, 163, 164, 165, 166, 167, 168, 169, 
170, 171, 172, 173, 174, 175, 176, 177, 178, 179, 
180, 181, 182, 183, 184, 185, 186, 187, 188, 189, 
190, 191, 192, 193, 194, 195, 196, 197, 198, 199, 
200, 201, 202, 203, 204, 205, 206, 207, 208, 209, 
210, 211, 212, 213, 214, 215, 216, 217, 218, 219, 
220, 221, 222, 223, 224, 225, 226, 227, 228, 229, 
230, 231, 232, 233, 234, 235, 236, 237, 238, 239, 
240, 241, 242, 243, 244, 245, 246, 247, 248, 249, 
250, 251, 252, 253, 254, 255, 256, 257, 258, 259, 
260, 261, 262, 263, 264, 265, 266, 267, 268, 269, 
270, 271, 272, 273, 274, 275, 276, 277, 278, 279, 
280, 281, 282, 283, 284, 285, 286, 287, 288, 289, 
290, 291, 292, 293, 294, 295, 296, 297, 298, 299, 
300, 301, 302, 303, 304, 305, 306, 307, 308, 309, 
310, 311, 312, 313, 314, 315, 316, 317, 318, 319, 
320, 321, 322, 323, 324, 325, 326, 327, 328, 329, 
330, 331, 332, 333, 334, 335, 336, 337, 338, 339, 
340, 341, 342, 343, 344, 345, 346, 347, 348, 349, 
350, 351, 352, 353, 354, 355, 356, 357, 358, 359, 
360, 361, 362, 363, 364, 365, 366, 367, 368, 369, 
370, 371, 372, 373, 374, 375, 376, 377, 378, 379, 
380, 381, 382, 383, 384, 385, 386, 387, 388, 389, 
390, 391, 392, 393, 394, 395, 396, 397, 398, 399, 
400, 401, 402, 403, 404, 405, 406, 407, 408, 409, 
410, 411, 412, 413, 414, 415, 416, 417, 418, 419, 
420, 421, 422, 423, 424, 425, 426, 427, 428, 429, 
430, 431, 432, 433, 434, 435, 436, 437, 438, 439, 
440, 441, 442, 443, 444, 445, 446, 447, 448, 449, 
450, 451, 452, 453, 454, 455, 456, 457, 458, 459, 
460, 461, 462, 463, 464, 465, 466, 467, 468, 469, 
470, 471, 472, 473, 474, 475, 476, 
*ELSET,ELSET=skir_carbo_mid
477, 478, 479, 480, 481, 482, 483, 484, 485, 486, 
487, 488, 489, 490, 491, 492, 493, 494, 495, 496, 
497, 498, 499, 500, 501, 502, 503, 504, 505, 506, 
507, 508, 509, 510, 511, 512, 513, 514, 515, 516, 
517, 518, 519, 520, 521, 522, 523, 524, 525, 526, 
527, 528, 529, 530, 531, 532, 533, 534, 535, 536, 
537, 538, 539, 540, 541, 542, 543, 544, 545, 546, 
547, 548, 549, 550, 551, 552, 553, 554, 555, 556, 
557, 558, 559, 560, 561, 562, 563, 564, 565, 566, 
567, 568, 569, 570, 571, 572, 573, 574, 575, 576, 
577, 578, 579, 580, 581, 582, 583, 584, 585, 586, 
587, 588, 589, 590, 591, 592, 593, 594, 595, 596, 
597, 598, 599, 600, 601, 602, 603, 604, 605, 606, 
607, 608, 609, 610, 611, 612, 613, 614, 615, 616, 
617, 618, 619, 620, 621, 622, 623, 624, 625, 626, 
627, 628, 629, 630, 631, 632, 633, 634, 635, 636, 
637, 638, 639, 640, 641, 642, 643, 644, 645, 646, 
647, 648, 649, 650, 651, 652, 653, 654, 655, 656, 
657, 658, 659, 660, 661, 662, 663, 664, 665, 666, 
667, 668, 669, 670, 671, 672, 673, 674, 675, 676, 
677, 678, 679, 680, 681, 682, 683, 684, 685, 686, 
687, 688, 689, 690, 691, 692, 693, 694, 695, 696, 
697, 698, 699, 700, 701, 702, 703, 704, 705, 706, 
707, 708, 709, 710, 711, 712, 713, 714, 715, 716, 
717, 718, 719, 720, 721, 722, 723, 724, 725, 726, 
727, 728, 729, 730, 731, 732, 733, 734, 735, 736, 
737, 738, 739, 740, 741, 742, 743, 744, 745, 746, 
747, 748, 749, 750, 751, 752, 753, 754, 755, 756, 
757, 758, 759, 760, 761, 762, 763, 764, 765, 766, 
767, 768, 769, 770, 771, 772, 773, 774, 775, 776, 
777, 778, 779, 780, 781, 782, 783, 784, 785, 786, 
787, 788, 789, 790, 791, 792, 793, 794, 795, 796, 
797, 798, 799, 800, 801, 802, 803, 804, 805, 806, 
807, 808, 809, 810, 811, 812, 813, 814, 815, 816, 
817, 818, 819, 820, 821, 822, 823, 824, 825, 826, 
827, 828, 829, 830, 831, 832, 833, 834, 835, 836, 
837, 838, 839, 840, 841, 842, 843, 844, 845, 846, 
847, 848, 849, 850, 851, 852, 853, 854, 855, 856, 
857, 858, 859, 860, 861, 862, 863, 864, 865, 866, 
867, 868, 869, 870, 871, 872, 873, 874, 875, 876, 
877, 878, 879, 880, 881, 882, 883, 884, 885, 886, 
887, 888, 889, 890, 891, 892, 893, 894, 895, 896, 
897, 898, 899, 900, 901, 902, 903, 904, 905, 906, 
907, 908, 909, 910, 911, 912, 913, 914, 915, 916, 
917, 918, 919, 920, 921, 922, 923, 924, 925, 926, 
927, 928, 929, 930, 931, 932, 933, 934, 935, 936, 
937, 938, 939, 940, 941, 942, 943, 944, 945, 946, 
947, 948, 949, 950, 951, 952, 953, 954, 955, 956, 
957, 958, 959, 960, 961, 962, 963, 964, 965, 966, 
967, 968, 969, 970, 971, 972, 973, 974, 975, 976, 
977, 978, 979, 980, 981, 982, 983, 984, 985, 986, 
987, 988, 989, 990, 991, 992, 993, 994, 995, 996, 
997, 998, 999, 1000, 1001, 1002, 1003, 1004, 1005, 1006, 
1007, 1008, 1009, 1010, 1011, 1012, 1013, 1014, 1015, 1016, 
1017, 1018, 1019, 1020, 1021, 1022, 1023, 1024, 1025, 1026, 
1027, 1028, 1029, 1030, 1031, 1032, 1033, 1034, 1035, 1036, 
1037, 1038, 1039, 1040, 1041, 1042, 1043, 1044, 1045, 1046, 
1047, 1048, 1049, 1050, 1051, 1052, 1053, 1054, 1055, 1056, 
1057, 1058, 1059, 1060, 1061, 1062, 1063, 1064, 1065, 1066, 
1067, 1068, 1069, 1070, 1071, 1072, 1073, 1074, 1075, 1076, 
1077, 1078, 1079, 1080, 1081, 1082, 1083, 1084, 1085, 1086, 
1087, 1088, 1089, 1090, 1091, 1092, 1093, 1094, 1095, 1096, 
1097, 1098, 1099, 1100, 1101, 1102, 1103, 1104, 1105, 1106, 
1107, 1108, 1109, 1110, 1111, 1112, 1113, 1114, 1115, 1116, 
1117, 1118, 1119, 1120, 1121, 1122, 1123, 1124, 1125, 1126, 
1127, 1128, 1129, 1130, 1131, 1132, 1133, 1134, 1135, 1136, 
1137, 1138, 1139, 1140, 1141, 1142, 1143, 1144, 1145, 1146, 
1147, 1148, 1149, 1150, 1151, 1152, 1153, 1154, 1155, 1156, 
1157, 1158, 1159, 1160, 1161, 1162, 1163, 1164, 1165, 1166, 
1167, 1168, 1169, 1170, 1171, 1172, 1173, 1174, 1175, 1176, 
1177, 1178, 1179, 1180, 1181, 1182, 1183, 1184, 1185, 1186, 
1187, 1188, 1189, 1190, 1191, 1192, 1193, 1194, 1195, 1196, 
1197, 1198, 1199, 1200, 1201, 1202, 1203, 1204, 1205, 1206, 
1207, 1208, 1209, 1210, 1211, 1212, 1213, 1214, 1215, 1216, 
1217, 1218, 1219, 1220, 1221, 1222, 1223, 1224, 1225, 1226, 
1227, 1228, 1229, 1230, 1231, 1232, 1233, 1234, 1235, 1236, 
1237, 1238, 1239, 1240, 1241, 1242, 1243, 1244, 1245, 1246, 
1247, 1248, 1249, 1250, 1251, 1252, 1253, 1254, 1255, 1256, 
1257, 1258, 1259, 1260, 1261, 1262, 1263, 1264, 1265, 1266, 
1267, 1268, 1269, 1270, 1271, 1272, 1273, 1274, 1275, 1276, 
1277, 1278, 1279, 1280, 1281, 1282, 1283, 1284, 1285, 1286, 
1287, 1288, 1289, 1290, 1291, 1292, 1293, 1294, 1295, 1296, 
1297, 1298, 1299, 1300, 1301, 1302, 1303, 1304, 1305, 1306, 
1307, 1308, 1309, 1310, 1311, 1312, 1313, 1314, 1315, 1316, 
1317, 1318, 1319, 1320, 1321, 1322, 1323, 1324, 1325, 1326, 
1327, 1328, 1329, 1330, 1331, 1332, 1333, 1334, 1335, 1336, 
1337, 1338, 1339, 1340, 1341, 1342, 1343, 1344, 1345, 1346, 
1347, 1348, 1349, 1350, 1351, 1352, 1353, 1354, 1355, 1356, 
1357, 1358, 1359, 1360, 1361, 1362, 1363, 1364, 1365, 1366, 
1367, 1368, 1369, 1370, 1371, 1372, 1373, 1374, 1375, 1376, 
1377, 1378, 1379, 1380, 1381, 1382, 1383, 1384, 1385, 1386, 
1387, 1388, 1389, 1390, 1391, 1392, 1393, 1394, 1395, 1396, 
1397, 1398, 1399, 1400, 1401, 1402, 1403, 1404, 1405, 1406, 
1407, 1408, 1409, 1410, 1411, 1412, 1413, 1414, 1415, 1416, 
1417, 1418, 1419, 1420, 1421, 1422, 1423, 1424, 1425, 1426, 
1427, 1428, 1429, 1430, 1431, 1432, 1433, 1434, 1435, 1436, 
1437, 1438, 1439, 1440, 1441, 1442, 1443, 1444, 1445, 1446, 
1447, 1448, 1449, 1450, 1451, 1452, 1453, 1454, 1455, 1456, 
1457, 1458, 1459, 1460, 1461, 1462, 1463, 1464, 1465, 1466, 
1467, 1468, 1469, 1470, 1471, 1472, 1473, 1474, 1475, 1476, 
1477, 1478, 1479, 1480, 1481, 1482, 1483, 1484, 1485, 1486, 
1487, 1488, 1489, 1490, 1491, 1492, 1493, 1494, 1495, 1496, 
1497, 1498, 1499, 1500, 1501, 1502, 1503, 1504, 1505, 1506, 
1507, 1508, 1509, 1510, 1511, 1512, 1513, 1514, 1515, 1516, 
1517, 1518, 1519, 1520, 1521, 1522, 1523, 1524, 1525, 1526, 
1527, 1528, 1529, 1530, 1531, 1532, 1533, 1534, 1535, 1536, 
1537, 1538, 1539, 1540, 1541, 1542, 1543, 1544, 1545, 1546, 
1547, 1548, 1549, 1550, 1551, 1552, 1553, 1554, 1555, 1556, 
1557, 1558, 1559, 1560, 1561, 1562, 1563, 1564, 1565, 1566, 
1567, 1568, 1569, 1570, 1571, 1572, 1573, 1574, 1575, 1576, 
1577, 1578, 1579, 1580, 1581, 1582, 1583, 1584, 1585, 1586, 
1587, 1588, 1589, 1590, 1591, 1592, 1593, 1594, 1595, 1596, 
1597, 1598, 1599, 1600, 1601, 1602, 1603, 1604, 1605, 1606, 
1607, 1608, 1609, 1610, 1611, 1612, 1613, 1614, 1615, 1616, 
1617, 1618, 1619, 1620, 1621, 1622, 1623, 1624, 1625, 1626, 
1627, 1628, 1629, 1630, 1631, 1632, 1633, 1634, 1635, 1636, 
1637, 1638, 1639, 1640, 1641, 1642, 1643, 1644, 1645, 1646, 
1647, 1648, 1649, 1650, 1651, 1652, 1653, 1654, 1655, 1656, 
1657, 1658, 1659, 1660, 1661, 1662, 1663, 1664, 1665, 1666, 
1667, 1668, 1669, 1670, 1671, 1672, 1673, 1674, 1675, 1676, 
1677, 1678, 1679, 1680, 1681, 1682, 1683, 1684, 1685, 1686, 
1687, 1688, 1689, 1690, 1691, 1692, 1693, 1694, 1695, 1696, 
1697, 1698, 1699, 1700, 1701, 1702, 1703, 1704, 1705, 1706, 
1707, 1708, 1709, 1710, 1711, 1712, 1713, 1714, 1715, 1716, 
1717, 1718, 1719, 1720, 1721, 1722, 1723, 1724, 1725, 1726, 
1727, 1728, 1729, 1730, 1731, 1732, 1733, 1734, 1735, 1736, 
1737, 1738, 1739, 1740, 1741, 1742, 1743, 1744, 1745, 1746, 
1747, 1748, 1749, 1750, 1751, 1752, 1753, 1754, 1755, 1756, 
1757, 1758, 1759, 1760, 1761, 1762, 1763, 1764, 1765, 1766, 
1767, 1768, 1769, 1770, 1771, 1772, 1773, 1774, 1775, 1776, 
1777, 1778, 1779, 1780, 1781, 1782, 1783, 1784, 1785, 1786, 
1787, 1788, 1789, 1790, 1791, 1792, 1793, 1794, 1795, 1796, 
1797, 1798, 1799, 1800, 1801, 1802, 1803, 1804, 1805, 1806, 
1807, 1808, 1809, 1810, 1811, 1812, 1813, 1814, 1815, 1816, 
1817, 1818, 1819, 1820, 1821, 1822, 1823, 1824, 1825, 1826, 
1827, 1828, 1829, 1830, 1831, 1832, 1833, 1834, 1835, 1836, 
1837, 1838, 1839, 1840, 1841, 1842, 1843, 1844, 1845, 1846, 
1847, 1848, 1849, 1850, 1851, 1852, 1853, 1854, 1855, 1856, 
1857, 1858, 1859, 1860, 1861, 1862, 1863, 1864, 1865, 1866, 
1867, 1868, 1869, 1870, 1871, 1872, 1873, 1874, 1875, 1876, 
1877, 1878, 1879, 1880, 1881, 1882, 1883, 1884, 1885, 1886, 
1887, 1888, 1889, 1890, 1891, 1892, 1893, 1894, 1895, 1896, 
1897, 1898, 1899, 1900, 1901, 1902, 1903, 1904, 1905, 1906, 
1907, 1908, 1909, 1910, 1911, 1912, 1913, 1914, 1915, 1916, 
1917, 1918, 1919, 1920, 1921, 1922, 1923, 1924, 1925, 1926, 
1927, 1928, 1929, 1930, 1931, 1932, 1933, 1934, 1935, 1936, 
1937, 1938, 1939, 1940, 1941, 1942, 1943, 1944, 1945, 1946, 
1947, 1948, 1949, 1950, 1951, 1952, 1953, 1954, 1955, 1956, 
1957, 1958, 1959, 1960, 1961, 1962, 1963, 1964, 1965, 1966, 
1967, 1968, 1969, 1970, 1971, 1972, 1973, 1974, 1975, 1976, 
1977, 1978, 1979, 1980, 1981, 1982, 1983, 1984, 1985, 1986, 
1987, 1988, 1989, 1990, 1991, 1992, 1993, 1994, 1995, 1996, 
1997, 1998, 1999, 2000, 2001, 2002, 2003, 2004, 2005, 2006, 
2007, 2008, 2009, 2010, 2011, 2012, 2013, 2014, 2015, 2016, 
2017, 2018, 2019, 2020, 2021, 2022, 2023, 2024, 2025, 2026, 
2027, 2028, 2029, 2030, 2031, 2032, 2033, 2034, 2035, 2036, 
2037, 2038, 2039, 2040, 2041, 2042, 2043, 2044, 2045, 2046, 
2047, 2048, 2049, 2050, 2051, 2052, 2053, 2054, 2055, 2056, 
2057, 2058, 2059, 2060, 2061, 2062, 2063, 2064, 2065, 2066, 
2067, 2068, 2069, 2070, 2071, 2072, 2073, 2074, 2075, 2076, 
2077, 2078, 2079, 2080, 2081, 2082, 2083, 2084, 2085, 2086, 
2087, 2088, 2089, 2090, 2091, 2092, 2093, 2094, 2095, 2096, 
2097, 2098, 2099, 2100, 2101, 2102, 2103, 2104, 2105, 2106, 
2107, 2108, 2109, 2110, 2111, 2112, 2113, 2114, 2115, 2116, 
2117, 2118, 2119, 2120, 2121, 2122, 2123, 2124, 2125, 2126, 
2127, 2128, 2129, 2130, 2131, 2132, 2133, 2134, 2135, 2136, 
2137, 2138, 2139, 2140, 2141, 2142, 2143, 2144, 2145, 2146, 
2147, 2148, 2149, 2150, 2151, 2152, 2153, 2154, 2155, 2156, 
2157, 2158, 2159, 2160, 2161, 2162, 2163, 2164, 2165, 2166, 
2167, 2168, 2169, 2170, 2171, 2172, 2173, 2174, 2175, 2176, 
2177, 2178, 2179, 2180, 2181, 2182, 2183, 2184, 2185, 2186, 
2187, 2188, 2189, 2190, 2191, 2192, 2193, 2194, 2195, 2196, 
2197, 2198, 2199, 2200, 2201, 2202, 2203, 2204, 2205, 2206, 
2207, 2208, 2209, 2210, 2211, 2212, 2213, 2214, 2215, 2216, 
2217, 2218, 2219, 2220, 2221, 2222, 2223, 2224, 2225, 2226, 
2227, 2228, 2229, 2230, 2231, 2232, 2233, 2234, 2235, 2236, 
2237, 2238, 2239, 2240, 2241, 2242, 2243, 2244, 2245, 2246, 
2247, 2248, 2249, 2250, 2251, 2252, 2253, 2254, 2255, 2256, 
2257, 2258, 2259, 2260, 2261, 2262, 2263, 2264, 2265, 2266, 
2267, 2268, 2269, 2270, 2271, 2272, 2273, 2274, 2275, 2276, 
2277, 2278, 2279, 2280, 2281, 2282, 2283, 2284, 2285, 2286, 
2287, 
*ELSET,ELSET=skir_carbo_und
2288, 2289, 2290, 2291, 2292, 2293, 2294, 2295, 2296, 2297, 
2298, 2299, 2300, 2301, 2302, 2303, 2304, 2305, 2306, 2307, 
2308, 2309, 2310, 2311, 2312, 2313, 2314, 2315, 2316, 2317, 
2318, 2319, 2320, 2321, 2322, 2323, 2324, 2325, 2326, 2327, 
2328, 2329, 2330, 2331, 2332, 2333, 2334, 2335, 2336, 2337, 
2338, 2339, 2340, 2341, 2342, 2343, 2344, 2345, 2346, 2347, 
2348, 2349, 2350, 2351, 2352, 2353, 2354, 2355, 2356, 2357, 
2358, 2359, 2360, 2361, 2362, 2363, 2364, 2365, 2366, 2367, 
2368, 
*ELSET,ELSET=base_plate_inner_YFIX
2443, 2444, 2445, 2446, 2447, 2448, 2449, 2450, 2451, 2452, 
2453, 2454, 2455, 2456, 2457, 2458, 2459, 2460, 2461, 2462, 
2463, 2464, 2465, 2466, 2467, 2468, 2469, 2470, 2471, 2472, 
2473, 2474, 2475, 2476, 2477, 2478, 2479, 2480, 2481, 2482, 
2483, 2484, 2485, 2486, 2487, 2488, 
*ELSET,ELSET=ovalop1_surf
2489, 2490, 2491, 2492, 2493, 2494, 2495, 2496, 2497, 2498, 
2499, 2500, 2501, 2502, 2503, 2504, 2505, 2506, 2507, 2508, 
2509, 2510, 2511, 2512, 
*ELSET,ELSET=ovalop2_surf
2513, 2514, 2515, 2516, 2517, 2518, 2519, 2520, 2521, 2522, 
2523, 2524, 2525, 2526, 2527, 2528, 2529, 2530, 2531, 2532, 
2533, 2534, 2535, 2536, 
*ELSET,ELSET=opening2_surf
2369, 2370, 2371, 2372, 2373, 2374, 2375, 2376, 2377, 2378, 
2379, 2380, 2381, 2382, 2383, 2384, 2385, 
*ELSET,ELSET=manhole_surf
2386, 2387, 2388, 2389, 2390, 2391, 2392, 2393, 2394, 2395, 
2396, 2397, 2398, 2399, 2400, 2401, 2402, 2403, 
*ELSET,ELSET=gussets_surf
99, 2404, 2405, 2406, 2407, 2408, 2409, 2410, 2411, 2412, 
2413, 2414, 2415, 2416, 2417, 2418, 2419, 2420, 2421, 2422, 
2423, 2424, 2425, 2426, 2427, 2428, 2429, 2430, 2431, 2432, 
2433, 2434, 2435, 2436, 2437, 2438, 2439, 2440, 2441, 2442, 
*ELSET,ELSET=uppe_plate_gusst
2537, 2538, 2539, 2540, 2541, 2542, 2543, 2544, 2545, 2546, 
2547, 2548, 2549, 2550, 2551, 2552, 2553, 2554, 2555, 2556, 
2557, 2558, 2559, 2560, 2561, 2562, 2563, 2564, 2565, 2566, 
2567, 2568, 2569, 2570, 2571, 2572, 2573, 2574, 2575, 2576, 
*ELSET,ELSET=base_plate_gusst_YFIX
2577, 2578, 2579, 2580, 2581, 2582, 2583, 2584, 2585, 2586, 
2587, 2588, 2589, 2590, 2591, 2592, 2593, 2594, 2595, 2596, 
2597, 2598, 2599, 2600, 2601, 2602, 2603, 2604, 2605, 2606, 
2607, 2608, 2609, 2610, 2611, 2612, 2613, 2614, 2615, 2616, 
*NSET,NSET=skir_sless_uprin_CLOAD
156, 510, 511, 512, 513, 514, 515, 516, 517, 518, 
519, 520, 521, 522, 523, 524, 525, 526, 527, 528, 
529, 530, 531, 532, 533, 534, 535, 536, 537, 538, 
539, 540, 541, 542, 543, 544, 545, 546, 547, 548, 
549, 550, 551, 552, 553, 554, 555, 556, 557, 558, 
559, 560, 561, 562, 563, 564, 565, 566, 567, 568, 
569, 570, 571, 572, 573, 574, 575, 576, 577, 578, 
579, 580, 581, 582, 583, 584, 585, 586, 587, 588, 
*NSET,NSET=skir_carbo_ctrin_XZFIX
3, 12, 16, 20, 24, 28, 32, 36, 40, 44, 
48, 52, 56, 60, 64, 68, 72, 76, 80, 84, 
88, 92, 96, 100, 104, 108, 112, 116, 120, 124, 
128, 132, 136, 140, 144, 148, 152, 169, 191, 194, 
766, 767, 768, 769, 770, 771, 772, 773, 774, 775, 
776, 777, 778, 779, 780, 781, 782, 783, 784, 785, 
786, 787, 788, 789, 790, 791, 792, 793, 794, 795, 
796, 797, 798, 799, 800, 801, 802, 803, 804, 805, 
*NSET,NSET=skir_opening2_CONT
159, 692, 693, 694, 695, 696, 697, 698, 699, 700, 
701, 702, 703, 704, 705, 706, 707, 708, 709, 710, 
*NSET,NSET=skir_manhole_CONT
168, 751, 752, 753, 754, 755, 756, 757, 758, 759, 
760, 761, 762, 763, 764, 765, 
*NSET,NSET=skir_sless
154, 155, 156, 417, 418, 419, 420, 421, 422, 423, 
424, 425, 426, 427, 428, 429, 430, 431, 432, 433, 
434, 435, 436, 437, 438, 439, 440, 441, 442, 443, 
444, 445, 446, 447, 448, 449, 450, 451, 452, 453, 
454, 455, 456, 457, 458, 459, 460, 461, 462, 463, 
464, 465, 466, 467, 468, 469, 470, 471, 472, 473, 
474, 475, 476, 477, 478, 479, 480, 481, 482, 483, 
484, 485, 486, 487, 488, 489, 490, 491, 492, 493, 
494, 495, 496, 497, 498, 499, 500, 501, 502, 503, 
504, 505, 506, 507, 508, 509, 510, 511, 512, 513, 
514, 515, 516, 517, 518, 519, 520, 521, 522, 523, 
524, 525, 526, 527, 528, 529, 530, 531, 532, 533, 
534, 535, 536, 537, 538, 539, 540, 541, 542, 543, 
544, 545, 546, 547, 548, 549, 550, 551, 552, 553, 
554, 555, 556, 557, 558, 559, 560, 561, 562, 563, 
564, 565, 566, 567, 568, 569, 570, 571, 572, 573, 
574, 575, 576, 577, 578, 579, 580, 581, 582, 583, 
584, 585, 586, 587, 588, 1063, 1064, 1065, 1066, 1067, 
1068, 1069, 1070, 1071, 1072, 1073, 1074, 1075, 1076, 1077, 
1078, 1079, 1080, 1081, 1082, 1083, 1084, 1085, 1086, 1087, 
1088, 1089, 1090, 1091, 1092, 1093, 1094, 1095, 1096, 1097, 
1098, 1099, 1100, 1101, 1102, 1103, 1104, 1105, 1106, 1107, 
1108, 1109, 1110, 1111, 1112, 1113, 1114, 1115, 1116, 1117, 
1118, 1119, 1120, 1121, 1122, 1123, 1124, 1125, 1126, 1127, 
1128, 1129, 1130, 1131, 1132, 1133, 1134, 1135, 1136, 1137, 
1138, 1139, 1140, 1141, 1142, 1143, 1144, 1145, 1146, 1147, 
1148, 1149, 1150, 1151, 1152, 1153, 1154, 1155, 1156, 1157, 
1158, 1159, 1160, 1161, 1162, 1163, 1164, 1165, 1166, 1167, 
1168, 1169, 1170, 1171, 1172, 1173, 1174, 1175, 1176, 1177, 
1178, 1179, 1180, 1181, 1182, 1183, 1184, 1185, 1186, 1187, 
1188, 1189, 1190, 1191, 1192, 1193, 1194, 1195, 1196, 1197, 
1198, 1199, 1200, 1201, 1202, 1203, 1204, 1205, 1206, 1207, 
1208, 1209, 1210, 1211, 1212, 1213, 1214, 1215, 1216, 1217, 
1218, 1219, 1220, 1221, 1222, 1223, 1224, 1225, 1226, 1227, 
1228, 1229, 1230, 1231, 1232, 1233, 1234, 1235, 1236, 1237, 
1238, 1239, 1240, 1241, 1242, 1243, 1244, 1245, 1246, 1247, 
1248, 1249, 1250, 1251, 1252, 1253, 1254, 1255, 1256, 1257, 
1258, 1259, 1260, 1261, 1262, 1263, 1264, 1265, 1266, 1267, 
1268, 1269, 1270, 1271, 1272, 1273, 1274, 1275, 1276, 1277, 
1278, 1279, 1280, 1281, 1282, 1283, 1284, 1285, 1286, 1287, 
1288, 1289, 1290, 1291, 1292, 1293, 1294, 1295, 1296, 1297, 
1298, 1299, 1300, 1301, 1302, 1303, 1304, 1305, 1306, 1307, 
1308, 1309, 1310, 1311, 1312, 1313, 1314, 1315, 1316, 1317, 
1318, 1319, 1320, 1321, 1322, 1323, 1324, 1325, 1326, 1327, 
1328, 1329, 1330, 1331, 1332, 1333, 1334, 1335, 1336, 1337, 
1338, 1339, 1340, 1341, 1342, 1343, 1344, 1345, 1346, 1347, 
1348, 1349, 1350, 1351, 1352, 1353, 1354, 1355, 1356, 1357, 
1358, 1359, 1360, 1361, 1362, 1363, 1364, 1365, 1366, 1367, 
1368, 1369, 1370, 1371, 1372, 1373, 1374, 1375, 1376, 1377, 
1378, 1379, 1380, 1381, 1382, 1383, 1384, 1385, 1386, 1387, 
1388, 1389, 1390, 1391, 1392, 1393, 1394, 1395, 1396, 1397, 
1398, 1399, 1400, 1401, 1402, 1403, 1404, 1405, 1406, 1407, 
1408, 1409, 1410, 1411, 1412, 1413, 1414, 1415, 1416, 1417, 
1418, 1419, 1420, 1421, 1422, 1423, 1424, 1425, 1426, 1427, 
1428, 1429, 1430, 1431, 1432, 1433, 1434, 1435, 1436, 1437, 
1438, 1439, 1440, 1441, 1442, 1443, 1444, 1445, 1446, 1447, 
1448, 1449, 1450, 1451, 1452, 1453, 1454, 1455, 1456, 1457, 
1458, 1459, 1460, 1461, 1462, 1463, 1464, 1465, 1466, 1467, 
1468, 1469, 1470, 1471, 1472, 1473, 1474, 1475, 1476, 1477, 
1478, 1479, 1480, 1481, 1482, 1483, 1484, 1485, 1486, 1487, 
1488, 1489, 1490, 1491, 1492, 1493, 1494, 1495, 1496, 1497, 
1498, 1499, 1500, 1501, 1502, 1503, 1504, 1505, 1506, 1507, 
1508, 1509, 1510, 1511, 1512, 1513, 1514, 1515, 1516, 1517, 
1518, 1519, 1520, 1521, 1522, 1523, 1524, 1525, 1526, 1527, 
1528, 1529, 1530, 1531, 1532, 1533, 1534, 1535, 1536, 1537, 
1538, 1539, 1540, 1541, 1542, 1543, 1544, 1545, 1546, 1547, 
1548, 1549, 1550, 1551, 1552, 1553, 1554, 1555, 1556, 1557, 
1558, 1559, 1560, 1561, 1562, 1563, 1564, 1565, 1566, 1567, 
1568, 1569, 1570, 1571, 1572, 1573, 1574, 1575, 1576, 1577, 
1578, 1579, 1580, 1581, 1582, 1583, 1584, 1585, 1586, 1587, 
1588, 1589, 1590, 1591, 1592, 1593, 1594, 1595, 1596, 1597, 
1598, 1599, 1600, 1601, 1602, 1603, 1604, 1605, 1606, 1607, 
1608, 1609, 1610, 1611, 1612, 1613, 1614, 1615, 1616, 1617, 
1618, 1619, 1620, 1621, 1622, 1623, 1624, 1625, 1626, 1627, 
1628, 1629, 1630, 1631, 1632, 1633, 1634, 1635, 1636, 1637, 
1638, 1639, 1640, 1641, 1642, 1643, 1644, 1645, 1646, 1647, 
1648, 1649, 1650, 1651, 1652, 1653, 1654, 1655, 1656, 1657, 
1658, 1659, 1660, 1661, 1662, 1663, 1664, 1665, 1666, 1667, 
1668, 1669, 1670, 1671, 1672, 1673, 1674, 1675, 1676, 1677, 
1678, 1679, 1680, 1681, 1682, 1683, 1684, 1685, 1686, 1687, 
1688, 1689, 1690, 1691, 1692, 1693, 1694, 1695, 1696, 1697, 
1698, 1699, 1700, 1701, 1702, 1703, 1704, 1705, 1706, 1707, 
1708, 1709, 1710, 1711, 1712, 1713, 1714, 1715, 1716, 1717, 
1718, 1719, 1720, 1721, 1722, 1723, 1724, 1725, 1726, 1727, 
1728, 1729, 1730, 1731, 1732, 1733, 1734, 1735, 1736, 1737, 
1738, 1739, 1740, 1741, 1742, 1743, 1744, 1745, 1746, 1747, 
1748, 1749, 1750, 1751, 1752, 1753, 1754, 1755, 1756, 1757, 
1758, 1759, 1760, 1761, 1762, 1763, 1764, 1765, 1766, 1767, 
1768, 1769, 1770, 1771, 1772, 1773, 1774, 1775, 1776, 1777, 
1778, 1779, 1780, 1781, 1782, 1783, 1784, 1785, 1786, 1787, 
1788, 1789, 1790, 1791, 1792, 1793, 1794, 1795, 1796, 1797, 
1798, 1799, 1800, 1801, 1802, 1803, 1804, 1805, 1806, 1807, 
1808, 1809, 1810, 1811, 1812, 1813, 1814, 1815, 1816, 1817, 
1818, 1819, 1820, 1821, 1822, 1823, 1824, 1825, 1826, 1827, 
1828, 1829, 1830, 1831, 1832, 1833, 1834, 1835, 1836, 1837, 
1838, 1839, 1840, 1841, 1842, 1843, 1844, 1845, 1846, 1847, 
1848, 1849, 1850, 1851, 1852, 1853, 1854, 1855, 1856, 1857, 
1858, 1859, 1860, 1861, 1862, 1863, 1864, 1865, 1866, 1867, 
1868, 1869, 1870, 1871, 1872, 1873, 1874, 1875, 1876, 1877, 
1878, 1879, 1880, 1881, 1882, 1883, 1884, 1885, 1886, 1887, 
1888, 1889, 1890, 1891, 1892, 1893, 1894, 1895, 1896, 1897, 
1898, 1899, 1900, 1901, 1902, 1903, 1904, 1905, 1906, 1907, 
1908, 1909, 1910, 1911, 1912, 1913, 1914, 1915, 1916, 1917, 
1918, 1919, 1920, 1921, 1922, 1923, 1924, 1925, 1926, 1927, 
1928, 1929, 1930, 1931, 1932, 1933, 1934, 1935, 1936, 1937, 
1938, 1939, 1940, 1941, 1942, 1943, 1944, 1945, 1946, 1947, 
1948, 1949, 1950, 1951, 1952, 1953, 1954, 1955, 1956, 1957, 
1958, 1959, 1960, 1961, 1962, 1963, 1964, 1965, 1966, 1967, 
1968, 1969, 1970, 1971, 1972, 1973, 1974, 1975, 1976, 1977, 
1978, 1979, 1980, 1981, 1982, 1983, 1984, 1985, 1986, 1987, 
1988, 1989, 1990, 1991, 1992, 1993, 1994, 1995, 1996, 1997, 
1998, 1999, 2000, 2001, 2002, 2003, 2004, 2005, 2006, 2007, 
2008, 2009, 2010, 2011, 2012, 2013, 2014, 2015, 2016, 2017, 
2018, 2019, 2020, 2021, 2022, 2023, 2024, 2025, 2026, 2027, 
2028, 2029, 2030, 2031, 2032, 2033, 2034, 2035, 2036, 2037, 
2038, 2039, 2040, 2041, 2042, 2043, 2044, 2045, 2046, 2047, 
2048, 2049, 2050, 2051, 2052, 2053, 2054, 2055, 2056, 2057, 
2058, 2059, 2060, 2061, 2062, 2063, 2064, 2065, 2066, 2067, 
2068, 2069, 2070, 2071, 2072, 2073, 2074, 2075, 2076, 2077, 
2078, 2079, 2080, 2081, 2082, 2083, 2084, 2085, 2086, 2087, 
2088, 2089, 2090, 2091, 2092, 2093, 2094, 2095, 2096, 2097, 
2098, 
*NSET,NSET=skir_carbo_mid
4, 13, 17, 21, 25, 29, 33, 37, 41, 45, 
49, 53, 57, 61, 65, 69, 73, 77, 81, 85, 
89, 93, 97, 101, 105, 109, 113, 117, 121, 125, 
129, 133, 137, 141, 145, 149, 153, 154, 155, 157, 
158, 159, 160, 161, 162, 163, 164, 165, 166, 167, 
168, 170, 417, 418, 419, 420, 421, 422, 423, 424, 
425, 426, 427, 428, 429, 430, 431, 432, 433, 434, 
435, 436, 437, 438, 439, 440, 441, 442, 443, 444, 
445, 446, 447, 448, 449, 450, 451, 452, 453, 454, 
455, 456, 457, 458, 459, 460, 461, 462, 463, 464, 
465, 466, 467, 468, 469, 470, 471, 472, 473, 474, 
475, 476, 477, 478, 479, 480, 481, 482, 483, 484, 
485, 486, 487, 488, 489, 490, 491, 492, 493, 494, 
589, 590, 591, 592, 593, 594, 595, 596, 597, 598, 
599, 600, 601, 602, 603, 604, 605, 606, 607, 608, 
609, 610, 611, 612, 613, 614, 615, 616, 617, 618, 
619, 620, 621, 622, 623, 624, 625, 626, 627, 628, 
629, 630, 631, 632, 633, 634, 635, 636, 637, 638, 
639, 640, 641, 642, 643, 644, 645, 646, 647, 648, 
649, 650, 651, 652, 653, 654, 655, 656, 657, 658, 
659, 660, 661, 662, 663, 664, 665, 666, 667, 668, 
669, 670, 671, 672, 673, 674, 675, 676, 677, 678, 
679, 680, 681, 682, 683, 684, 685, 686, 687, 688, 
689, 690, 691, 692, 693, 694, 695, 696, 697, 698, 
699, 700, 701, 702, 703, 704, 705, 706, 707, 708, 
709, 710, 711, 712, 713, 714, 715, 716, 717, 718, 
719, 720, 721, 722, 723, 724, 725, 726, 727, 728, 
729, 730, 731, 732, 733, 734, 735, 736, 737, 738, 
739, 740, 741, 742, 743, 744, 745, 746, 747, 748, 
749, 750, 751, 752, 753, 754, 755, 756, 757, 758, 
759, 760, 761, 762, 763, 764, 765, 2099, 2100, 2101, 
2102, 2103, 2104, 2105, 2106, 2107, 2108, 2109, 2110, 2111, 
2112, 2113, 2114, 2115, 2116, 2117, 2118, 2119, 2120, 2121, 
2122, 2123, 2124, 2125, 2126, 2127, 2128, 2129, 2130, 2131, 
2132, 2133, 2134, 2135, 2136, 2137, 2138, 2139, 2140, 2141, 
2142, 2143, 2144, 2145, 2146, 2147, 2148, 2149, 2150, 2151, 
2152, 2153, 2154, 2155, 2156, 2157, 2158, 2159, 2160, 2161, 
2162, 2163, 2164, 2165, 2166, 2167, 2168, 2169, 2170, 2171, 
2172, 2173, 2174, 2175, 2176, 2177, 2178, 2179, 2180, 2181, 
2182, 2183, 2184, 2185, 2186, 2187, 2188, 2189, 2190, 2191, 
2192, 2193, 2194, 2195, 2196, 2197, 2198, 2199, 2200, 2201, 
2202, 2203, 2204, 2205, 2206, 2207, 2208, 2209, 2210, 2211, 
2212, 2213, 2214, 2215, 2216, 2217, 2218, 2219, 2220, 2221, 
2222, 2223, 2224, 2225, 2226, 2227, 2228, 2229, 2230, 2231, 
2232, 2233, 2234, 2235, 2236, 2237, 2238, 2239, 2240, 2241, 
2242, 2243, 2244, 2245, 2246, 2247, 2248, 2249, 2250, 2251, 
2252, 2253, 2254, 2255, 2256, 2257, 2258, 2259, 2260, 2261, 
2262, 2263, 2264, 2265, 2266, 2267, 2268, 2269, 2270, 2271, 
2272, 2273, 2274, 2275, 2276, 2277, 2278, 2279, 2280, 2281, 
2282, 2283, 2284, 2285, 2286, 2287, 2288, 2289, 2290, 2291, 
2292, 2293, 2294, 2295, 2296, 2297, 2298, 2299, 2300, 2301, 
2302, 2303, 2304, 2305, 2306, 2307, 2308, 2309, 2310, 2311, 
2312, 2313, 2314, 2315, 2316, 2317, 2318, 2319, 2320, 2321, 
2322, 2323, 2324, 2325, 2326, 2327, 2328, 2329, 2330, 2331, 
2332, 2333, 2334, 2335, 2336, 2337, 2338, 2339, 2340, 2341, 
2342, 2343, 2344, 2345, 2346, 2347, 2348, 2349, 2350, 2351, 
2352, 2353, 2354, 2355, 2356, 2357, 2358, 2359, 2360, 2361, 
2362, 2363, 2364, 2365, 2366, 2367, 2368, 2369, 2370, 2371, 
2372, 2373, 2374, 2375, 2376, 2377, 2378, 2379, 2380, 2381, 
2382, 2383, 2384, 2385, 2386, 2387, 2388, 2389, 2390, 2391, 
2392, 2393, 2394, 2395, 2396, 2397, 2398, 2399, 2400, 2401, 
2402, 2403, 2404, 2405, 2406, 2407, 2408, 2409, 2410, 2411, 
2412, 2413, 2414, 2415, 2416, 2417, 2418, 2419, 2420, 2421, 
2422, 2423, 2424, 2425, 2426, 2427, 2428, 2429, 2430, 2431, 
2432, 2433, 2434, 2435, 2436, 2437, 2438, 2439, 2440, 2441, 
2442, 2443, 2444, 2445, 2446, 2447, 2448, 2449, 2450, 2451, 
2452, 2453, 2454, 2455, 2456, 2457, 2458, 2459, 2460, 2461, 
2462, 2463, 2464, 2465, 2466, 2467, 2468, 2469, 2470, 2471, 
2472, 2473, 2474, 2475, 2476, 2477, 2478, 2479, 2480, 2481, 
2482, 2483, 2484, 2485, 2486, 2487, 2488, 2489, 2490, 2491, 
2492, 2493, 2494, 2495, 2496, 2497, 2498, 2499, 2500, 2501, 
2502, 2503, 2504, 2505, 2506, 2507, 2508, 2509, 2510, 2511, 
2512, 2513, 2514, 2515, 2516, 2517, 2518, 2519, 2520, 2521, 
2522, 2523, 2524, 2525, 2526, 2527, 2528, 2529, 2530, 2531, 
2532, 2533, 2534, 2535, 2536, 2537, 2538, 2539, 2540, 2541, 
2542, 2543, 2544, 2545, 2546, 2547, 2548, 2549, 2550, 2551, 
2552, 2553, 2554, 2555, 2556, 2557, 2558, 2559, 2560, 2561, 
2562, 2563, 2564, 2565, 2566, 2567, 2568, 2569, 2570, 2571, 
2572, 2573, 2574, 2575, 2576, 2577, 2578, 2579, 2580, 2581, 
2582, 2583, 2584, 2585, 2586, 2587, 2588, 2589, 2590, 2591, 
2592, 2593, 2594, 2595, 2596, 2597, 2598, 2599, 2600, 2601, 
2602, 2603, 2604, 2605, 2606, 2607, 2608, 2609, 2610, 2611, 
2612, 2613, 2614, 2615, 2616, 2617, 2618, 2619, 2620, 2621, 
2622, 2623, 2624, 2625, 2626, 2627, 2628, 2629, 2630, 2631, 
2632, 2633, 2634, 2635, 2636, 2637, 2638, 2639, 2640, 2641, 
2642, 2643, 2644, 2645, 2646, 2647, 2648, 2649, 2650, 2651, 
2652, 2653, 2654, 2655, 2656, 2657, 2658, 2659, 2660, 2661, 
2662, 2663, 2664, 2665, 2666, 2667, 2668, 2669, 2670, 2671, 
2672, 2673, 2674, 2675, 2676, 2677, 2678, 2679, 2680, 2681, 
2682, 2683, 2684, 2685, 2686, 2687, 2688, 2689, 2690, 2691, 
2692, 2693, 2694, 2695, 2696, 2697, 2698, 2699, 2700, 2701, 
2702, 2703, 2704, 2705, 2706, 2707, 2708, 2709, 2710, 2711, 
2712, 2713, 2714, 2715, 2716, 2717, 2718, 2719, 2720, 2721, 
2722, 2723, 2724, 2725, 2726, 2727, 2728, 2729, 2730, 2731, 
2732, 2733, 2734, 2735, 2736, 2737, 2738, 2739, 2740, 2741, 
2742, 2743, 2744, 2745, 2746, 2747, 2748, 2749, 2750, 2751, 
2752, 2753, 2754, 2755, 2756, 2757, 2758, 2759, 2760, 2761, 
2762, 2763, 2764, 2765, 2766, 2767, 2768, 2769, 2770, 2771, 
2772, 2773, 2774, 2775, 2776, 2777, 2778, 2779, 2780, 2781, 
2782, 2783, 2784, 2785, 2786, 2787, 2788, 2789, 2790, 2791, 
2792, 2793, 2794, 2795, 2796, 2797, 2798, 2799, 2800, 2801, 
2802, 2803, 2804, 2805, 2806, 2807, 2808, 2809, 2810, 2811, 
2812, 2813, 2814, 2815, 2816, 2817, 2818, 2819, 2820, 2821, 
2822, 2823, 2824, 2825, 2826, 2827, 2828, 2829, 2830, 2831, 
2832, 2833, 2834, 2835, 2836, 2837, 2838, 2839, 2840, 2841, 
2842, 2843, 2844, 2845, 2846, 2847, 2848, 2849, 2850, 2851, 
2852, 2853, 2854, 2855, 2856, 2857, 2858, 2859, 2860, 2861, 
2862, 2863, 2864, 2865, 2866, 2867, 2868, 2869, 2870, 2871, 
2872, 2873, 2874, 2875, 2876, 2877, 2878, 2879, 2880, 2881, 
2882, 2883, 2884, 2885, 2886, 2887, 2888, 2889, 2890, 2891, 
2892, 2893, 2894, 2895, 2896, 2897, 2898, 2899, 2900, 2901, 
2902, 2903, 2904, 2905, 2906, 2907, 2908, 2909, 2910, 2911, 
2912, 2913, 2914, 2915, 2916, 2917, 2918, 2919, 2920, 2921, 
2922, 2923, 2924, 2925, 2926, 2927, 2928, 2929, 2930, 2931, 
2932, 2933, 2934, 2935, 2936, 2937, 2938, 2939, 2940, 2941, 
2942, 2943, 2944, 2945, 2946, 2947, 2948, 2949, 2950, 2951, 
2952, 2953, 2954, 2955, 2956, 2957, 2958, 2959, 2960, 2961, 
2962, 2963, 2964, 2965, 2966, 2967, 2968, 2969, 2970, 2971, 
2972, 2973, 2974, 2975, 2976, 2977, 2978, 2979, 2980, 2981, 
2982, 2983, 2984, 2985, 2986, 2987, 2988, 2989, 2990, 2991, 
2992, 2993, 2994, 2995, 2996, 2997, 2998, 2999, 3000, 3001, 
3002, 3003, 3004, 3005, 3006, 3007, 3008, 3009, 3010, 3011, 
3012, 3013, 3014, 3015, 3016, 3017, 3018, 3019, 3020, 3021, 
3022, 3023, 3024, 3025, 3026, 3027, 3028, 3029, 3030, 3031, 
3032, 3033, 3034, 3035, 3036, 3037, 3038, 3039, 3040, 3041, 
3042, 3043, 3044, 3045, 3046, 3047, 3048, 3049, 3050, 3051, 
3052, 3053, 3054, 3055, 3056, 3057, 3058, 3059, 3060, 3061, 
3062, 3063, 3064, 3065, 3066, 3067, 3068, 3069, 3070, 3071, 
3072, 3073, 3074, 3075, 3076, 3077, 3078, 3079, 3080, 3081, 
3082, 3083, 3084, 3085, 3086, 3087, 3088, 3089, 3090, 3091, 
3092, 3093, 3094, 3095, 3096, 3097, 3098, 3099, 3100, 3101, 
3102, 3103, 3104, 3105, 3106, 3107, 3108, 3109, 3110, 3111, 
3112, 3113, 3114, 3115, 3116, 3117, 3118, 3119, 3120, 3121, 
3122, 3123, 3124, 3125, 3126, 3127, 3128, 3129, 3130, 3131, 
3132, 3133, 3134, 3135, 3136, 3137, 3138, 3139, 3140, 3141, 
3142, 3143, 3144, 3145, 3146, 3147, 3148, 3149, 3150, 3151, 
3152, 3153, 3154, 3155, 3156, 3157, 3158, 3159, 3160, 3161, 
3162, 3163, 3164, 3165, 3166, 3167, 3168, 3169, 3170, 3171, 
3172, 3173, 3174, 3175, 3176, 3177, 3178, 3179, 3180, 3181, 
3182, 3183, 3184, 3185, 3186, 3187, 3188, 3189, 3190, 3191, 
3192, 3193, 3194, 3195, 3196, 3197, 3198, 3199, 3200, 3201, 
3202, 3203, 3204, 3205, 3206, 3207, 3208, 3209, 3210, 3211, 
3212, 3213, 3214, 3215, 3216, 3217, 3218, 3219, 3220, 3221, 
3222, 3223, 3224, 3225, 3226, 3227, 3228, 3229, 3230, 3231, 
3232, 3233, 3234, 3235, 3236, 3237, 3238, 3239, 3240, 3241, 
3242, 3243, 3244, 3245, 3246, 3247, 3248, 3249, 3250, 3251, 
3252, 3253, 3254, 3255, 3256, 3257, 3258, 3259, 3260, 3261, 
3262, 3263, 3264, 3265, 3266, 3267, 3268, 3269, 3270, 3271, 
3272, 3273, 3274, 3275, 3276, 3277, 3278, 3279, 3280, 3281, 
3282, 3283, 3284, 3285, 3286, 3287, 3288, 3289, 3290, 3291, 
3292, 3293, 3294, 3295, 3296, 3297, 3298, 3299, 3300, 3301, 
3302, 3303, 3304, 3305, 3306, 3307, 3308, 3309, 3310, 3311, 
3312, 3313, 3314, 3315, 3316, 3317, 3318, 3319, 3320, 3321, 
3322, 3323, 3324, 3325, 3326, 3327, 3328, 3329, 3330, 3331, 
3332, 3333, 3334, 3335, 3336, 3337, 3338, 3339, 3340, 3341, 
3342, 3343, 3344, 3345, 3346, 3347, 3348, 3349, 3350, 3351, 
3352, 3353, 3354, 3355, 3356, 3357, 3358, 3359, 3360, 3361, 
3362, 3363, 3364, 3365, 3366, 3367, 3368, 3369, 3370, 3371, 
3372, 3373, 3374, 3375, 3376, 3377, 3378, 3379, 3380, 3381, 
3382, 3383, 3384, 3385, 3386, 3387, 3388, 3389, 3390, 3391, 
3392, 3393, 3394, 3395, 3396, 3397, 3398, 3399, 3400, 3401, 
3402, 3403, 3404, 3405, 3406, 3407, 3408, 3409, 3410, 3411, 
3412, 3413, 3414, 3415, 3416, 3417, 3418, 3419, 3420, 3421, 
3422, 3423, 3424, 3425, 3426, 3427, 3428, 3429, 3430, 3431, 
3432, 3433, 3434, 3435, 3436, 3437, 3438, 3439, 3440, 3441, 
3442, 3443, 3444, 3445, 3446, 3447, 3448, 3449, 3450, 3451, 
3452, 3453, 3454, 3455, 3456, 3457, 3458, 3459, 3460, 3461, 
3462, 3463, 3464, 3465, 3466, 3467, 3468, 3469, 3470, 3471, 
3472, 3473, 3474, 3475, 3476, 3477, 3478, 3479, 3480, 3481, 
3482, 3483, 3484, 3485, 3486, 3487, 3488, 3489, 3490, 3491, 
3492, 3493, 3494, 3495, 3496, 3497, 3498, 3499, 3500, 3501, 
3502, 3503, 3504, 3505, 3506, 3507, 3508, 3509, 3510, 3511, 
3512, 3513, 3514, 3515, 3516, 3517, 3518, 3519, 3520, 3521, 
3522, 3523, 3524, 3525, 3526, 3527, 3528, 3529, 3530, 3531, 
3532, 3533, 3534, 3535, 3536, 3537, 3538, 3539, 3540, 3541, 
3542, 3543, 3544, 3545, 3546, 3547, 3548, 3549, 3550, 3551, 
3552, 3553, 3554, 3555, 3556, 3557, 3558, 3559, 3560, 3561, 
3562, 3563, 3564, 3565, 3566, 3567, 3568, 3569, 3570, 3571, 
3572, 3573, 3574, 3575, 3576, 3577, 3578, 3579, 3580, 3581, 
3582, 3583, 3584, 3585, 3586, 3587, 3588, 3589, 3590, 3591, 
3592, 3593, 3594, 3595, 3596, 3597, 3598, 3599, 3600, 3601, 
3602, 3603, 3604, 3605, 3606, 3607, 3608, 3609, 3610, 3611, 
3612, 3613, 3614, 3615, 3616, 3617, 3618, 3619, 3620, 3621, 
3622, 3623, 3624, 3625, 3626, 3627, 3628, 3629, 3630, 3631, 
3632, 3633, 3634, 3635, 3636, 3637, 3638, 3639, 3640, 3641, 
3642, 3643, 3644, 3645, 3646, 3647, 3648, 3649, 3650, 3651, 
3652, 3653, 3654, 3655, 3656, 3657, 3658, 3659, 3660, 3661, 
3662, 3663, 3664, 3665, 3666, 3667, 3668, 3669, 3670, 3671, 
3672, 3673, 3674, 3675, 3676, 3677, 3678, 3679, 3680, 3681, 
3682, 3683, 3684, 3685, 3686, 3687, 3688, 3689, 3690, 3691, 
3692, 3693, 3694, 3695, 3696, 3697, 3698, 3699, 3700, 3701, 
3702, 3703, 3704, 3705, 3706, 3707, 3708, 3709, 3710, 3711, 
3712, 3713, 3714, 3715, 3716, 3717, 3718, 3719, 3720, 3721, 
3722, 3723, 3724, 3725, 3726, 3727, 3728, 3729, 3730, 3731, 
3732, 3733, 3734, 3735, 3736, 3737, 3738, 3739, 3740, 3741, 
3742, 3743, 3744, 3745, 3746, 3747, 3748, 3749, 3750, 3751, 
3752, 3753, 3754, 3755, 3756, 3757, 3758, 3759, 3760, 3761, 
3762, 3763, 3764, 3765, 3766, 3767, 3768, 3769, 3770, 3771, 
3772, 3773, 3774, 3775, 3776, 3777, 3778, 3779, 3780, 3781, 
3782, 3783, 3784, 3785, 3786, 3787, 3788, 3789, 3790, 3791, 
3792, 3793, 3794, 3795, 3796, 3797, 3798, 3799, 3800, 3801, 
3802, 3803, 3804, 3805, 3806, 3807, 3808, 3809, 3810, 3811, 
3812, 3813, 3814, 3815, 3816, 3817, 3818, 3819, 3820, 3821, 
3822, 3823, 3824, 3825, 3826, 3827, 3828, 3829, 3830, 3831, 
3832, 3833, 3834, 3835, 3836, 3837, 3838, 3839, 3840, 3841, 
3842, 3843, 3844, 3845, 3846, 3847, 3848, 3849, 3850, 3851, 
3852, 3853, 3854, 3855, 3856, 3857, 3858, 3859, 3860, 3861, 
3862, 3863, 3864, 3865, 3866, 3867, 3868, 3869, 3870, 3871, 
3872, 3873, 3874, 3875, 3876, 3877, 3878, 3879, 3880, 3881, 
3882, 3883, 3884, 3885, 3886, 3887, 3888, 3889, 3890, 3891, 
3892, 3893, 3894, 3895, 3896, 3897, 3898, 3899, 3900, 3901, 
3902, 3903, 3904, 3905, 3906, 3907, 3908, 3909, 3910, 3911, 
3912, 3913, 3914, 3915, 3916, 3917, 3918, 3919, 3920, 3921, 
3922, 3923, 3924, 3925, 3926, 3927, 3928, 3929, 3930, 3931, 
3932, 3933, 3934, 3935, 3936, 3937, 3938, 3939, 3940, 3941, 
3942, 3943, 3944, 3945, 3946, 3947, 3948, 3949, 3950, 3951, 
3952, 3953, 3954, 3955, 3956, 3957, 3958, 3959, 3960, 3961, 
3962, 3963, 3964, 3965, 3966, 3967, 3968, 3969, 3970, 3971, 
3972, 3973, 3974, 3975, 3976, 3977, 3978, 3979, 3980, 3981, 
3982, 3983, 3984, 3985, 3986, 3987, 3988, 3989, 3990, 3991, 
3992, 3993, 3994, 3995, 3996, 3997, 3998, 3999, 4000, 4001, 
4002, 4003, 4004, 4005, 4006, 4007, 4008, 4009, 4010, 4011, 
4012, 4013, 4014, 4015, 4016, 4017, 4018, 4019, 4020, 4021, 
4022, 4023, 4024, 4025, 4026, 4027, 4028, 4029, 4030, 4031, 
4032, 4033, 4034, 4035, 4036, 4037, 4038, 4039, 4040, 4041, 
4042, 4043, 4044, 4045, 4046, 4047, 4048, 4049, 4050, 4051, 
4052, 4053, 4054, 4055, 4056, 4057, 4058, 4059, 4060, 4061, 
4062, 4063, 4064, 4065, 4066, 4067, 4068, 4069, 4070, 4071, 
4072, 4073, 4074, 4075, 4076, 4077, 4078, 4079, 4080, 4081, 
4082, 4083, 4084, 4085, 4086, 4087, 4088, 4089, 4090, 4091, 
4092, 4093, 4094, 4095, 4096, 4097, 4098, 4099, 4100, 4101, 
4102, 4103, 4104, 4105, 4106, 4107, 4108, 4109, 4110, 4111, 
4112, 4113, 4114, 4115, 4116, 4117, 4118, 4119, 4120, 4121, 
4122, 4123, 4124, 4125, 4126, 4127, 4128, 4129, 4130, 4131, 
4132, 4133, 4134, 4135, 4136, 4137, 4138, 4139, 4140, 4141, 
4142, 4143, 4144, 4145, 4146, 4147, 4148, 4149, 4150, 4151, 
4152, 4153, 4154, 4155, 4156, 4157, 4158, 4159, 4160, 4161, 
4162, 4163, 4164, 4165, 4166, 4167, 4168, 4169, 4170, 4171, 
4172, 4173, 4174, 4175, 4176, 4177, 4178, 4179, 4180, 4181, 
4182, 4183, 4184, 4185, 4186, 4187, 4188, 4189, 4190, 4191, 
4192, 4193, 4194, 4195, 4196, 4197, 4198, 4199, 4200, 4201, 
4202, 4203, 4204, 4205, 4206, 4207, 4208, 4209, 4210, 4211, 
4212, 4213, 4214, 4215, 4216, 4217, 4218, 4219, 4220, 4221, 
4222, 4223, 4224, 4225, 4226, 4227, 4228, 4229, 4230, 4231, 
4232, 4233, 4234, 4235, 4236, 4237, 4238, 4239, 4240, 4241, 
4242, 4243, 4244, 4245, 4246, 4247, 4248, 4249, 4250, 4251, 
4252, 4253, 4254, 4255, 4256, 4257, 4258, 4259, 4260, 4261, 
4262, 4263, 4264, 4265, 4266, 4267, 4268, 4269, 4270, 4271, 
4272, 4273, 4274, 4275, 4276, 4277, 4278, 4279, 4280, 4281, 
4282, 4283, 4284, 4285, 4286, 4287, 4288, 4289, 4290, 4291, 
4292, 4293, 4294, 4295, 4296, 4297, 4298, 4299, 4300, 4301, 
4302, 4303, 4304, 4305, 4306, 4307, 4308, 4309, 4310, 4311, 
4312, 4313, 4314, 4315, 4316, 4317, 4318, 4319, 4320, 4321, 
4322, 4323, 4324, 4325, 4326, 4327, 4328, 4329, 4330, 4331, 
4332, 4333, 4334, 4335, 4336, 4337, 4338, 4339, 4340, 4341, 
4342, 4343, 4344, 4345, 4346, 4347, 4348, 4349, 4350, 4351, 
4352, 4353, 4354, 4355, 4356, 4357, 4358, 4359, 4360, 4361, 
4362, 4363, 4364, 4365, 4366, 4367, 4368, 4369, 4370, 4371, 
4372, 4373, 4374, 4375, 4376, 4377, 4378, 4379, 4380, 4381, 
4382, 4383, 4384, 4385, 4386, 4387, 4388, 4389, 4390, 4391, 
4392, 4393, 4394, 4395, 4396, 4397, 4398, 4399, 4400, 4401, 
4402, 4403, 4404, 4405, 4406, 4407, 4408, 4409, 4410, 4411, 
4412, 4413, 4414, 4415, 4416, 4417, 4418, 4419, 4420, 4421, 
4422, 4423, 4424, 4425, 4426, 4427, 4428, 4429, 4430, 4431, 
4432, 4433, 4434, 4435, 4436, 4437, 4438, 4439, 4440, 4441, 
4442, 4443, 4444, 4445, 4446, 4447, 4448, 4449, 4450, 4451, 
4452, 4453, 4454, 4455, 4456, 4457, 4458, 4459, 4460, 4461, 
4462, 4463, 4464, 4465, 4466, 4467, 4468, 4469, 4470, 4471, 
4472, 4473, 4474, 4475, 4476, 4477, 4478, 4479, 4480, 4481, 
4482, 4483, 4484, 4485, 4486, 4487, 4488, 4489, 4490, 4491, 
4492, 4493, 4494, 4495, 4496, 4497, 4498, 4499, 4500, 4501, 
4502, 4503, 4504, 4505, 4506, 4507, 4508, 4509, 4510, 4511, 
4512, 4513, 4514, 4515, 4516, 4517, 4518, 4519, 4520, 4521, 
4522, 4523, 4524, 4525, 4526, 4527, 4528, 4529, 4530, 4531, 
4532, 4533, 4534, 4535, 4536, 4537, 4538, 4539, 4540, 4541, 
4542, 4543, 4544, 4545, 4546, 4547, 4548, 4549, 4550, 4551, 
4552, 4553, 4554, 4555, 4556, 4557, 4558, 4559, 4560, 4561, 
4562, 4563, 4564, 4565, 4566, 4567, 4568, 4569, 4570, 4571, 
4572, 4573, 4574, 4575, 4576, 4577, 4578, 4579, 4580, 4581, 
4582, 4583, 4584, 4585, 4586, 4587, 4588, 4589, 4590, 4591, 
4592, 4593, 4594, 4595, 4596, 4597, 4598, 4599, 4600, 4601, 
4602, 4603, 4604, 4605, 4606, 4607, 4608, 4609, 4610, 4611, 
4612, 4613, 4614, 4615, 4616, 4617, 4618, 4619, 4620, 4621, 
4622, 4623, 4624, 4625, 4626, 4627, 4628, 4629, 4630, 4631, 
4632, 4633, 4634, 4635, 4636, 4637, 4638, 4639, 4640, 4641, 
4642, 4643, 4644, 4645, 4646, 4647, 4648, 4649, 4650, 4651, 
4652, 4653, 4654, 4655, 4656, 4657, 4658, 4659, 4660, 4661, 
4662, 4663, 4664, 4665, 4666, 4667, 4668, 4669, 4670, 4671, 
4672, 4673, 4674, 4675, 4676, 4677, 4678, 4679, 4680, 4681, 
4682, 4683, 4684, 4685, 4686, 4687, 4688, 4689, 4690, 4691, 
4692, 4693, 4694, 4695, 4696, 4697, 4698, 4699, 4700, 4701, 
4702, 4703, 4704, 4705, 4706, 4707, 4708, 4709, 4710, 4711, 
4712, 4713, 4714, 4715, 4716, 4717, 4718, 4719, 4720, 4721, 
4722, 4723, 4724, 4725, 4726, 4727, 4728, 4729, 4730, 4731, 
4732, 4733, 4734, 4735, 4736, 4737, 4738, 4739, 4740, 4741, 
4742, 4743, 4744, 4745, 4746, 4747, 4748, 4749, 4750, 4751, 
4752, 4753, 4754, 4755, 4756, 4757, 4758, 4759, 4760, 4761, 
4762, 4763, 4764, 4765, 4766, 4767, 4768, 4769, 4770, 4771, 
4772, 4773, 4774, 4775, 4776, 4777, 4778, 4779, 4780, 4781, 
4782, 4783, 4784, 4785, 4786, 4787, 4788, 4789, 4790, 4791, 
4792, 4793, 4794, 4795, 4796, 4797, 4798, 4799, 4800, 4801, 
4802, 4803, 4804, 4805, 4806, 4807, 4808, 4809, 4810, 4811, 
4812, 4813, 4814, 4815, 4816, 4817, 4818, 4819, 4820, 4821, 
4822, 4823, 4824, 4825, 4826, 4827, 4828, 4829, 4830, 4831, 
4832, 4833, 4834, 4835, 4836, 4837, 4838, 4839, 4840, 4841, 
4842, 4843, 4844, 4845, 4846, 4847, 4848, 4849, 4850, 4851, 
4852, 4853, 4854, 4855, 4856, 4857, 4858, 4859, 4860, 4861, 
4862, 4863, 4864, 4865, 4866, 4867, 4868, 4869, 4870, 4871, 
4872, 4873, 4874, 4875, 4876, 4877, 4878, 4879, 4880, 4881, 
4882, 4883, 4884, 4885, 4886, 4887, 4888, 4889, 4890, 4891, 
4892, 4893, 4894, 4895, 4896, 4897, 4898, 4899, 4900, 4901, 
4902, 4903, 4904, 4905, 4906, 4907, 4908, 4909, 4910, 4911, 
4912, 4913, 4914, 4915, 4916, 4917, 4918, 4919, 4920, 4921, 
4922, 4923, 4924, 4925, 4926, 4927, 4928, 4929, 4930, 4931, 
4932, 4933, 4934, 4935, 4936, 4937, 4938, 4939, 4940, 4941, 
4942, 4943, 4944, 4945, 4946, 4947, 4948, 4949, 4950, 4951, 
4952, 4953, 4954, 4955, 4956, 4957, 4958, 4959, 4960, 4961, 
4962, 4963, 4964, 4965, 4966, 4967, 4968, 4969, 4970, 4971, 
4972, 4973, 4974, 4975, 4976, 4977, 4978, 4979, 4980, 4981, 
4982, 4983, 4984, 4985, 4986, 4987, 4988, 4989, 4990, 4991, 
4992, 4993, 4994, 4995, 4996, 4997, 4998, 4999, 5000, 5001, 
5002, 5003, 5004, 5005, 5006, 5007, 5008, 5009, 5010, 5011, 
5012, 5013, 5014, 5015, 5016, 5017, 5018, 5019, 5020, 5021, 
5022, 5023, 5024, 5025, 5026, 5027, 5028, 5029, 5030, 5031, 
5032, 5033, 5034, 5035, 5036, 5037, 5038, 5039, 5040, 5041, 
5042, 5043, 5044, 5045, 5046, 5047, 5048, 5049, 5050, 5051, 
5052, 5053, 5054, 5055, 5056, 5057, 5058, 5059, 5060, 5061, 
5062, 5063, 5064, 5065, 5066, 5067, 5068, 5069, 5070, 5071, 
5072, 5073, 5074, 5075, 5076, 5077, 5078, 5079, 5080, 5081, 
5082, 5083, 5084, 5085, 5086, 5087, 5088, 5089, 5090, 5091, 
5092, 5093, 5094, 5095, 5096, 5097, 5098, 5099, 5100, 5101, 
5102, 5103, 5104, 5105, 5106, 5107, 5108, 5109, 5110, 5111, 
5112, 5113, 5114, 5115, 5116, 5117, 5118, 5119, 5120, 5121, 
5122, 5123, 5124, 5125, 5126, 5127, 5128, 5129, 5130, 5131, 
5132, 5133, 5134, 5135, 5136, 5137, 5138, 5139, 5140, 5141, 
5142, 5143, 5144, 5145, 5146, 5147, 5148, 5149, 5150, 5151, 
5152, 5153, 5154, 5155, 5156, 5157, 5158, 5159, 5160, 5161, 
5162, 5163, 5164, 5165, 5166, 5167, 5168, 5169, 5170, 5171, 
5172, 5173, 5174, 5175, 5176, 5177, 5178, 5179, 5180, 5181, 
5182, 5183, 5184, 5185, 5186, 5187, 5188, 5189, 5190, 5191, 
5192, 5193, 5194, 5195, 5196, 5197, 5198, 5199, 5200, 5201, 
5202, 5203, 5204, 5205, 5206, 5207, 5208, 5209, 5210, 5211, 
5212, 5213, 5214, 5215, 5216, 5217, 5218, 5219, 5220, 5221, 
5222, 5223, 5224, 5225, 5226, 5227, 5228, 5229, 5230, 5231, 
5232, 5233, 5234, 5235, 5236, 5237, 5238, 5239, 5240, 5241, 
5242, 5243, 5244, 5245, 5246, 5247, 5248, 5249, 5250, 5251, 
5252, 5253, 5254, 5255, 5256, 5257, 5258, 5259, 5260, 5261, 
5262, 5263, 5264, 5265, 5266, 5267, 5268, 5269, 5270, 5271, 
5272, 5273, 5274, 5275, 5276, 5277, 5278, 5279, 5280, 5281, 
5282, 5283, 5284, 5285, 5286, 5287, 5288, 5289, 5290, 5291, 
5292, 5293, 5294, 5295, 5296, 5297, 5298, 5299, 5300, 5301, 
5302, 5303, 5304, 5305, 5306, 5307, 5308, 5309, 5310, 5311, 
5312, 5313, 5314, 5315, 5316, 5317, 5318, 5319, 5320, 5321, 
5322, 5323, 5324, 5325, 5326, 5327, 5328, 5329, 5330, 5331, 
5332, 5333, 5334, 5335, 5336, 5337, 5338, 5339, 5340, 5341, 
5342, 5343, 5344, 5345, 5346, 5347, 5348, 5349, 5350, 5351, 
5352, 5353, 5354, 5355, 5356, 5357, 5358, 5359, 5360, 5361, 
5362, 5363, 5364, 5365, 5366, 5367, 5368, 5369, 5370, 5371, 
5372, 5373, 5374, 5375, 5376, 5377, 5378, 5379, 5380, 5381, 
5382, 5383, 5384, 5385, 5386, 5387, 5388, 5389, 5390, 5391, 
5392, 5393, 5394, 5395, 5396, 5397, 5398, 5399, 5400, 5401, 
5402, 5403, 5404, 5405, 5406, 5407, 5408, 5409, 5410, 5411, 
5412, 5413, 5414, 5415, 5416, 5417, 5418, 5419, 5420, 5421, 
5422, 5423, 5424, 5425, 5426, 5427, 5428, 5429, 5430, 5431, 
5432, 5433, 5434, 5435, 5436, 5437, 5438, 5439, 5440, 5441, 
5442, 5443, 5444, 5445, 5446, 5447, 5448, 5449, 5450, 5451, 
5452, 5453, 5454, 5455, 5456, 5457, 5458, 5459, 5460, 5461, 
5462, 5463, 5464, 5465, 5466, 5467, 5468, 5469, 5470, 5471, 
5472, 5473, 5474, 5475, 5476, 5477, 5478, 5479, 5480, 5481, 
5482, 5483, 5484, 5485, 5486, 5487, 5488, 5489, 5490, 5491, 
5492, 5493, 5494, 5495, 5496, 5497, 5498, 5499, 5500, 5501, 
5502, 5503, 5504, 5505, 5506, 5507, 5508, 5509, 5510, 5511, 
5512, 5513, 5514, 5515, 5516, 5517, 5518, 5519, 5520, 5521, 
5522, 5523, 5524, 5525, 5526, 5527, 5528, 5529, 5530, 5531, 
5532, 5533, 5534, 5535, 5536, 5537, 5538, 5539, 5540, 5541, 
5542, 5543, 5544, 5545, 5546, 5547, 5548, 5549, 5550, 5551, 
5552, 5553, 5554, 5555, 5556, 5557, 5558, 5559, 5560, 5561, 
5562, 5563, 5564, 5565, 5566, 5567, 5568, 5569, 5570, 5571, 
5572, 5573, 5574, 5575, 5576, 5577, 5578, 5579, 5580, 5581, 
5582, 5583, 5584, 5585, 5586, 5587, 5588, 5589, 5590, 5591, 
5592, 5593, 5594, 5595, 5596, 5597, 5598, 5599, 5600, 5601, 
5602, 5603, 5604, 5605, 5606, 5607, 5608, 5609, 5610, 5611, 
5612, 5613, 5614, 5615, 5616, 5617, 5618, 5619, 5620, 5621, 
5622, 5623, 5624, 5625, 5626, 5627, 5628, 5629, 5630, 5631, 
5632, 5633, 5634, 5635, 5636, 5637, 5638, 5639, 5640, 5641, 
5642, 5643, 5644, 5645, 5646, 5647, 5648, 5649, 5650, 5651, 
5652, 5653, 5654, 5655, 5656, 5657, 5658, 5659, 5660, 5661, 
5662, 5663, 5664, 5665, 5666, 5667, 5668, 5669, 5670, 5671, 
5672, 5673, 5674, 5675, 5676, 5677, 5678, 5679, 5680, 5681, 
5682, 5683, 5684, 5685, 5686, 5687, 5688, 5689, 5690, 5691, 
5692, 5693, 5694, 5695, 5696, 5697, 5698, 5699, 5700, 5701, 
5702, 5703, 5704, 5705, 5706, 5707, 5708, 5709, 5710, 5711, 
5712, 5713, 5714, 5715, 5716, 5717, 5718, 5719, 5720, 5721, 
5722, 5723, 5724, 5725, 5726, 5727, 5728, 5729, 5730, 5731, 
5732, 5733, 5734, 5735, 5736, 5737, 5738, 5739, 5740, 5741, 
5742, 5743, 5744, 5745, 5746, 5747, 5748, 5749, 5750, 5751, 
5752, 5753, 5754, 5755, 5756, 5757, 5758, 5759, 5760, 5761, 
5762, 5763, 5764, 5765, 5766, 5767, 5768, 5769, 5770, 5771, 
5772, 5773, 5774, 5775, 5776, 5777, 5778, 5779, 5780, 5781, 
5782, 5783, 5784, 5785, 5786, 5787, 5788, 5789, 5790, 5791, 
5792, 5793, 5794, 5795, 5796, 5797, 5798, 5799, 5800, 5801, 
5802, 5803, 5804, 5805, 5806, 5807, 5808, 5809, 5810, 5811, 
5812, 5813, 5814, 5815, 5816, 5817, 5818, 5819, 5820, 5821, 
5822, 5823, 5824, 5825, 5826, 5827, 5828, 5829, 5830, 5831, 
5832, 5833, 5834, 5835, 5836, 5837, 5838, 5839, 5840, 5841, 
5842, 5843, 5844, 5845, 5846, 5847, 5848, 5849, 5850, 5851, 
5852, 5853, 5854, 5855, 5856, 5857, 5858, 5859, 5860, 5861, 
5862, 5863, 5864, 5865, 5866, 5867, 5868, 5869, 5870, 5871, 
5872, 5873, 5874, 5875, 5876, 5877, 5878, 5879, 5880, 5881, 
5882, 5883, 5884, 5885, 5886, 5887, 5888, 5889, 5890, 5891, 
5892, 5893, 5894, 5895, 5896, 5897, 5898, 5899, 5900, 5901, 
5902, 5903, 5904, 5905, 5906, 5907, 5908, 5909, 5910, 5911, 
5912, 5913, 5914, 5915, 5916, 5917, 5918, 5919, 5920, 5921, 
5922, 5923, 5924, 5925, 5926, 5927, 5928, 5929, 5930, 5931, 
5932, 5933, 5934, 5935, 5936, 5937, 5938, 5939, 5940, 5941, 
5942, 5943, 5944, 5945, 5946, 5947, 5948, 5949, 5950, 5951, 
5952, 5953, 5954, 5955, 5956, 5957, 5958, 5959, 5960, 5961, 
5962, 5963, 5964, 5965, 5966, 5967, 5968, 5969, 5970, 5971, 
5972, 5973, 5974, 5975, 5976, 5977, 5978, 5979, 5980, 5981, 
5982, 5983, 5984, 5985, 5986, 5987, 5988, 5989, 5990, 5991, 
5992, 5993, 5994, 5995, 5996, 5997, 5998, 5999, 6000, 6001, 
6002, 6003, 6004, 6005, 6006, 6007, 6008, 6009, 6010, 6011, 
6012, 6013, 6014, 6015, 6016, 6017, 6018, 6019, 6020, 6021, 
6022, 6023, 6024, 6025, 6026, 6027, 6028, 6029, 6030, 6031, 
6032, 6033, 6034, 6035, 6036, 6037, 6038, 6039, 6040, 6041, 
6042, 6043, 6044, 6045, 6046, 6047, 6048, 6049, 6050, 6051, 
6052, 6053, 6054, 6055, 6056, 6057, 6058, 6059, 6060, 6061, 
6062, 6063, 6064, 6065, 6066, 6067, 6068, 6069, 6070, 6071, 
6072, 6073, 6074, 6075, 6076, 6077, 6078, 6079, 6080, 6081, 
6082, 6083, 6084, 6085, 6086, 6087, 6088, 6089, 6090, 6091, 
6092, 6093, 6094, 6095, 6096, 6097, 6098, 6099, 6100, 6101, 
6102, 6103, 6104, 6105, 6106, 6107, 6108, 6109, 6110, 6111, 
6112, 6113, 6114, 6115, 6116, 6117, 6118, 6119, 6120, 6121, 
6122, 6123, 6124, 6125, 6126, 6127, 6128, 6129, 6130, 6131, 
6132, 6133, 6134, 6135, 6136, 6137, 6138, 6139, 6140, 6141, 
6142, 6143, 6144, 6145, 6146, 6147, 6148, 6149, 6150, 6151, 
6152, 6153, 6154, 6155, 6156, 6157, 6158, 6159, 6160, 6161, 
6162, 6163, 6164, 6165, 6166, 6167, 6168, 6169, 6170, 6171, 
6172, 6173, 6174, 6175, 6176, 6177, 6178, 6179, 6180, 6181, 
6182, 6183, 6184, 6185, 6186, 6187, 6188, 6189, 6190, 6191, 
6192, 6193, 6194, 6195, 6196, 6197, 6198, 6199, 6200, 6201, 
6202, 6203, 6204, 6205, 6206, 6207, 6208, 6209, 6210, 6211, 
6212, 6213, 6214, 6215, 6216, 6217, 6218, 6219, 6220, 6221, 
6222, 6223, 6224, 6225, 6226, 6227, 6228, 6229, 6230, 6231, 
6232, 6233, 6234, 6235, 6236, 6237, 6238, 6239, 6240, 6241, 
6242, 6243, 6244, 6245, 6246, 6247, 6248, 6249, 6250, 6251, 
6252, 6253, 6254, 6255, 6256, 6257, 6258, 6259, 6260, 6261, 
6262, 6263, 6264, 6265, 6266, 6267, 6268, 6269, 6270, 6271, 
6272, 6273, 6274, 6275, 6276, 6277, 6278, 6279, 6280, 6281, 
6282, 6283, 6284, 6285, 6286, 6287, 6288, 6289, 6290, 6291, 
6292, 6293, 6294, 6295, 6296, 6297, 6298, 6299, 6300, 6301, 
6302, 6303, 6304, 6305, 6306, 6307, 6308, 6309, 6310, 6311, 
6312, 6313, 6314, 6315, 6316, 6317, 6318, 6319, 6320, 6321, 
6322, 6323, 6324, 6325, 6326, 6327, 6328, 6329, 6330, 6331, 
6332, 6333, 6334, 6335, 6336, 6337, 6338, 6339, 6340, 6341, 
6342, 6343, 6344, 6345, 6346, 6347, 6348, 6349, 6350, 6351, 
6352, 6353, 6354, 6355, 6356, 6357, 6358, 6359, 6360, 6361, 
6362, 6363, 6364, 6365, 6366, 6367, 6368, 6369, 6370, 6371, 
6372, 6373, 6374, 6375, 6376, 6377, 6378, 6379, 6380, 6381, 
6382, 6383, 6384, 6385, 6386, 6387, 6388, 6389, 6390, 6391, 
6392, 6393, 6394, 6395, 6396, 6397, 6398, 6399, 6400, 6401, 
6402, 6403, 6404, 6405, 6406, 6407, 6408, 6409, 6410, 6411, 
6412, 6413, 6414, 6415, 6416, 6417, 6418, 6419, 6420, 6421, 
6422, 6423, 6424, 6425, 6426, 6427, 6428, 6429, 6430, 6431, 
6432, 6433, 6434, 6435, 6436, 6437, 6438, 6439, 6440, 6441, 
6442, 6443, 6444, 6445, 6446, 6447, 6448, 6449, 6450, 6451, 
6452, 6453, 6454, 6455, 6456, 6457, 6458, 6459, 6460, 6461, 
6462, 6463, 6464, 6465, 6466, 6467, 6468, 6469, 6470, 6471, 
6472, 6473, 6474, 6475, 6476, 6477, 6478, 6479, 6480, 6481, 
6482, 6483, 6484, 6485, 6486, 6487, 6488, 6489, 6490, 6491, 
6492, 6493, 6494, 6495, 6496, 6497, 6498, 6499, 6500, 6501, 
6502, 6503, 6504, 6505, 6506, 6507, 6508, 6509, 6510, 6511, 
6512, 6513, 6514, 6515, 6516, 6517, 6518, 6519, 6520, 6521, 
6522, 6523, 6524, 6525, 6526, 6527, 6528, 6529, 6530, 6531, 
6532, 6533, 6534, 6535, 6536, 6537, 6538, 6539, 6540, 6541, 
6542, 6543, 6544, 6545, 6546, 6547, 6548, 6549, 6550, 6551, 
6552, 6553, 6554, 6555, 6556, 6557, 6558, 6559, 6560, 6561, 
6562, 6563, 6564, 6565, 6566, 6567, 6568, 6569, 6570, 6571, 
6572, 6573, 6574, 6575, 6576, 6577, 6578, 6579, 6580, 6581, 
6582, 6583, 6584, 6585, 6586, 6587, 6588, 6589, 6590, 6591, 
6592, 6593, 6594, 6595, 6596, 6597, 6598, 6599, 6600, 6601, 
6602, 6603, 6604, 6605, 6606, 6607, 6608, 6609, 6610, 6611, 
6612, 6613, 6614, 6615, 6616, 6617, 6618, 6619, 6620, 6621, 
6622, 6623, 6624, 6625, 6626, 6627, 6628, 6629, 6630, 6631, 
6632, 6633, 6634, 6635, 6636, 6637, 6638, 6639, 6640, 6641, 
6642, 6643, 6644, 6645, 6646, 6647, 6648, 6649, 6650, 6651, 
6652, 6653, 6654, 6655, 6656, 6657, 6658, 6659, 6660, 6661, 
6662, 6663, 6664, 6665, 6666, 6667, 6668, 6669, 6670, 6671, 
6672, 6673, 6674, 6675, 6676, 6677, 6678, 6679, 6680, 6681, 
6682, 6683, 6684, 6685, 6686, 6687, 6688, 6689, 6690, 6691, 
6692, 6693, 6694, 6695, 6696, 6697, 6698, 6699, 6700, 6701, 
6702, 6703, 6704, 6705, 6706, 6707, 6708, 6709, 6710, 6711, 
6712, 6713, 6714, 6715, 6716, 6717, 6718, 6719, 6720, 6721, 
6722, 6723, 6724, 6725, 6726, 6727, 6728, 6729, 6730, 6731, 
6732, 6733, 6734, 6735, 6736, 6737, 6738, 6739, 6740, 6741, 
6742, 6743, 6744, 6745, 6746, 6747, 6748, 6749, 6750, 6751, 
6752, 6753, 6754, 6755, 6756, 6757, 6758, 6759, 6760, 6761, 
6762, 6763, 6764, 6765, 6766, 6767, 6768, 6769, 6770, 6771, 
6772, 6773, 6774, 6775, 6776, 6777, 6778, 6779, 6780, 6781, 
6782, 6783, 6784, 6785, 6786, 6787, 6788, 6789, 6790, 6791, 
6792, 6793, 6794, 6795, 6796, 6797, 6798, 6799, 6800, 6801, 
6802, 6803, 6804, 6805, 6806, 6807, 6808, 6809, 6810, 6811, 
6812, 6813, 6814, 6815, 6816, 6817, 6818, 6819, 6820, 6821, 
6822, 6823, 6824, 6825, 6826, 6827, 6828, 6829, 6830, 6831, 
6832, 6833, 6834, 6835, 6836, 6837, 6838, 6839, 6840, 6841, 
6842, 6843, 6844, 6845, 6846, 6847, 6848, 6849, 6850, 6851, 
6852, 6853, 6854, 6855, 6856, 6857, 6858, 6859, 6860, 6861, 
6862, 6863, 6864, 6865, 6866, 6867, 6868, 6869, 6870, 6871, 
6872, 6873, 6874, 6875, 6876, 6877, 6878, 6879, 6880, 6881, 
6882, 6883, 6884, 6885, 6886, 6887, 6888, 6889, 6890, 6891, 
6892, 6893, 6894, 6895, 6896, 6897, 6898, 6899, 6900, 6901, 
6902, 6903, 6904, 6905, 6906, 6907, 6908, 6909, 6910, 6911, 
6912, 6913, 6914, 6915, 6916, 6917, 6918, 6919, 6920, 6921, 
6922, 6923, 6924, 6925, 6926, 6927, 6928, 6929, 6930, 6931, 
6932, 6933, 6934, 6935, 6936, 6937, 6938, 6939, 6940, 6941, 
6942, 6943, 6944, 6945, 6946, 6947, 6948, 6949, 6950, 6951, 
6952, 6953, 6954, 6955, 6956, 6957, 6958, 6959, 6960, 6961, 
6962, 6963, 6964, 6965, 6966, 6967, 6968, 6969, 6970, 6971, 
6972, 6973, 6974, 6975, 6976, 6977, 6978, 6979, 6980, 6981, 
6982, 6983, 6984, 6985, 6986, 6987, 6988, 6989, 6990, 6991, 
6992, 6993, 6994, 6995, 6996, 6997, 6998, 6999, 7000, 7001, 
7002, 7003, 7004, 7005, 7006, 7007, 7008, 7009, 7010, 7011, 
7012, 7013, 7014, 7015, 7016, 7017, 7018, 7019, 7020, 7021, 
7022, 7023, 7024, 7025, 7026, 7027, 7028, 7029, 7030, 7031, 
7032, 7033, 7034, 7035, 7036, 7037, 7038, 7039, 7040, 7041, 
7042, 7043, 7044, 7045, 7046, 7047, 7048, 7049, 7050, 7051, 
7052, 7053, 7054, 7055, 7056, 7057, 7058, 7059, 7060, 7061, 
7062, 7063, 7064, 7065, 7066, 7067, 7068, 7069, 7070, 7071, 
7072, 7073, 7074, 7075, 7076, 7077, 7078, 7079, 7080, 7081, 
7082, 7083, 7084, 7085, 7086, 7087, 7088, 7089, 7090, 7091, 
7092, 7093, 7094, 7095, 7096, 7097, 7098, 7099, 7100, 7101, 
7102, 7103, 7104, 7105, 7106, 7107, 7108, 7109, 7110, 7111, 
7112, 7113, 7114, 7115, 7116, 7117, 7118, 7119, 7120, 7121, 
7122, 7123, 7124, 7125, 7126, 7127, 7128, 7129, 7130, 7131, 
7132, 7133, 7134, 7135, 7136, 7137, 7138, 7139, 7140, 7141, 
7142, 7143, 7144, 7145, 7146, 7147, 7148, 7149, 7150, 7151, 
7152, 7153, 7154, 7155, 7156, 7157, 7158, 7159, 7160, 7161, 
7162, 7163, 7164, 7165, 7166, 7167, 7168, 7169, 7170, 7171, 
7172, 7173, 7174, 7175, 7176, 7177, 7178, 7179, 7180, 7181, 
7182, 7183, 7184, 7185, 7186, 7187, 7188, 7189, 7190, 7191, 
7192, 7193, 7194, 7195, 7196, 7197, 7198, 7199, 7200, 7201, 
7202, 7203, 7204, 7205, 7206, 7207, 7208, 7209, 7210, 7211, 
7212, 7213, 7214, 7215, 7216, 7217, 7218, 7219, 7220, 7221, 
7222, 7223, 7224, 7225, 7226, 7227, 7228, 7229, 7230, 7231, 
7232, 7233, 7234, 7235, 7236, 7237, 7238, 7239, 7240, 7241, 
7242, 7243, 7244, 7245, 7246, 7247, 7248, 7249, 7250, 7251, 
7252, 7253, 7254, 7255, 7256, 7257, 7258, 7259, 7260, 7261, 
7262, 7263, 7264, 7265, 7266, 7267, 7268, 7269, 7270, 7271, 
7272, 7273, 7274, 7275, 7276, 7277, 7278, 7279, 7280, 7281, 
7282, 7283, 7284, 7285, 7286, 7287, 7288, 7289, 7290, 7291, 
7292, 7293, 7294, 7295, 7296, 7297, 7298, 7299, 7300, 7301, 
7302, 7303, 7304, 7305, 7306, 7307, 7308, 7309, 7310, 7311, 
7312, 7313, 7314, 7315, 7316, 7317, 7318, 7319, 7320, 7321, 
7322, 7323, 7324, 7325, 7326, 7327, 7328, 7329, 7330, 7331, 
7332, 7333, 7334, 7335, 7336, 7337, 7338, 7339, 7340, 7341, 
7342, 
*NSET,NSET=skir_carbo_und
3, 4, 12, 13, 16, 17, 20, 21, 24, 25, 
28, 29, 32, 33, 36, 37, 40, 41, 44, 45, 
48, 49, 52, 53, 56, 57, 60, 61, 64, 65, 
68, 69, 72, 73, 76, 77, 80, 81, 84, 85, 
88, 89, 92, 93, 96, 97, 100, 101, 104, 105, 
108, 109, 112, 113, 116, 117, 120, 121, 124, 125, 
128, 129, 132, 133, 136, 137, 140, 141, 144, 145, 
148, 149, 152, 153, 157, 158, 169, 170, 191, 194, 
198, 275, 279, 283, 287, 291, 295, 299, 303, 307, 
335, 339, 343, 347, 351, 355, 359, 363, 367, 371, 
375, 379, 383, 387, 391, 395, 399, 403, 407, 411, 
415, 652, 653, 654, 655, 656, 657, 658, 659, 660, 
661, 662, 663, 664, 665, 666, 667, 668, 669, 670, 
671, 672, 673, 674, 675, 676, 677, 678, 679, 680, 
681, 682, 683, 684, 685, 686, 687, 688, 689, 690, 
691, 766, 767, 768, 769, 770, 771, 772, 773, 774, 
775, 776, 777, 778, 779, 780, 781, 782, 783, 784, 
785, 786, 787, 788, 789, 790, 791, 792, 793, 794, 
795, 796, 797, 798, 799, 800, 801, 802, 803, 804, 
805, 806, 807, 808, 1060, 1062, 7343, 7344, 7345, 7346, 
7347, 7348, 7349, 7350, 7351, 7352, 7353, 7354, 7355, 7356, 
7357, 7358, 7359, 7360, 7361, 7362, 7363, 7364, 7365, 7366, 
7367, 7368, 7369, 7370, 7371, 7372, 7373, 7374, 7375, 7376, 
7377, 7378, 7379, 7380, 7381, 7382, 7383, 7384, 7385, 7386, 
7387, 7388, 7389, 7390, 7391, 7392, 7393, 7394, 7395, 7396, 
7397, 7398, 7399, 7400, 7401, 7402, 7403, 7404, 7405, 7406, 
7407, 7408, 7409, 7410, 7411, 7412, 7413, 7414, 7415, 7416, 
7417, 7418, 7419, 7420, 7421, 7422, 7423, 7424, 7425, 7426, 
7427, 7428, 7429, 7430, 7431, 7432, 7433, 7434, 7435, 7436, 
7437, 7438, 7439, 7440, 7441, 7442, 7443, 7444, 7445, 7446, 
7447, 7448, 7449, 7450, 7451, 7452, 7453, 7454, 7455, 7456, 
7457, 7458, 7459, 7460, 7461, 7462, 7463, 7464, 7465, 7466, 
7467, 7468, 7469, 
*NSET,NSET=base_plate_inner_YFIX
3, 12, 16, 20, 24, 28, 32, 36, 40, 44, 
48, 52, 56, 60, 64, 68, 72, 76, 80, 84, 
88, 92, 96, 100, 104, 108, 112, 116, 120, 124, 
128, 132, 136, 140, 144, 148, 152, 169, 171, 191, 
194, 766, 767, 768, 769, 770, 771, 772, 773, 774, 
775, 776, 777, 778, 779, 780, 781, 782, 783, 784, 
785, 786, 787, 788, 789, 790, 791, 792, 793, 794, 
795, 796, 797, 798, 799, 800, 801, 802, 803, 804, 
805, 809, 810, 811, 812, 813, 814, 815, 816, 817, 
818, 819, 820, 821, 822, 823, 824, 825, 826, 827, 
828, 829, 830, 831, 832, 833, 834, 835, 836, 837, 
838, 839, 840, 841, 842, 843, 844, 845, 846, 847, 
848, 849, 850, 851, 852, 853, 854, 855, 856, 857, 
858, 859, 860, 861, 862, 863, 864, 865, 866, 867, 
868, 869, 870, 871, 872, 873, 874, 875, 7498, 7499, 
7500, 7501, 7502, 7503, 7504, 7505, 7506, 7507, 7508, 7509, 
7510, 7511, 7512, 7513, 7514, 7515, 7516, 7517, 7518, 7519, 
7520, 7521, 7522, 7523, 7524, 7525, 7526, 7527, 7528, 7529, 
7530, 7531, 7532, 7533, 7534, 7535, 7536, 7537, 7538, 7539, 
7540, 7541, 7542, 7543, 7544, 7545, 7546, 7547, 7548, 7549, 
7550, 7551, 7552, 7553, 7554, 7555, 
*NSET,NSET=ovalop1_surf
160, 161, 162, 163, 172, 173, 174, 175, 176, 177, 
178, 179, 711, 712, 713, 714, 715, 716, 717, 718, 
719, 720, 721, 722, 723, 724, 725, 726, 727, 728, 
729, 730, 876, 877, 878, 879, 880, 881, 882, 883, 
884, 885, 886, 887, 888, 889, 890, 891, 892, 893, 
894, 895, 896, 897, 898, 899, 900, 901, 902, 903, 
904, 905, 906, 907, 908, 909, 910, 911, 912, 913, 
914, 915, 916, 917, 918, 919, 920, 921, 922, 923, 
7556, 7557, 7558, 7559, 7560, 7561, 7562, 7563, 7564, 7565, 
7566, 7567, 7568, 7569, 7570, 7571, 
*NSET,NSET=ovalop2_surf
164, 165, 166, 167, 180, 181, 182, 183, 184, 185, 
186, 187, 731, 732, 733, 734, 735, 736, 737, 738, 
739, 740, 741, 742, 743, 744, 745, 746, 747, 748, 
749, 750, 924, 925, 926, 927, 928, 929, 930, 931, 
932, 933, 934, 935, 936, 937, 938, 939, 940, 941, 
942, 943, 944, 945, 946, 947, 948, 949, 950, 951, 
952, 953, 954, 955, 956, 957, 958, 959, 960, 961, 
962, 963, 964, 965, 966, 967, 968, 969, 970, 971, 
7572, 7573, 7574, 7575, 7576, 7577, 7578, 7579, 7580, 7581, 
7582, 7583, 7584, 7585, 7586, 7587, 
*NSET,NSET=opening2_surf
5, 6, 200, 201, 202, 203, 204, 205, 206, 207, 
208, 209, 210, 211, 212, 213, 214, 215, 216, 217, 
218, 219, 220, 221, 222, 223, 224, 225, 226, 227, 
228, 229, 230, 231, 232, 233, 234, 235, 236, 237, 
238, 239, 240, 700, 702, 704, 707, 709, 7470, 7471, 
7472, 7473, 7474, 7475, 7476, 7477, 7478, 7479, 7480, 7481, 
7482, 7483, 7484, 
*NSET,NSET=manhole_surf
7, 8, 9, 241, 242, 243, 244, 245, 246, 247, 
248, 249, 250, 251, 252, 253, 254, 255, 256, 257, 
258, 259, 260, 261, 262, 263, 264, 265, 266, 267, 
268, 269, 270, 271, 272, 751, 753, 755, 757, 759, 
760, 763, 764, 7485, 7486, 7487, 7488, 7489, 7490, 7491, 
7492, 7493, 7494, 7495, 7496, 7497, 
*NSET,NSET=gussets_surf
1, 2, 3, 4, 10, 11, 12, 13, 14, 15, 
16, 17, 18, 19, 20, 21, 22, 23, 24, 25, 
26, 27, 28, 29, 30, 31, 32, 33, 34, 35, 
36, 37, 38, 39, 40, 41, 42, 43, 44, 45, 
46, 47, 48, 49, 50, 51, 52, 53, 54, 55, 
56, 57, 58, 59, 60, 61, 62, 63, 64, 65, 
66, 67, 68, 69, 70, 71, 72, 73, 74, 75, 
76, 77, 78, 79, 80, 81, 82, 83, 84, 85, 
86, 87, 88, 89, 90, 91, 92, 93, 94, 95, 
96, 97, 98, 99, 100, 101, 102, 103, 104, 105, 
106, 107, 108, 109, 110, 111, 112, 113, 114, 115, 
116, 117, 118, 119, 120, 121, 122, 123, 124, 125, 
126, 127, 128, 129, 130, 131, 132, 133, 134, 135, 
136, 137, 138, 139, 140, 141, 142, 143, 144, 145, 
146, 147, 148, 149, 150, 151, 152, 153, 157, 158, 
169, 170, 188, 189, 190, 191, 192, 193, 194, 195, 
196, 197, 198, 199, 273, 274, 275, 276, 277, 278, 
279, 280, 281, 282, 283, 284, 285, 286, 287, 288, 
289, 290, 291, 292, 293, 294, 295, 296, 297, 298, 
299, 300, 301, 302, 303, 304, 305, 306, 307, 308, 
309, 310, 311, 312, 313, 314, 315, 316, 317, 318, 
319, 320, 321, 322, 323, 324, 325, 326, 327, 328, 
329, 330, 331, 332, 333, 334, 335, 336, 337, 338, 
339, 340, 341, 342, 343, 344, 345, 346, 347, 348, 
349, 350, 351, 352, 353, 354, 355, 356, 357, 358, 
359, 360, 361, 362, 363, 364, 365, 366, 367, 368, 
369, 370, 371, 372, 373, 374, 375, 376, 377, 378, 
379, 380, 381, 382, 383, 384, 385, 386, 387, 388, 
389, 390, 391, 392, 393, 394, 395, 396, 397, 398, 
399, 400, 401, 402, 403, 404, 405, 406, 407, 408, 
409, 410, 411, 412, 413, 414, 415, 416, 806, 972, 
992, 1013, 1015, 1035, 1056, 1058, 1059, 1060, 1061, 1062, 
*NSET,NSET=uppe_plate_gusst
1, 4, 10, 13, 14, 17, 18, 21, 22, 25, 
26, 29, 30, 33, 34, 37, 38, 41, 42, 45, 
46, 49, 50, 53, 54, 57, 58, 61, 62, 65, 
66, 69, 70, 73, 74, 77, 78, 81, 82, 85, 
86, 89, 90, 93, 94, 97, 98, 101, 102, 105, 
106, 109, 110, 113, 114, 117, 118, 121, 122, 125, 
126, 129, 130, 133, 134, 137, 138, 141, 142, 145, 
146, 149, 150, 153, 157, 158, 170, 188, 189, 190, 
199, 276, 280, 284, 288, 292, 296, 300, 304, 308, 
312, 316, 320, 324, 328, 332, 336, 340, 344, 348, 
352, 356, 360, 364, 368, 372, 376, 380, 384, 388, 
392, 396, 400, 404, 408, 412, 416, 652, 653, 654, 
655, 656, 657, 658, 659, 660, 661, 662, 663, 664, 
665, 666, 667, 668, 669, 670, 671, 672, 673, 674, 
675, 676, 677, 678, 679, 680, 681, 682, 683, 684, 
685, 686, 687, 688, 689, 690, 691, 972, 973, 974, 
975, 976, 977, 978, 979, 980, 981, 982, 983, 984, 
985, 986, 987, 988, 989, 990, 991, 992, 993, 994, 
995, 996, 997, 998, 999, 1000, 1001, 1002, 1003, 1004, 
1005, 1006, 1007, 1008, 1009, 1010, 1011, 1012, 1013, 1014, 
*NSET,NSET=base_plate_gusst_YFIX
2, 3, 11, 12, 15, 16, 19, 20, 23, 24, 
27, 28, 31, 32, 35, 36, 39, 40, 43, 44, 
47, 48, 51, 52, 55, 56, 59, 60, 63, 64, 
67, 68, 71, 72, 75, 76, 79, 80, 83, 84, 
87, 88, 91, 92, 95, 96, 99, 100, 103, 104, 
107, 108, 111, 112, 115, 116, 119, 120, 123, 124, 
127, 128, 131, 132, 135, 136, 139, 140, 143, 144, 
147, 148, 151, 152, 169, 191, 192, 193, 194, 195, 
197, 274, 278, 282, 286, 290, 294, 298, 302, 306, 
310, 314, 318, 322, 326, 330, 334, 338, 342, 346, 
350, 354, 358, 362, 366, 370, 374, 378, 382, 386, 
390, 394, 398, 402, 406, 410, 414, 766, 767, 768, 
769, 770, 771, 772, 773, 774, 775, 776, 777, 778, 
779, 780, 781, 782, 783, 784, 785, 786, 787, 788, 
789, 790, 791, 792, 793, 794, 795, 796, 797, 798, 
799, 800, 801, 802, 803, 804, 805, 1015, 1016, 1017, 
1018, 1019, 1020, 1021, 1022, 1023, 1024, 1025, 1026, 1027, 
1028, 1029, 1030, 1031, 1032, 1033, 1034, 1035, 1036, 1037, 
1038, 1039, 1040, 1041, 1042, 1043, 1044, 1045, 1046, 1047, 
1048, 1049, 1050, 1051, 1052, 1053, 1054, 1055, 1056, 1057, 
