*Heading
 skirt with openings and holes under load

*INCLUDE, INPUT=noframes_all.msh
** remote point definition
*NODE
26844,0,0,-9384

*BOUNDARY
Nbottom_ring,1,2,0

*MATERIAL,NAME=STEEL
*ELASTIC
210000,0.3

*SOLID SECTION, ELSET=Eskir_sless_extruded, MATERIAL=STEEL
**
*SOLID SECTION, ELSET=Eskir_carbo_mid_extruded, MATERIAL=STEEL
**
*SOLID SECTION, ELSET=Eskir_carbo_und_extruded, MATERIAL=STEEL
**
*SOLID SECTION, ELSET=Eskir_sless_extruded_1, MATERIAL=STEEL
**
*SOLID SECTION, ELSET=Eskir_carbo_mid_extruded_1, MATERIAL=STEEL
**
*SOLID SECTION, ELSET=Eskir_carbo_und_extruded_1, MATERIAL=STEEL
**

*COUPLING, REF NODE= 26844, SURFACE=Stop_ring, CONSTRAINT NAME=remote_load
*DISTRIBUTING
1,3

*STEP, NLGEOM, INC=200
*STATIC
0.1, 1.0, 1e-5, 1.0
*CLOAD
26844,3,-10000
*NODE FILE,OUTPUT=2D
U
*EL FILE
S
*END STEP

