**Heading
nonlinear buckling analysis, skirt  with openings and holes under load, shell mesh

*INCLUDE, INPUT=all.msh
*INCLUDE, INPUT=base_plate_center_YFIX.nam
*INCLUDE, INPUT=skir_sless_top_LOAD.nam
*BOUNDARY
Nbase_plate_center_YFIX,1,3

*MATERIAL,NAME=STEEL
*ELASTIC
210000,0.3
*PLASTIC
250, 0.0
270, 0.02
290, 0.05
310, 0.10
330, 0.20
350, 0.35
*DENSITY
7.8E-9

*SHELL SECTION, ELSET=Eall, MATERIAL=STEEL
25

** step 1, nonlinear displacement control buckling analysis 
*STEP,NLGEOM,INC=1000
*STATIC
0.02,1,1e-4,0.1 
*CLOAD
** 2337.5*500, load factor 
**Nskir_sless_top_LOAD,3,209E4
Nskir_sless_top_LOAD,3,1169E3
*NODE FILE, OUTPUT=2D
U
*EL FILE
S
*NODE PRINT, NSET=Nskir_sless_top_LOAD
U
*NODE PRINT, NSET=Nbase_plate_center_YFIX, TOTALS=ONLY
RF

*END STEP