*Heading
 dd_stage1.inp
*NODE
1, 0, 1.001, 0
2, 12, 1.001, 0
3, 15, 4.001, 0
4, 15, 26.001, 0
5, 0, 26.001, 0
6, 0, 0, 0
7, 36.1, 0, 0
8, 36.1, 1, 0
9, 0, 1, 0
10, 16.1, 1, 0
11, 36.1, 1, 0
12, 36.1, 9, 0
13, 16.1, 9, 0
14, 19.1, 0, 0
15, 36.1, 0, 0
16, 36.1, -35, 0
17, 16.1, -35, 0
18, 16.1, -3, 0
19, 3.8184855311391, 1.001, 0
20, 7.0294370174237, 1.001, 0
21, 9.7295143238598, 1.001, 0
22, 1.9092427655696, 1.001, 0
23, 5.4239612742814, 1.001, 0
24, 8.3794756706417, 1.001, 0
25, 10.86475716193, 1.001, 0
26, 14.12132034356, 1.8796796564404, 0
27, 13.148050297095, 1.2293614024661, 0
28, 14.771638597534, 2.8529497029047, 0
29, 15, 5.9921706462896, 0
30, 15, 8.1635570310937, 0
31, 15, 10.531470272218, 0
32, 15, 13.113698694734, 0
33, 15, 15.929638507706, 0
34, 15, 19.000442546143, 0
35, 15, 22.349177930994, 0
36, 15, 4.9965853231448, 0
37, 15, 7.0778638386917, 0
38, 15, 9.3475136516558, 0
39, 15, 11.822584483476, 0
40, 15, 14.52166860122, 0
41, 15, 17.465040526924, 0
42, 15, 20.674810238568, 0
43, 15, 24.175088965497, 0
44, 11.25, 26.001, 0
45, 7.5, 26.001, 0
46, 3.75, 26.001, 0
47, 13.125, 26.001, 0
48, 9.375, 26.001, 0
49, 5.625, 26.001, 0
50, 1.875, 26.001, 0
51, 0, 21.834333333333, 0
52, 0, 17.667666666667, 0
53, 0, 13.501, 0
54, 0, 9.3343333333333, 0
55, 0, 5.1676666666667, 0
56, 0, 23.917666666667, 0
57, 0, 19.751, 0
58, 0, 15.584333333333, 0
59, 0, 11.417666666667, 0
60, 0, 7.251, 0
61, 0, 3.0843333333333, 0
62, 0.95, 0, 0
63, 1.9, 0, 0
64, 2.85, 0, 0
65, 3.8, 0, 0
66, 4.75, 0, 0
67, 5.7, 0, 0
68, 6.65, 0, 0
69, 7.6, 0, 0
70, 8.55, 0, 0
71, 9.5, 0, 0
72, 10.45, 0, 0
73, 11.4, 0, 0
74, 12.35, 0, 0
75, 13.3, 0, 0
76, 14.25, 0, 0
77, 15.2, 0, 0
78, 16.15, 0, 0
79, 17.1, 0, 0
80, 18.05, 0, 0
81, 19, 0, 0
82, 19.95, 0, 0
83, 20.9, 0, 0
84, 21.85, 0, 0
85, 22.8, 0, 0
86, 23.75, 0, 0
87, 24.7, 0, 0
88, 25.65, 0, 0
89, 26.6, 0, 0
90, 27.55, 0, 0
91, 28.5, 0, 0
92, 29.45, 0, 0
93, 30.4, 0, 0
94, 31.35, 0, 0
95, 32.3, 0, 0
96, 33.25, 0, 0
97, 34.2, 0, 0
98, 35.15, 0, 0
99, 0.475, 0, 0
100, 1.425, 0, 0
101, 2.375, 0, 0
102, 3.325, 0, 0
103, 4.275, 0, 0
104, 5.225, 0, 0
105, 6.175, 0, 0
106, 7.125, 0, 0
107, 8.075, 0, 0
108, 9.025, 0, 0
109, 9.975, 0, 0
110, 10.925, 0, 0
111, 11.875, 0, 0
112, 12.825, 0, 0
113, 13.775, 0, 0
114, 14.725, 0, 0
115, 15.675, 0, 0
116, 16.625, 0, 0
117, 17.575, 0, 0
118, 18.525, 0, 0
119, 19.475, 0, 0
120, 20.425, 0, 0
121, 21.375, 0, 0
122, 22.325, 0, 0
123, 23.275, 0, 0
124, 24.225, 0, 0
125, 25.175, 0, 0
126, 26.125, 0, 0
127, 27.075, 0, 0
128, 28.025, 0, 0
129, 28.975, 0, 0
130, 29.925, 0, 0
131, 30.875, 0, 0
132, 31.825, 0, 0
133, 32.775, 0, 0
134, 33.725, 0, 0
135, 34.675, 0, 0
136, 35.625, 0, 0
137, 36.1, 0.25, 0
138, 36.1, 0.5, 0
139, 36.1, 0.75, 0
140, 36.1, 0.125, 0
141, 36.1, 0.375, 0
142, 36.1, 0.625, 0
143, 36.1, 0.875, 0
144, 35.15, 1, 0
145, 34.2, 1, 0
146, 33.25, 1, 0
147, 32.3, 1, 0
148, 31.35, 1, 0
149, 30.4, 1, 0
150, 29.45, 1, 0
151, 28.5, 1, 0
152, 27.55, 1, 0
153, 26.6, 1, 0
154, 25.65, 1, 0
155, 24.7, 1, 0
156, 23.75, 1, 0
157, 22.8, 1, 0
158, 21.85, 1, 0
159, 20.9, 1, 0
160, 19.95, 1, 0
161, 19, 1, 0
162, 18.05, 1, 0
163, 17.1, 1, 0
164, 16.15, 1, 0
165, 15.2, 1, 0
166, 14.25, 1, 0
167, 13.3, 1, 0
168, 12.35, 1, 0
169, 11.4, 1, 0
170, 10.45, 1, 0
171, 9.5, 1, 0
172, 8.55, 1, 0
173, 7.6, 1, 0
174, 6.65, 1, 0
175, 5.7, 1, 0
176, 4.75, 1, 0
177, 3.8, 1, 0
178, 2.85, 1, 0
179, 1.9, 1, 0
180, 0.95, 1, 0
181, 35.625, 1, 0
182, 34.675, 1, 0
183, 33.725, 1, 0
184, 32.775, 1, 0
185, 31.825, 1, 0
186, 30.875, 1, 0
187, 29.925, 1, 0
188, 28.975, 1, 0
189, 28.025, 1, 0
190, 27.075, 1, 0
191, 26.125, 1, 0
192, 25.175, 1, 0
193, 24.225, 1, 0
194, 23.275, 1, 0
195, 22.325, 1, 0
196, 21.375, 1, 0
197, 20.425, 1, 0
198, 19.475, 1, 0
199, 18.525, 1, 0
200, 17.575, 1, 0
201, 16.625, 1, 0
202, 15.675, 1, 0
203, 14.725, 1, 0
204, 13.775, 1, 0
205, 12.825, 1, 0
206, 11.875, 1, 0
207, 10.925, 1, 0
208, 9.975, 1, 0
209, 9.025, 1, 0
210, 8.075, 1, 0
211, 7.125, 1, 0
212, 6.175, 1, 0
213, 5.225, 1, 0
214, 4.275, 1, 0
215, 3.325, 1, 0
216, 2.375, 1, 0
217, 1.425, 1, 0
218, 0.475, 1, 0
219, 0, 0.75, 0
220, 0, 0.5, 0
221, 0, 0.25, 0
222, 0, 0.875, 0
223, 0, 0.625, 0
224, 0, 0.375, 0
225, 0, 0.125, 0
226, 18.549241269594, 1, 0
227, 21.298421354481, 1, 0
228, 24.38427154765, 1, 0
229, 27.848020993591, 1, 0
230, 31.735948847075, 1, 0
231, 17.324620634797, 1, 0
232, 19.923831312037, 1, 0
233, 22.841346451065, 1, 0
234, 26.11614627062, 1, 0
235, 29.791984920333, 1, 0
236, 33.917974423538, 1, 0
237, 36.1, 5, 0
238, 36.1, 3, 0
239, 36.1, 7, 0
240, 31.1, 9, 0
241, 26.1, 9, 0
242, 21.1, 9, 0
243, 33.6, 9, 0
244, 28.6, 9, 0
245, 23.6, 9, 0
246, 18.6, 9, 0
247, 16.1, 6.4543429564328, 0
248, 16.1, 4.3137086934036, 0
249, 16.1, 2.5136571335511, 0
250, 16.1, 7.7271714782164, 0
251, 16.1, 5.3840258249182, 0
252, 16.1, 3.4136829134774, 0
253, 16.1, 1.7568285667756, 0
254, 21.181855084872, 0, 0
255, 23.518658164146, 0, 0
256, 26.141630837116, 0, 0
257, 29.085817876892, 0, 0
258, 32.390556565401, 0, 0
259, 20.140927542436, 0, 0
260, 22.350256624509, 0, 0
261, 24.830144500631, 0, 0
262, 27.613724357004, 0, 0
263, 30.738187221147, 0, 0
264, 34.2452782827, 0, 0
265, 36.1, -4.375, 0
266, 36.1, -8.75, 0
267, 36.1, -13.125, 0
268, 36.1, -17.5, 0
269, 36.1, -21.875, 0
270, 36.1, -26.25, 0
271, 36.1, -30.625, 0
272, 36.1, -2.1875, 0
273, 36.1, -6.5625, 0
274, 36.1, -10.9375, 0
275, 36.1, -15.3125, 0
276, 36.1, -19.6875, 0
277, 36.1, -24.0625, 0
278, 36.1, -28.4375, 0
279, 36.1, -32.8125, 0
280, 31.1, -35, 0
281, 26.1, -35, 0
282, 21.1, -35, 0
283, 33.6, -35, 0
284, 28.6, -35, 0
285, 23.6, -35, 0
286, 18.6, -35, 0
287, 16.1, -30.714111861019, 0
288, 16.1, -26.715236394117, 0
289, 16.1, -22.984153354797, 0
290, 16.1, -19.502930468866, 0
291, 16.1, -16.254834538764, 0
292, 16.1, -13.224253787245, 0
293, 16.1, -10.396621965736, 0
294, 16.1, -7.7583482214836, 0
295, 16.1, -5.2967508321759, 0
296, 16.1, -32.85705593051, 0
297, 16.1, -28.714674127568, 0
298, 16.1, -24.849694874457, 0
299, 16.1, -21.243541911832, 0
300, 16.1, -17.878882503815, 0
301, 16.1, -14.739544163005, 0
302, 16.1, -11.81043787649, 0
303, 16.1, -9.0774850936097, 0
304, 16.1, -6.5275495268298, 0
305, 16.1, -4.1483754160879, 0
306, 16.97867965644, -0.87867965644036, 0
307, 16.328361402466, -1.8519497029047, 0
308, 17.951949702905, -0.22836140246614, 0
309, 12.943028362768, 7.9313178349064, 0
310, 11.983921914691, 12.91528232686, 0
311, 11.906478386287, 16.99121109835, 0
312, 7.8878381552405, 3.3071450712198, 0
313, 3.4252595245801, 11.433361548429, 0
314, 3.4912414919243, 19.061544129529, 0
315, 9.130647012107, 21.980305057533, 0
316, 12.496539856793, 3.5307372767199, 0
317, 4.5788342494594, 15.80003515306, 0
318, 6.5962100157062, 12.290306016585, 0
319, 6.2513670864566, 8.5657445388686, 0
320, 3.2403057237619, 8.7896556248623, 0
321, 6.0490998091064, 5.573645269493, 0
322, 8.7980901232137, 8.2391919321014, 0
323, 9.7084917395739, 10.665782598119, 0
324, 9.5083235782997, 15.044852571239, 0
325, 7.7466320579069, 17.626330269111, 0
326, 3.2347593265608, 5.2653490867947, 0
327, 12.306157376196, 20.354887400951, 0
328, 13.034010226514, 15.410728498615, 0
329, 12.750865433794, 10.136054188732, 0
330, 5.6521143530722, 22.793919617526, 0
331, 10.193070677447, 3.339387491137, 0
332, 10.626215211164, 5.6643747706067, 0
333, 10.422156439713, 19.260456379523, 0
334, 6.4818446415355, 20.540139347052, 0
335, 11.943096744284, 22.641904862474, 0
336, 12.792189804272, 5.7847244096202, 0
337, 8.3921167217272, 5.7149520121416, 0
338, 6.1408567174502, 3.4246468708315, 0
339, 3.3094010686389, 22.47023300936, 0
340, 10.915862025773, 7.918905164369, 0
341, 11.171171479803, 9.6113739418308, 0
342, 6.1627331536832, 16.713182711086, 0
343, 7.1142383497212, 19.083234808081, 0
344, 4.9865430667299, 19.800841738291, 0
345, 4.0350378706918, 17.430789641295, 0
346, 11.164317413, 18.125833738937, 0
347, 9.08439424881, 18.443393324317, 0
348, 8.6274778181033, 16.335591420175, 0
349, 10.707400982294, 16.018031834795, 0
350, 3.2375325251614, 7.0275023558285, 0
351, 1.620152861881, 9.0619944790978, 0
352, 1.6173796632804, 5.2165078767307, 0
353, 7.2206082654168, 5.6442986408173, 0
354, 6.0949782632783, 4.4991460701623, 0
355, 7.0143474363454, 3.3658959710256, 0
356, 8.1399774384839, 4.5110485416807, 0
357, 12.508966070603, 14.163005412737, 0
358, 12.470244306401, 16.200969798482, 0
359, 10.746122746495, 13.98006744905, 0
360, 8.052266797003, 13.667579293912, 0
361, 8.15235087764, 11.478044307352, 0
362, 10.846206827132, 11.79053246249, 0
363, 9.5091659664458, 5.6896633913741, 0
364, 9.0404544163438, 3.3232662811784, 0
365, 10.409642944306, 4.5018811308719, 0
366, 5.5875221325828, 14.045170584823, 0
367, 2.2894171247297, 14.65051757653, 0
368, 1.7126297622901, 12.467180774214, 0
369, 5.0107347701432, 11.861833782507, 0
370, 3.332782624171, 10.111508586646, 0
371, 6.4237885510814, 10.428025277727, 0
372, 7.5247286048352, 8.402468235485, 0
373, 9.2532909313938, 9.4524872651104, 0
374, 12.846946898281, 9.033686011819, 0
375, 11.961018456799, 9.8737140652812, 0
376, 11.043516752788, 8.7651395530999, 0
377, 11.92944519427, 7.9251114996377, 0
378, 13.748269928397, 3.7658686383599, 0
379, 12.248269928397, 2.2658686383599, 0
380, 4.7458364051093, 8.6777000818654, 0
381, 4.6419295678336, 5.4194971781439, 0
382, 6.1502334477815, 7.0696949041808, 0
383, 1.7456207459621, 18.364605398098, 0
384, 8.5951034224704, 6.9770719721215, 0
385, 6.5760571765361, 24.397459808763, 0
386, 6.0669794973039, 21.667029482289, 0
387, 7.8062458268212, 21.260222202292, 0
388, 8.3153235060535, 23.990652528766, 0
389, 10.771038618469, 6.7916399674879, 0
390, 11.709202507718, 5.7245495901135, 0
391, 12.86760908352, 6.8580211222633, 0
392, 9.9612925006534, 2.1701937455685, 0
393, 7.4586375863321, 2.1540725356099, 0
394, 3.52662242885, 3.1331745433974, 0
395, 4.9796711242947, 2.2128234354157, 0
396, 9.8569760744933, 8.0790485482352, 0
397, 13.453239193144, 17.995826822247, 0
398, 14.017005113257, 15.67018350316, 0
399, 13.491960957345, 13.014490510797, 0
400, 12.367393674243, 11.525668257796, 0
401, 13.875432716897, 10.333762230475, 0
402, 13.653078688098, 19.677664973547, 0
403, 11.364156907954, 19.807671890237, 0
404, 11.34480526712, 3.4350623839284, 0
405, 13.971514181384, 8.047437433, 0
406, 1.6547005343195, 22.152283171346, 0
407, 3.5297005343195, 24.23561650468, 0
408, 11.596548372142, 24.321452431237, 0
409, 13.471548372142, 22.495541396734, 0
410, 13.896094902136, 5.8884475279549, 0
411, 12.644364830533, 4.65773084317, 0
412, 12.12462706024, 21.498396131712, 0
413, 10.536871878195, 22.311104960003, 0
414, 9.7764017259101, 20.620380718528, 0
415, 10.439831609689, 10.138578269975, 0
416, 3.4003212802816, 20.765888569444, 0
417, 4.4807577108556, 22.632076313443, 0
418, 0.94999999999999, 0.25, 0
419, 0.95, 0.5, 0
420, 0.95, 0.75, 0
421, 1.9, 0.25, 0
422, 1.9, 0.5, 0
423, 1.9, 0.75, 0
424, 2.85, 0.25, 0
425, 2.85, 0.5, 0
426, 2.85, 0.75, 0
427, 3.8, 0.25, 0
428, 3.8, 0.5, 0
429, 3.8, 0.75, 0
430, 4.75, 0.25, 0
431, 4.75, 0.5, 0
432, 4.75, 0.75, 0
433, 5.7, 0.25, 0
434, 5.7, 0.5, 0
435, 5.7, 0.75, 0
436, 6.65, 0.25, 0
437, 6.65, 0.5, 0
438, 6.65, 0.75, 0
439, 7.6, 0.25, 0
440, 7.6, 0.5, 0
441, 7.6, 0.75, 0
442, 8.55, 0.25, 0
443, 8.55, 0.5, 0
444, 8.55, 0.75, 0
445, 9.5, 0.25, 0
446, 9.5, 0.5, 0
447, 9.5, 0.75, 0
448, 10.45, 0.25, 0
449, 10.45, 0.5, 0
450, 10.45, 0.75, 0
451, 11.4, 0.25, 0
452, 11.4, 0.5, 0
453, 11.4, 0.75, 0
454, 12.35, 0.25, 0
455, 12.35, 0.5, 0
456, 12.35, 0.75, 0
457, 13.3, 0.25, 0
458, 13.3, 0.5, 0
459, 13.3, 0.75, 0
460, 14.25, 0.25, 0
461, 14.25, 0.5, 0
462, 14.25, 0.75, 0
463, 15.2, 0.25, 0
464, 15.2, 0.5, 0
465, 15.2, 0.75, 0
466, 16.15, 0.25, 0
467, 16.15, 0.5, 0
468, 16.15, 0.75, 0
469, 17.1, 0.25, 0
470, 17.1, 0.5, 0
471, 17.1, 0.75, 0
472, 18.05, 0.25, 0
473, 18.05, 0.5, 0
474, 18.05, 0.75, 0
475, 19, 0.25, 0
476, 19, 0.5, 0
477, 19, 0.75, 0
478, 19.95, 0.25, 0
479, 19.95, 0.5, 0
480, 19.95, 0.75, 0
481, 20.9, 0.25, 0
482, 20.9, 0.5, 0
483, 20.9, 0.75, 0
484, 21.85, 0.25, 0
485, 21.85, 0.5, 0
486, 21.85, 0.75, 0
487, 22.8, 0.25, 0
488, 22.8, 0.5, 0
489, 22.8, 0.75, 0
490, 23.75, 0.25, 0
491, 23.75, 0.5, 0
492, 23.75, 0.75, 0
493, 24.7, 0.25, 0
494, 24.7, 0.5, 0
495, 24.7, 0.75, 0
496, 25.65, 0.25, 0
497, 25.65, 0.5, 0
498, 25.65, 0.75, 0
499, 26.6, 0.25, 0
500, 26.6, 0.5, 0
501, 26.6, 0.75, 0
502, 27.55, 0.25, 0
503, 27.55, 0.5, 0
504, 27.55, 0.75, 0
505, 28.5, 0.25, 0
506, 28.5, 0.5, 0
507, 28.5, 0.75, 0
508, 29.45, 0.25, 0
509, 29.45, 0.5, 0
510, 29.45, 0.75, 0
511, 30.4, 0.25, 0
512, 30.4, 0.5, 0
513, 30.4, 0.75, 0
514, 31.35, 0.25, 0
515, 31.35, 0.5, 0
516, 31.35, 0.75, 0
517, 32.3, 0.25, 0
518, 32.3, 0.5, 0
519, 32.3, 0.75, 0
520, 33.25, 0.25, 0
521, 33.25, 0.5, 0
522, 33.25, 0.75, 0
523, 34.2, 0.25, 0
524, 34.2, 0.5, 0
525, 34.2, 0.75, 0
526, 35.15, 0.25, 0
527, 35.15, 0.5, 0
528, 35.15, 0.75, 0
529, 0.95, 0.125, 0
530, 0.47499999999999, 0.25, 0
531, 0.95, 0.375, 0
532, 0.475, 0.5, 0
533, 0.95, 0.625, 0
534, 0.475, 0.75, 0
535, 0.95, 0.875, 0
536, 1.9, 0.125, 0
537, 1.425, 0.25, 0
538, 1.9, 0.375, 0
539, 1.425, 0.5, 0
540, 1.9, 0.625, 0
541, 1.425, 0.75, 0
542, 1.9, 0.875, 0
543, 2.85, 0.125, 0
544, 2.375, 0.25, 0
545, 2.85, 0.375, 0
546, 2.375, 0.5, 0
547, 2.85, 0.625, 0
548, 2.375, 0.75, 0
549, 2.85, 0.875, 0
550, 3.8, 0.125, 0
551, 3.325, 0.25, 0
552, 3.8, 0.375, 0
553, 3.325, 0.5, 0
554, 3.8, 0.625, 0
555, 3.325, 0.75, 0
556, 3.8, 0.875, 0
557, 4.75, 0.125, 0
558, 4.275, 0.25, 0
559, 4.75, 0.375, 0
560, 4.275, 0.5, 0
561, 4.75, 0.625, 0
562, 4.275, 0.75, 0
563, 4.75, 0.875, 0
564, 5.7, 0.125, 0
565, 5.225, 0.25, 0
566, 5.7, 0.375, 0
567, 5.225, 0.5, 0
568, 5.7, 0.625, 0
569, 5.225, 0.75, 0
570, 5.7, 0.875, 0
571, 6.65, 0.125, 0
572, 6.175, 0.25, 0
573, 6.65, 0.375, 0
574, 6.175, 0.5, 0
575, 6.65, 0.625, 0
576, 6.175, 0.75, 0
577, 6.65, 0.875, 0
578, 7.6, 0.125, 0
579, 7.125, 0.25, 0
580, 7.6, 0.375, 0
581, 7.125, 0.5, 0
582, 7.6, 0.625, 0
583, 7.125, 0.75, 0
584, 7.6, 0.875, 0
585, 8.55, 0.125, 0
586, 8.075, 0.25, 0
587, 8.55, 0.375, 0
588, 8.075, 0.5, 0
589, 8.55, 0.625, 0
590, 8.075, 0.75, 0
591, 8.55, 0.875, 0
592, 9.5, 0.125, 0
593, 9.025, 0.25, 0
594, 9.5, 0.375, 0
595, 9.025, 0.5, 0
596, 9.5, 0.625, 0
597, 9.025, 0.75, 0
598, 9.5, 0.875, 0
599, 10.45, 0.125, 0
600, 9.975, 0.25, 0
601, 10.45, 0.375, 0
602, 9.975, 0.5, 0
603, 10.45, 0.625, 0
604, 9.975, 0.75, 0
605, 10.45, 0.875, 0
606, 11.4, 0.125, 0
607, 10.925, 0.25, 0
608, 11.4, 0.375, 0
609, 10.925, 0.5, 0
610, 11.4, 0.625, 0
611, 10.925, 0.75, 0
612, 11.4, 0.875, 0
613, 12.35, 0.125, 0
614, 11.875, 0.25, 0
615, 12.35, 0.375, 0
616, 11.875, 0.5, 0
617, 12.35, 0.625, 0
618, 11.875, 0.75, 0
619, 12.35, 0.875, 0
620, 13.3, 0.125, 0
621, 12.825, 0.25, 0
622, 13.3, 0.375, 0
623, 12.825, 0.5, 0
624, 13.3, 0.625, 0
625, 12.825, 0.75, 0
626, 13.3, 0.875, 0
627, 14.25, 0.125, 0
628, 13.775, 0.25, 0
629, 14.25, 0.375, 0
630, 13.775, 0.5, 0
631, 14.25, 0.625, 0
632, 13.775, 0.75, 0
633, 14.25, 0.875, 0
634, 15.2, 0.125, 0
635, 14.725, 0.25, 0
636, 15.2, 0.375, 0
637, 14.725, 0.5, 0
638, 15.2, 0.625, 0
639, 14.725, 0.75, 0
640, 15.2, 0.875, 0
641, 16.15, 0.125, 0
642, 15.675, 0.25, 0
643, 16.15, 0.375, 0
644, 15.675, 0.5, 0
645, 16.15, 0.625, 0
646, 15.675, 0.75, 0
647, 16.15, 0.875, 0
648, 17.1, 0.125, 0
649, 16.625, 0.25, 0
650, 17.1, 0.375, 0
651, 16.625, 0.5, 0
652, 17.1, 0.625, 0
653, 16.625, 0.75, 0
654, 17.1, 0.875, 0
655, 18.05, 0.125, 0
656, 17.575, 0.25, 0
657, 18.05, 0.375, 0
658, 17.575, 0.5, 0
659, 18.05, 0.625, 0
660, 17.575, 0.75, 0
661, 18.05, 0.875, 0
662, 19, 0.125, 0
663, 18.525, 0.25, 0
664, 19, 0.375, 0
665, 18.525, 0.5, 0
666, 19, 0.625, 0
667, 18.525, 0.75, 0
668, 19, 0.875, 0
669, 19.95, 0.125, 0
670, 19.475, 0.25, 0
671, 19.95, 0.375, 0
672, 19.475, 0.5, 0
673, 19.95, 0.625, 0
674, 19.475, 0.75, 0
675, 19.95, 0.875, 0
676, 20.9, 0.125, 0
677, 20.425, 0.25, 0
678, 20.9, 0.375, 0
679, 20.425, 0.5, 0
680, 20.9, 0.625, 0
681, 20.425, 0.75, 0
682, 20.9, 0.875, 0
683, 21.85, 0.125, 0
684, 21.375, 0.25, 0
685, 21.85, 0.375, 0
686, 21.375, 0.5, 0
687, 21.85, 0.625, 0
688, 21.375, 0.75, 0
689, 21.85, 0.875, 0
690, 22.8, 0.125, 0
691, 22.325, 0.25, 0
692, 22.8, 0.375, 0
693, 22.325, 0.5, 0
694, 22.8, 0.625, 0
695, 22.325, 0.75, 0
696, 22.8, 0.875, 0
697, 23.75, 0.125, 0
698, 23.275, 0.25, 0
699, 23.75, 0.375, 0
700, 23.275, 0.5, 0
701, 23.75, 0.625, 0
702, 23.275, 0.75, 0
703, 23.75, 0.875, 0
704, 24.7, 0.125, 0
705, 24.225, 0.25, 0
706, 24.7, 0.375, 0
707, 24.225, 0.5, 0
708, 24.7, 0.625, 0
709, 24.225, 0.75, 0
710, 24.7, 0.875, 0
711, 25.65, 0.125, 0
712, 25.175, 0.25, 0
713, 25.65, 0.375, 0
714, 25.175, 0.5, 0
715, 25.65, 0.625, 0
716, 25.175, 0.75, 0
717, 25.65, 0.875, 0
718, 26.6, 0.125, 0
719, 26.125, 0.25, 0
720, 26.6, 0.375, 0
721, 26.125, 0.5, 0
722, 26.6, 0.625, 0
723, 26.125, 0.75, 0
724, 26.6, 0.875, 0
725, 27.55, 0.125, 0
726, 27.075, 0.25, 0
727, 27.55, 0.375, 0
728, 27.075, 0.5, 0
729, 27.55, 0.625, 0
730, 27.075, 0.75, 0
731, 27.55, 0.875, 0
732, 28.5, 0.125, 0
733, 28.025, 0.25, 0
734, 28.5, 0.375, 0
735, 28.025, 0.5, 0
736, 28.5, 0.625, 0
737, 28.025, 0.75, 0
738, 28.5, 0.875, 0
739, 29.45, 0.125, 0
740, 28.975, 0.25, 0
741, 29.45, 0.375, 0
742, 28.975, 0.5, 0
743, 29.45, 0.625, 0
744, 28.975, 0.75, 0
745, 29.45, 0.875, 0
746, 30.4, 0.125, 0
747, 29.925, 0.25, 0
748, 30.4, 0.375, 0
749, 29.925, 0.5, 0
750, 30.4, 0.625, 0
751, 29.925, 0.75, 0
752, 30.4, 0.875, 0
753, 31.35, 0.125, 0
754, 30.875, 0.25, 0
755, 31.35, 0.375, 0
756, 30.875, 0.5, 0
757, 31.35, 0.625, 0
758, 30.875, 0.75, 0
759, 31.35, 0.875, 0
760, 32.3, 0.125, 0
761, 31.825, 0.25, 0
762, 32.3, 0.375, 0
763, 31.825, 0.5, 0
764, 32.3, 0.625, 0
765, 31.825, 0.75, 0
766, 32.3, 0.875, 0
767, 33.25, 0.125, 0
768, 32.775, 0.25, 0
769, 33.25, 0.375, 0
770, 32.775, 0.5, 0
771, 33.25, 0.625, 0
772, 32.775, 0.75, 0
773, 33.25, 0.875, 0
774, 34.2, 0.125, 0
775, 33.725, 0.25, 0
776, 34.2, 0.375, 0
777, 33.725, 0.5, 0
778, 34.2, 0.625, 0
779, 33.725, 0.75, 0
780, 34.2, 0.875, 0
781, 35.15, 0.125, 0
782, 34.675, 0.25, 0
783, 35.15, 0.375, 0
784, 34.675, 0.5, 0
785, 35.15, 0.625, 0
786, 34.675, 0.75, 0
787, 35.15, 0.875, 0
788, 35.625, 0.25, 0
789, 35.625, 0.5, 0
790, 35.625, 0.75, 0
791, 19.708720961139, 4.058444699035, 0
792, 18.303571806712, 5.7443221620268, 0
793, 24.858485900222, 4.214340623306, 0
794, 22.524209344688, 3.7685013892695, 0
795, 17.379179127826, 4.2834901821303, 0
796, 29.109766006823, 4.73877415142, 0
797, 21.650492830095, 5.537517892188, 0
798, 24.192196839599, 6.0540888835432, 0
799, 32.434955166934, 3.4108416852009, 0
800, 32.128433270342, 6.5843746134049, 0
801, 17.927772987201, 2.9550056396113, 0
802, 27.604883003412, 6.86938707571, 0
803, 25.1460984198, 7.5270444417716, 0
804, 24.525341369911, 5.1342147534246, 0
805, 26.984125953523, 4.476557387363, 0
806, 17.841375467269, 5.0139061720786, 0
807, 17.653476057513, 3.6192479108708, 0
808, 18.81824697417, 3.5067251693231, 0
809, 19.006146383926, 4.9013834305309, 0
810, 30.619099638582, 5.6615743824125, 0
811, 31.614216635171, 7.7921873067025, 0
812, 18.238507128397, 1.9775028198057, 0
813, 20.50357115781, 2.5292223495175, 0
814, 34.267477583467, 4.2054208426005, 0
815, 32.085452007005, 2.2054208426005, 0
816, 28.478893500207, 2.86938707571, 0
817, 24.621378723936, 2.607170311653, 0
818, 23.691347622455, 3.9914210062877, 0
819, 21.911315349584, 2.3842506946347, 0
820, 19.701785903356, 7.3721610810134, 0
821, 20.679606895617, 4.7979812956115, 0
822, 21.375246415048, 7.268758946094, 0
823, 17.0138864936, 2.7343313865812, 0
824, 22.087351087392, 4.6530096407287, 0
825, 16.739589563913, 4.298599437767, 0
826, 17.201785903356, 6.0993325592298, 0
827, 22.921344834847, 5.7958033878656, 0
828, 34.114216635171, 5.7921873067025, 0
829, 30.772360586879, 4.0748079183105, 0
830, 24.87699769799, -2.4952892164816, 0
831, 18.618738888665, -12.79882585838, 0
832, 18.860316415531, -18.800629639219, 0
833, 20.120480015928, -24.391477090819, 0
834, 32.33046526124, -9.726395109506, 0
835, 18.286737414416, -7.2014974645619, 0
836, 32.378592724797, -18.245217737873, 0
837, 20.586649637462, -2.2530939437488, 0
838, 28.63080762719, -29.576481759555, 0
839, 30.646337066059, -2.8635006883023, 0
840, 31.691747460318, -5.918802090161, 0
841, 28.89080656704, -10.164914993581, 0
842, 25.839462026261, -9.9128755219769, 0
843, 25.593375750806, -14.183912605479, 0
844, 25.749700855828, -6.5177751721497, 0
845, 23.147856892395, -9.4539846012679, 0
846, 22.991658887499, -5.9992285737163, 0
847, 28.890531888933, -14.244237517469, 0
848, 25.072182490614, -18.487688126875, 0
849, 21.684299465468, -15.29648236748, 0
850, 23.099423907827, -11.848469723749, 0
851, 32.463577921425, -22.503887118276, 0
852, 28.292243648344, -23.573350018117, 0
853, 23.382491742066, -29.981242542475, 0
854, 25.786310072228, -27.411984174513, 0
855, 27.067342930091, -3.1365648598787, 0
856, 28.447247481218, -6.4872345280004, 0
857, 21.773729438126, -18.458719269966, 0
858, 18.919727973392, -21.000841101803, 0
859, 19.612208721382, -27.399907900063, 0
860, 18.430339245189, -9.9305892634926, 0
861, 18.800166070426, -15.813458169882, 0
862, 18.283593006074, -4.8005205925613, 0
863, 20.492133090128, -6.7805626710915, 0
864, 22.420534297455, -2.689578982252, 0
865, 32.424412961782, -13.852571772901, 0
866, 24.309703683862, -22.257594294613, 0
867, 32.543390441925, -26.509480061077, 0
868, 20.768796854161, -9.5398519194755, 0
869, 23.088888485104, -25.497232843436, 0
870, 25.58028899907, -4.5052798415947, 0
871, 21.818965892785, -4.2410891985119, 0
872, 18.546989131625, -2.5288753319463, 0
873, 21.181032684083, -12.356241666609, 0
874, 32.79936247508, -2.2678475553918, 0
875, 20.060357470887, -30.894160510837, 0
876, 29.933375868745, -26.667949965889, 0
877, 21.122904460131, -21.504321192372, 0
878, 24.149623961043, -3.7317533479172, 0
879, 32.090187878322, -30.544368410191, 0
880, 28.667953477376, -18.523063611396, 0
881, 22.021564049229, -27.619032824413, 0
882, 20.361036902565, -4.4919091763039, 0
883, 27.039276860286, -25.492667096315, 0
884, 24.437599278666, -26.454608508974, 0
885, 23.699296084483, -23.877413569024, 0
886, 26.300973666103, -22.915472156365, 0
887, 32.401502843289, -16.048894755387, 0
888, 30.523273101087, -18.384140674635, 0
889, 28.779242683155, -16.383650564432, 0
890, 30.657472425357, -14.048404645185, 0
891, 21.741895988814, -6.3898956224039, 0
892, 23.069757889947, -7.7266065874921, 0
893, 21.958326873278, -9.4969182603717, 0
894, 20.630464972144, -8.1602072952835, 0
895, 20.242232767947, -15.554970268681, 0
896, 21.729014451797, -16.877600818723, 0
897, 20.317022926828, -18.629674454592, 0
898, 18.830241242978, -17.30704390455, 0
899, 24.370679871664, -6.258501872933, 0
900, 25.794581441044, -8.2153253470633, 0
901, 24.493659459328, -9.6834300616224, 0
902, 30.61063591414, -9.9456550515434, 0
903, 28.669027024129, -8.3260747607906, 0
904, 30.069497470768, -6.2030183090807, 0
905, 32.011106360779, -7.8225985998335, 0
906, 27.208558849709, -28.494232967034, 0
907, 27.365403813595, -32.288240879778, 0
908, 24.741245871033, -32.490621271237, 0
909, 24.584400907147, -28.696613358494, 0
910, 28.890669227987, -12.204576255525, 0
911, 32.377439111511, -11.789483441203, 0
912, 33.895873730159, -5.1469010450805, 0
913, 34.21523263062, -9.238197554753, 0
914, 32.421085323111, -20.374552428075, 0
915, 34.239296362399, -17.872608868937, 0
916, 34.281788960713, -22.189443559138, 0
917, 24.346399829317, -13.016191164614, 0
918, 23.123640400111, -10.651227162508, 0
919, 25.716418888533, -12.048394063728, 0
920, 27.757295205655, -4.8118996939396, 0
921, 28.856839998075, -3.0000327740905, 0
922, 31.169042263188, -4.3911513892316, 0
923, 27.098474168523, -6.502504850075, 0
924, 27.36513429665, -10.038895257779, 0
925, 23.638837608137, -14.74019748648, 0
926, 21.432666074775, -13.826362017044, 0
927, 22.140228295955, -12.102355695179, 0
928, 34.262206480891, -13.48878588645, 0
929, 23.570641424271, -4.8654909608168, 0
930, 24.864956480057, -4.118516594756, 0
931, 25.664994927449, -5.5115275068722, 0
932, 31.722849770569, -2.5656741218471, 0
933, 34.44968123754, -3.3214237776959, 0
934, 30.377910784884, -23.038618568197, 0
935, 28.48009856286, -21.048206814756, 0
936, 25.33277912071, -16.335800366177, 0
937, 23.42295596437, -18.473203698421, 0
938, 17.450083035213, -16.034146354323, 0
939, 17.480158207765, -19.151780054042, 0
940, 17.265169622595, -10.163605614614, 0
941, 18.524539066927, -11.364707560936, 0
942, 17.359369444333, -13.011539822813, 0
943, 17.191796503037, -5.0486357123686, 0
944, 18.285165210245, -6.0010090285616, 0
945, 17.193368707208, -7.4799228430228, 0
946, 34.321695220963, -26.379740030538, 0
947, 32.503484181675, -24.506683589676, 0
948, 29.866077471475, -1.4317503441512, 0
949, 26.604486883603, -1.5682824299394, 0
950, 18.823494565813, -1.2644376659731, 0
951, 20.884252361167, -1.1265469718744, 0
952, 19.566819384544, -2.3909846378475, 0
953, 27.24195381987, -14.214075061474, 0
954, 25.972170314041, -2.8159270381802, 0
955, 24.197827931068, -1.2476446082408, 0
956, 22.9695962308, -1.344789491126, 0
957, 21.503591967458, -2.4713364630004, 0
958, 29.112809758545, -25.120649992003, 0
959, 29.282091747968, -28.122215862722, 0
960, 18.080178735443, -30.804136185928, 0
961, 20.580178735443, -32.947080255419, 0
962, 19.836283096134, -29.14703420545, 0
963, 20.816886385306, -27.509470362238, 0
964, 22.702027895648, -28.800137683444, 0
965, 21.721424606476, -30.437701526656, 0
966, 32.594959520241, -1.1339237776959, 0
967, 18.890022194462, -19.900735370511, 0
968, 17.509863986696, -21.9924972283, 0
969, 18.709452479546, -14.306142014131, 0
970, 18.358538329803, -8.5660433640272, 0
971, 17.323494565813, -2.7644376659731, 0
972, 18.110240007964, -23.687815222808, 0
973, 19.866344368655, -25.895692495441, 0
974, 17.856104360691, -27.05757214709, 0
975, 18.41529106885, -3.6646979622538, 0
976, 22.555226267167, -26.558132833924, 0
977, 21.604684250516, -24.944354967128, 0
978, 26.323815964581, -3.8209223507367, 0
979, 31.595093939161, -32.772184205095, 0
980, 34.095093939161, -30.584684205095, 0
981, 20.021316216762, -21.252581147087, 0
982, 20.621692238029, -22.947899141596, 0
983, 30.360497752756, -30.060425084873, 0
984, 19.599568049675, -9.735220591484, 0
985, 19.389435252272, -6.9910300678267, 0
986, 20.974914769122, -10.948046793042, 0
987, 19.899885786374, -12.577533762494, 0
988, 24.513310829517, -3.1135212821994, 0
989, 26.870067983995, -18.505375869136, 0
990, 24.690943087238, -20.372641210744, 0
991, 31.238383155335, -26.588715013483, 0
992, 32.316789160124, -28.526924235634, 0
993, 22.716304071997, -21.880957743493, 0
994, 21.448316949129, -19.981520231169, 0
995, 19.32231495432, -4.6462148844326, 0
996, 20.426584996347, -5.6362359236977, 0
997, 23.285079129249, -3.2106661650846, 0
998, 22.405312390142, -5.1201588861141, 0
999, 22.11975009512, -3.4653340903819, 0
1000, 21.090001397675, -4.3664991874079, 0
1001, 20.473843270013, -3.3725015600263, 0
******* E L E M E N T S *************
*ELEMENT, type=T3D3, ELSET=Line1
1, 1, 22, 19
2, 19, 23, 20
3, 20, 24, 21
4, 21, 25, 2
*ELEMENT, type=T3D3, ELSET=Line2
5, 2, 27, 26
6, 26, 28, 3
*ELEMENT, type=T3D3, ELSET=Line3
7, 3, 36, 29
8, 29, 37, 30
9, 30, 38, 31
10, 31, 39, 32
11, 32, 40, 33
12, 33, 41, 34
13, 34, 42, 35
14, 35, 43, 4
*ELEMENT, type=T3D3, ELSET=Line4
15, 4, 47, 44
16, 44, 48, 45
17, 45, 49, 46
18, 46, 50, 5
*ELEMENT, type=T3D3, ELSET=Line5
19, 5, 56, 51
20, 51, 57, 52
21, 52, 58, 53
22, 53, 59, 54
23, 54, 60, 55
24, 55, 61, 1
*ELEMENT, type=T3D3, ELSET=Line10
25, 6, 99, 62
26, 62, 100, 63
27, 63, 101, 64
28, 64, 102, 65
29, 65, 103, 66
30, 66, 104, 67
31, 67, 105, 68
32, 68, 106, 69
33, 69, 107, 70
34, 70, 108, 71
35, 71, 109, 72
36, 72, 110, 73
37, 73, 111, 74
38, 74, 112, 75
39, 75, 113, 76
40, 76, 114, 77
41, 77, 115, 78
42, 78, 116, 79
43, 79, 117, 80
44, 80, 118, 81
45, 81, 119, 82
46, 82, 120, 83
47, 83, 121, 84
48, 84, 122, 85
49, 85, 123, 86
50, 86, 124, 87
51, 87, 125, 88
52, 88, 126, 89
53, 89, 127, 90
54, 90, 128, 91
55, 91, 129, 92
56, 92, 130, 93
57, 93, 131, 94
58, 94, 132, 95
59, 95, 133, 96
60, 96, 134, 97
61, 97, 135, 98
62, 98, 136, 7
*ELEMENT, type=T3D3, ELSET=Line11
63, 7, 140, 137
64, 137, 141, 138
65, 138, 142, 139
66, 139, 143, 8
*ELEMENT, type=T3D3, ELSET=Line12
67, 8, 181, 144
68, 144, 182, 145
69, 145, 183, 146
70, 146, 184, 147
71, 147, 185, 148
72, 148, 186, 149
73, 149, 187, 150
74, 150, 188, 151
75, 151, 189, 152
76, 152, 190, 153
77, 153, 191, 154
78, 154, 192, 155
79, 155, 193, 156
80, 156, 194, 157
81, 157, 195, 158
82, 158, 196, 159
83, 159, 197, 160
84, 160, 198, 161
85, 161, 199, 162
86, 162, 200, 163
87, 163, 201, 164
88, 164, 202, 165
89, 165, 203, 166
90, 166, 204, 167
91, 167, 205, 168
92, 168, 206, 169
93, 169, 207, 170
94, 170, 208, 171
95, 171, 209, 172
96, 172, 210, 173
97, 173, 211, 174
98, 174, 212, 175
99, 175, 213, 176
100, 176, 214, 177
101, 177, 215, 178
102, 178, 216, 179
103, 179, 217, 180
104, 180, 218, 9
*ELEMENT, type=T3D3, ELSET=Line13
105, 9, 222, 219
106, 219, 223, 220
107, 220, 224, 221
108, 221, 225, 6
*ELEMENT, type=T3D3, ELSET=Line20
109, 10, 231, 226
110, 226, 232, 227
111, 227, 233, 228
112, 228, 234, 229
113, 229, 235, 230
114, 230, 236, 11
*ELEMENT, type=T3D3, ELSET=Line21
115, 11, 238, 237
116, 237, 239, 12
*ELEMENT, type=T3D3, ELSET=Line22
117, 12, 243, 240
118, 240, 244, 241
119, 241, 245, 242
120, 242, 246, 13
*ELEMENT, type=T3D3, ELSET=Line23
121, 13, 250, 247
122, 247, 251, 248
123, 248, 252, 249
124, 249, 253, 10
*ELEMENT, type=T3D3, ELSET=Line30
125, 14, 259, 254
126, 254, 260, 255
127, 255, 261, 256
128, 256, 262, 257
129, 257, 263, 258
130, 258, 264, 15
*ELEMENT, type=T3D3, ELSET=Line31
131, 15, 272, 265
132, 265, 273, 266
133, 266, 274, 267
134, 267, 275, 268
135, 268, 276, 269
136, 269, 277, 270
137, 270, 278, 271
138, 271, 279, 16
*ELEMENT, type=T3D3, ELSET=Line32
139, 16, 283, 280
140, 280, 284, 281
141, 281, 285, 282
142, 282, 286, 17
*ELEMENT, type=T3D3, ELSET=Line33
143, 17, 296, 287
144, 287, 297, 288
145, 288, 298, 289
146, 289, 299, 290
147, 290, 300, 291
148, 291, 301, 292
149, 292, 302, 293
150, 293, 303, 294
151, 294, 304, 295
152, 295, 305, 18
*ELEMENT, type=T3D3, ELSET=Line34
153, 18, 307, 306
154, 306, 308, 14
*ELEMENT, type=CPS8, ELSET=Surface11
155, 317, 325, 334, 314, 342, 343, 344, 345
156, 311, 333, 325, 324, 346, 347, 348, 349
157, 326, 320, 54, 55, 350, 351, 60, 352
158, 337, 321, 338, 312, 353, 354, 355, 356
159, 310, 328, 311, 324, 357, 358, 349, 359
160, 310, 324, 318, 323, 359, 360, 361, 362
161, 332, 337, 312, 331, 363, 356, 364, 365
162, 318, 317, 53, 313, 366, 367, 368, 369
163, 320, 313, 53, 54, 370, 368, 59, 351
164, 318, 319, 322, 323, 371, 372, 373, 361
165, 309, 329, 341, 340, 374, 375, 376, 377
166, 2, 26, 3, 316, 27, 28, 378, 379
167, 319, 320, 326, 321, 380, 350, 381, 382
168, 314, 52, 53, 317, 383, 58, 367, 345
169, 319, 321, 337, 322, 382, 353, 384, 372
170, 318, 313, 320, 319, 369, 370, 380, 371
171, 45, 330, 334, 315, 385, 386, 387, 388
172, 309, 340, 332, 336, 377, 389, 390, 391
173, 20, 21, 331, 312, 24, 392, 364, 393
174, 317, 318, 324, 325, 366, 360, 348, 342
175, 321, 326, 19, 338, 381, 394, 395, 354
176, 322, 337, 332, 340, 384, 363, 389, 396
177, 34, 311, 328, 33, 397, 358, 398, 41
178, 33, 328, 310, 32, 398, 357, 399, 40
179, 32, 310, 329, 31, 399, 400, 401, 39
180, 34, 327, 333, 311, 402, 403, 346, 397
181, 316, 331, 21, 2, 404, 392, 25, 379
182, 31, 329, 309, 30, 401, 374, 405, 38
183, 51, 339, 46, 5, 406, 407, 50, 56
184, 35, 4, 44, 335, 43, 47, 408, 409
185, 29, 336, 316, 3, 410, 411, 378, 36
186, 333, 327, 335, 315, 403, 412, 413, 414
187, 323, 341, 329, 310, 415, 375, 400, 362
188, 331, 316, 336, 332, 404, 411, 390, 365
189, 45, 315, 335, 44, 388, 413, 408, 48
190, 52, 314, 339, 51, 383, 416, 406, 57
191, 323, 322, 340, 341, 373, 396, 376, 415
192, 334, 330, 339, 314, 386, 417, 416, 344
193, 315, 334, 325, 333, 387, 343, 347, 414
194, 34, 35, 335, 327, 42, 409, 412, 402
195, 30, 309, 336, 29, 405, 391, 410, 37
196, 45, 46, 339, 330, 49, 407, 417, 385
197, 19, 20, 312, 338, 23, 393, 355, 395
198, 1, 19, 326, 55, 22, 394, 352, 61
*ELEMENT, type=CPS8, ELSET=Surface21
199, 6, 62, 418, 221, 99, 529, 530, 225
200, 221, 418, 419, 220, 530, 531, 532, 224
201, 220, 419, 420, 219, 532, 533, 534, 223
202, 219, 420, 180, 9, 534, 535, 218, 222
203, 62, 63, 421, 418, 100, 536, 537, 529
204, 418, 421, 422, 419, 537, 538, 539, 531
205, 419, 422, 423, 420, 539, 540, 541, 533
206, 420, 423, 179, 180, 541, 542, 217, 535
207, 63, 64, 424, 421, 101, 543, 544, 536
208, 421, 424, 425, 422, 544, 545, 546, 538
209, 422, 425, 426, 423, 546, 547, 548, 540
210, 423, 426, 178, 179, 548, 549, 216, 542
211, 64, 65, 427, 424, 102, 550, 551, 543
212, 424, 427, 428, 425, 551, 552, 553, 545
213, 425, 428, 429, 426, 553, 554, 555, 547
214, 426, 429, 177, 178, 555, 556, 215, 549
215, 65, 66, 430, 427, 103, 557, 558, 550
216, 427, 430, 431, 428, 558, 559, 560, 552
217, 428, 431, 432, 429, 560, 561, 562, 554
218, 429, 432, 176, 177, 562, 563, 214, 556
219, 66, 67, 433, 430, 104, 564, 565, 557
220, 430, 433, 434, 431, 565, 566, 567, 559
221, 431, 434, 435, 432, 567, 568, 569, 561
222, 432, 435, 175, 176, 569, 570, 213, 563
223, 67, 68, 436, 433, 105, 571, 572, 564
224, 433, 436, 437, 434, 572, 573, 574, 566
225, 434, 437, 438, 435, 574, 575, 576, 568
226, 435, 438, 174, 175, 576, 577, 212, 570
227, 68, 69, 439, 436, 106, 578, 579, 571
228, 436, 439, 440, 437, 579, 580, 581, 573
229, 437, 440, 441, 438, 581, 582, 583, 575
230, 438, 441, 173, 174, 583, 584, 211, 577
231, 69, 70, 442, 439, 107, 585, 586, 578
232, 439, 442, 443, 440, 586, 587, 588, 580
233, 440, 443, 444, 441, 588, 589, 590, 582
234, 441, 444, 172, 173, 590, 591, 210, 584
235, 70, 71, 445, 442, 108, 592, 593, 585
236, 442, 445, 446, 443, 593, 594, 595, 587
237, 443, 446, 447, 444, 595, 596, 597, 589
238, 444, 447, 171, 172, 597, 598, 209, 591
239, 71, 72, 448, 445, 109, 599, 600, 592
240, 445, 448, 449, 446, 600, 601, 602, 594
241, 446, 449, 450, 447, 602, 603, 604, 596
242, 447, 450, 170, 171, 604, 605, 208, 598
243, 72, 73, 451, 448, 110, 606, 607, 599
244, 448, 451, 452, 449, 607, 608, 609, 601
245, 449, 452, 453, 450, 609, 610, 611, 603
246, 450, 453, 169, 170, 611, 612, 207, 605
247, 73, 74, 454, 451, 111, 613, 614, 606
248, 451, 454, 455, 452, 614, 615, 616, 608
249, 452, 455, 456, 453, 616, 617, 618, 610
250, 453, 456, 168, 169, 618, 619, 206, 612
251, 74, 75, 457, 454, 112, 620, 621, 613
252, 454, 457, 458, 455, 621, 622, 623, 615
253, 455, 458, 459, 456, 623, 624, 625, 617
254, 456, 459, 167, 168, 625, 626, 205, 619
255, 75, 76, 460, 457, 113, 627, 628, 620
256, 457, 460, 461, 458, 628, 629, 630, 622
257, 458, 461, 462, 459, 630, 631, 632, 624
258, 459, 462, 166, 167, 632, 633, 204, 626
259, 76, 77, 463, 460, 114, 634, 635, 627
260, 460, 463, 464, 461, 635, 636, 637, 629
261, 461, 464, 465, 462, 637, 638, 639, 631
262, 462, 465, 165, 166, 639, 640, 203, 633
263, 77, 78, 466, 463, 115, 641, 642, 634
264, 463, 466, 467, 464, 642, 643, 644, 636
265, 464, 467, 468, 465, 644, 645, 646, 638
266, 465, 468, 164, 165, 646, 647, 202, 640
267, 78, 79, 469, 466, 116, 648, 649, 641
268, 466, 469, 470, 467, 649, 650, 651, 643
269, 467, 470, 471, 468, 651, 652, 653, 645
270, 468, 471, 163, 164, 653, 654, 201, 647
271, 79, 80, 472, 469, 117, 655, 656, 648
272, 469, 472, 473, 470, 656, 657, 658, 650
273, 470, 473, 474, 471, 658, 659, 660, 652
274, 471, 474, 162, 163, 660, 661, 200, 654
275, 80, 81, 475, 472, 118, 662, 663, 655
276, 472, 475, 476, 473, 663, 664, 665, 657
277, 473, 476, 477, 474, 665, 666, 667, 659
278, 474, 477, 161, 162, 667, 668, 199, 661
279, 81, 82, 478, 475, 119, 669, 670, 662
280, 475, 478, 479, 476, 670, 671, 672, 664
281, 476, 479, 480, 477, 672, 673, 674, 666
282, 477, 480, 160, 161, 674, 675, 198, 668
283, 82, 83, 481, 478, 120, 676, 677, 669
284, 478, 481, 482, 479, 677, 678, 679, 671
285, 479, 482, 483, 480, 679, 680, 681, 673
286, 480, 483, 159, 160, 681, 682, 197, 675
287, 83, 84, 484, 481, 121, 683, 684, 676
288, 481, 484, 485, 482, 684, 685, 686, 678
289, 482, 485, 486, 483, 686, 687, 688, 680
290, 483, 486, 158, 159, 688, 689, 196, 682
291, 84, 85, 487, 484, 122, 690, 691, 683
292, 484, 487, 488, 485, 691, 692, 693, 685
293, 485, 488, 489, 486, 693, 694, 695, 687
294, 486, 489, 157, 158, 695, 696, 195, 689
295, 85, 86, 490, 487, 123, 697, 698, 690
296, 487, 490, 491, 488, 698, 699, 700, 692
297, 488, 491, 492, 489, 700, 701, 702, 694
298, 489, 492, 156, 157, 702, 703, 194, 696
299, 86, 87, 493, 490, 124, 704, 705, 697
300, 490, 493, 494, 491, 705, 706, 707, 699
301, 491, 494, 495, 492, 707, 708, 709, 701
302, 492, 495, 155, 156, 709, 710, 193, 703
303, 87, 88, 496, 493, 125, 711, 712, 704
304, 493, 496, 497, 494, 712, 713, 714, 706
305, 494, 497, 498, 495, 714, 715, 716, 708
306, 495, 498, 154, 155, 716, 717, 192, 710
307, 88, 89, 499, 496, 126, 718, 719, 711
308, 496, 499, 500, 497, 719, 720, 721, 713
309, 497, 500, 501, 498, 721, 722, 723, 715
310, 498, 501, 153, 154, 723, 724, 191, 717
311, 89, 90, 502, 499, 127, 725, 726, 718
312, 499, 502, 503, 500, 726, 727, 728, 720
313, 500, 503, 504, 501, 728, 729, 730, 722
314, 501, 504, 152, 153, 730, 731, 190, 724
315, 90, 91, 505, 502, 128, 732, 733, 725
316, 502, 505, 506, 503, 733, 734, 735, 727
317, 503, 506, 507, 504, 735, 736, 737, 729
318, 504, 507, 151, 152, 737, 738, 189, 731
319, 91, 92, 508, 505, 129, 739, 740, 732
320, 505, 508, 509, 506, 740, 741, 742, 734
321, 506, 509, 510, 507, 742, 743, 744, 736
322, 507, 510, 150, 151, 744, 745, 188, 738
323, 92, 93, 511, 508, 130, 746, 747, 739
324, 508, 511, 512, 509, 747, 748, 749, 741
325, 509, 512, 513, 510, 749, 750, 751, 743
326, 510, 513, 149, 150, 751, 752, 187, 745
327, 93, 94, 514, 511, 131, 753, 754, 746
328, 511, 514, 515, 512, 754, 755, 756, 748
329, 512, 515, 516, 513, 756, 757, 758, 750
330, 513, 516, 148, 149, 758, 759, 186, 752
331, 94, 95, 517, 514, 132, 760, 761, 753
332, 514, 517, 518, 515, 761, 762, 763, 755
333, 515, 518, 519, 516, 763, 764, 765, 757
334, 516, 519, 147, 148, 765, 766, 185, 759
335, 95, 96, 520, 517, 133, 767, 768, 760
336, 517, 520, 521, 518, 768, 769, 770, 762
337, 518, 521, 522, 519, 770, 771, 772, 764
338, 519, 522, 146, 147, 772, 773, 184, 766
339, 96, 97, 523, 520, 134, 774, 775, 767
340, 520, 523, 524, 521, 775, 776, 777, 769
341, 521, 524, 525, 522, 777, 778, 779, 771
342, 522, 525, 145, 146, 779, 780, 183, 773
343, 97, 98, 526, 523, 135, 781, 782, 774
344, 523, 526, 527, 524, 782, 783, 784, 776
345, 524, 527, 528, 525, 784, 785, 786, 778
346, 525, 528, 144, 145, 786, 787, 182, 780
347, 98, 7, 137, 526, 136, 140, 788, 781
348, 526, 137, 138, 527, 788, 141, 789, 783
349, 527, 138, 139, 528, 789, 142, 790, 785
350, 528, 139, 8, 144, 790, 143, 181, 787
*ELEMENT, type=CPS8, ELSET=Surface31
351, 796, 241, 798, 793, 802, 803, 804, 805
352, 792, 795, 801, 791, 806, 807, 808, 809
353, 241, 796, 800, 240, 802, 810, 811, 244
354, 801, 226, 227, 791, 812, 232, 813, 808
355, 230, 11, 237, 799, 236, 238, 814, 815
356, 228, 229, 796, 793, 234, 816, 805, 817
357, 227, 228, 793, 794, 233, 817, 818, 819
358, 242, 792, 791, 797, 820, 809, 821, 822
359, 226, 801, 249, 10, 812, 823, 253, 231
360, 227, 794, 797, 791, 819, 824, 821, 813
361, 247, 248, 795, 792, 251, 825, 806, 826
362, 793, 798, 797, 794, 804, 827, 824, 818
363, 240, 800, 237, 12, 811, 828, 239, 243
364, 229, 230, 799, 796, 235, 815, 829, 816
365, 248, 249, 801, 795, 252, 823, 807, 825
366, 796, 799, 237, 800, 829, 814, 828, 810
367, 241, 242, 797, 798, 245, 822, 827, 803
368, 242, 13, 247, 792, 246, 250, 826, 820
*ELEMENT, type=CPS8, ELSET=Surface41
369, 852, 854, 869, 866, 883, 884, 885, 886
370, 865, 836, 880, 847, 887, 888, 889, 890
371, 863, 846, 845, 868, 891, 892, 893, 894
372, 861, 849, 857, 832, 895, 896, 897, 898
373, 846, 844, 842, 845, 899, 900, 901, 892
374, 834, 841, 856, 840, 902, 903, 904, 905
375, 854, 838, 281, 853, 906, 907, 908, 909
376, 847, 841, 834, 865, 910, 902, 911, 890
377, 834, 840, 265, 266, 905, 912, 273, 913
378, 851, 836, 268, 269, 914, 915, 276, 916
379, 843, 850, 845, 842, 917, 918, 901, 919
380, 840, 856, 855, 839, 904, 920, 921, 922
381, 842, 844, 856, 841, 900, 923, 903, 924
382, 843, 849, 873, 850, 925, 926, 927, 917
383, 266, 267, 865, 834, 274, 928, 911, 913
384, 836, 865, 267, 268, 887, 928, 275, 915
385, 844, 846, 878, 870, 899, 929, 930, 931
386, 839, 874, 265, 840, 932, 933, 912, 922
387, 851, 852, 880, 836, 934, 935, 888, 914
388, 843, 848, 857, 849, 936, 937, 896, 925
389, 290, 291, 861, 832, 300, 938, 898, 939
390, 292, 293, 860, 831, 302, 940, 941, 942
391, 294, 295, 862, 835, 304, 943, 944, 945
392, 269, 270, 867, 851, 277, 946, 947, 916
393, 256, 257, 839, 855, 262, 948, 921, 949
394, 872, 14, 254, 837, 950, 259, 951, 952
395, 842, 841, 847, 843, 924, 910, 953, 919
396, 255, 256, 855, 830, 261, 949, 954, 955
397, 255, 864, 837, 254, 956, 957, 951, 260
398, 852, 876, 838, 854, 958, 959, 906, 883
399, 282, 17, 287, 875, 286, 296, 960, 961
400, 875, 859, 881, 853, 962, 963, 964, 965
401, 265, 874, 258, 15, 933, 966, 264, 272
402, 289, 290, 832, 858, 299, 939, 967, 968
403, 291, 292, 831, 861, 301, 942, 969, 938
404, 293, 294, 835, 860, 303, 945, 970, 940
405, 14, 872, 18, 306, 950, 971, 307, 308
406, 289, 833, 859, 288, 972, 973, 974, 298
407, 281, 282, 875, 853, 285, 961, 965, 908
408, 295, 18, 872, 862, 305, 971, 975, 943
409, 869, 881, 859, 833, 976, 963, 973, 977
410, 855, 856, 844, 870, 920, 923, 931, 978
411, 280, 879, 271, 16, 979, 980, 279, 283
412, 289, 858, 877, 833, 968, 981, 982, 972
413, 281, 838, 879, 280, 907, 983, 979, 284
414, 863, 868, 860, 835, 894, 984, 970, 985
415, 860, 868, 873, 831, 984, 986, 987, 941
416, 855, 870, 878, 830, 978, 930, 988, 954
417, 848, 880, 852, 866, 989, 935, 886, 990
418, 876, 867, 879, 838, 991, 992, 983, 959
419, 848, 866, 877, 857, 990, 993, 994, 937
420, 832, 857, 877, 858, 897, 994, 981, 967
421, 845, 850, 873, 868, 918, 927, 986, 893
422, 835, 862, 882, 863, 944, 995, 996, 985
423, 852, 851, 867, 876, 934, 947, 991, 958
424, 257, 258, 874, 839, 263, 966, 932, 948
425, 833, 877, 866, 869, 982, 993, 885, 977
426, 288, 859, 875, 287, 974, 962, 960, 297
427, 849, 861, 831, 873, 895, 969, 987, 926
428, 853, 881, 869, 854, 964, 976, 884, 909
429, 270, 271, 879, 867, 278, 980, 992, 946
430, 255, 830, 878, 864, 955, 988, 997, 956
431, 843, 847, 880, 848, 953, 889, 989, 936
432, 846, 871, 864, 878, 998, 999, 997, 929
433, 846, 863, 882, 871, 891, 996, 1000, 998
434, 864, 871, 882, 837, 999, 1000, 1001, 957
435, 837, 882, 862, 872, 1001, 995, 975, 952
*ELSET,ELSET=PunchBottom
1, 2, 3, 4, 5, 6, 
*ELSET,ELSET=PunchSide
7, 8, 9, 10, 11, 12, 13, 14, 
*ELSET,ELSET=PunchTop
15, 16, 17, 18, 
*ELSET,ELSET=PunchCenter
19, 20, 21, 22, 23, 24, 
*ELSET,ELSET=BlankBottom
25, 26, 27, 28, 29, 30, 31, 32, 33, 34, 
35, 36, 37, 38, 39, 40, 41, 42, 43, 44, 
45, 46, 47, 48, 49, 50, 51, 52, 53, 54, 
55, 56, 57, 58, 59, 60, 61, 62, 
*ELSET,ELSET=BlankTop
67, 68, 69, 70, 71, 72, 73, 74, 75, 76, 
77, 78, 79, 80, 81, 82, 83, 84, 85, 86, 
87, 88, 89, 90, 91, 92, 93, 94, 95, 96, 
97, 98, 99, 100, 101, 102, 103, 104, 
*ELSET,ELSET=BlankOuter
63, 64, 65, 66, 
*ELSET,ELSET=BlankInner
105, 106, 107, 108, 
*ELSET,ELSET=BH_Bottom
109, 110, 111, 112, 113, 114, 
*ELSET,ELSET=BH_Outer
115, 116, 
*ELSET,ELSET=BH_Top
117, 118, 119, 120, 
*ELSET,ELSET=BH_Inner
121, 122, 123, 124, 
*ELSET,ELSET=DieTop
125, 126, 127, 128, 129, 130, 153, 154, 
*ELSET,ELSET=DieOuter
131, 132, 133, 134, 135, 136, 137, 138, 
*ELSET,ELSET=DieBottom
139, 140, 141, 142, 
*ELSET,ELSET=DieInner
143, 144, 145, 146, 147, 148, 149, 150, 151, 152, 
*ELSET,ELSET=Punch
155, 156, 157, 158, 159, 160, 161, 162, 163, 164, 
165, 166, 167, 168, 169, 170, 171, 172, 173, 174, 
175, 176, 177, 178, 179, 180, 181, 182, 183, 184, 
185, 186, 187, 188, 189, 190, 191, 192, 193, 194, 
195, 196, 197, 198, 
*ELSET,ELSET=Blank
199, 200, 201, 202, 203, 204, 205, 206, 207, 208, 
209, 210, 211, 212, 213, 214, 215, 216, 217, 218, 
219, 220, 221, 222, 223, 224, 225, 226, 227, 228, 
229, 230, 231, 232, 233, 234, 235, 236, 237, 238, 
239, 240, 241, 242, 243, 244, 245, 246, 247, 248, 
249, 250, 251, 252, 253, 254, 255, 256, 257, 258, 
259, 260, 261, 262, 263, 264, 265, 266, 267, 268, 
269, 270, 271, 272, 273, 274, 275, 276, 277, 278, 
279, 280, 281, 282, 283, 284, 285, 286, 287, 288, 
289, 290, 291, 292, 293, 294, 295, 296, 297, 298, 
299, 300, 301, 302, 303, 304, 305, 306, 307, 308, 
309, 310, 311, 312, 313, 314, 315, 316, 317, 318, 
319, 320, 321, 322, 323, 324, 325, 326, 327, 328, 
329, 330, 331, 332, 333, 334, 335, 336, 337, 338, 
339, 340, 341, 342, 343, 344, 345, 346, 347, 348, 
349, 350, 
*ELSET,ELSET=BlankHolder
351, 352, 353, 354, 355, 356, 357, 358, 359, 360, 
361, 362, 363, 364, 365, 366, 367, 368, 
*ELSET,ELSET=Die
369, 370, 371, 372, 373, 374, 375, 376, 377, 378, 
379, 380, 381, 382, 383, 384, 385, 386, 387, 388, 
389, 390, 391, 392, 393, 394, 395, 396, 397, 398, 
399, 400, 401, 402, 403, 404, 405, 406, 407, 408, 
409, 410, 411, 412, 413, 414, 415, 416, 417, 418, 
419, 420, 421, 422, 423, 424, 425, 426, 427, 428, 
429, 430, 431, 432, 433, 434, 435, 
*NSET,NSET=PunchBottom
1, 2, 3, 19, 20, 21, 22, 23, 24, 25, 
26, 27, 28, 
*NSET,NSET=PunchSide
3, 4, 29, 30, 31, 32, 33, 34, 35, 36, 
37, 38, 39, 40, 41, 42, 43, 
*NSET,NSET=PunchTop
4, 5, 44, 45, 46, 47, 48, 49, 50, 
*NSET,NSET=PunchCenter
1, 5, 51, 52, 53, 54, 55, 56, 57, 58, 
59, 60, 61, 
*NSET,NSET=BlankBottom
6, 7, 62, 63, 64, 65, 66, 67, 68, 69, 
70, 71, 72, 73, 74, 75, 76, 77, 78, 79, 
80, 81, 82, 83, 84, 85, 86, 87, 88, 89, 
90, 91, 92, 93, 94, 95, 96, 97, 98, 99, 
100, 101, 102, 103, 104, 105, 106, 107, 108, 109, 
110, 111, 112, 113, 114, 115, 116, 117, 118, 119, 
120, 121, 122, 123, 124, 125, 126, 127, 128, 129, 
130, 131, 132, 133, 134, 135, 136, 
*NSET,NSET=BlankTop
8, 9, 144, 145, 146, 147, 148, 149, 150, 151, 
152, 153, 154, 155, 156, 157, 158, 159, 160, 161, 
162, 163, 164, 165, 166, 167, 168, 169, 170, 171, 
172, 173, 174, 175, 176, 177, 178, 179, 180, 181, 
182, 183, 184, 185, 186, 187, 188, 189, 190, 191, 
192, 193, 194, 195, 196, 197, 198, 199, 200, 201, 
202, 203, 204, 205, 206, 207, 208, 209, 210, 211, 
212, 213, 214, 215, 216, 217, 218, 
*NSET,NSET=BlankOuter
7, 8, 137, 138, 139, 140, 141, 142, 143, 
*NSET,NSET=BlankInner
6, 9, 219, 220, 221, 222, 223, 224, 225, 
*NSET,NSET=BH_Bottom
10, 11, 226, 227, 228, 229, 230, 231, 232, 233, 
234, 235, 236, 
*NSET,NSET=BH_Outer
11, 12, 237, 238, 239, 
*NSET,NSET=BH_Top
12, 13, 240, 241, 242, 243, 244, 245, 246, 
*NSET,NSET=BH_Inner
10, 13, 247, 248, 249, 250, 251, 252, 253, 
*NSET,NSET=DieTop
14, 15, 18, 254, 255, 256, 257, 258, 259, 260, 
261, 262, 263, 264, 306, 307, 308, 
*NSET,NSET=DieOuter
15, 16, 265, 266, 267, 268, 269, 270, 271, 272, 
273, 274, 275, 276, 277, 278, 279, 
*NSET,NSET=DieBottom
16, 17, 280, 281, 282, 283, 284, 285, 286, 
*NSET,NSET=DieInner
17, 18, 287, 288, 289, 290, 291, 292, 293, 294, 
295, 296, 297, 298, 299, 300, 301, 302, 303, 304, 
305, 
*NSET,NSET=Punch
1, 2, 3, 4, 5, 19, 20, 21, 22, 23, 
24, 25, 26, 27, 28, 29, 30, 31, 32, 33, 
34, 35, 36, 37, 38, 39, 40, 41, 42, 43, 
44, 45, 46, 47, 48, 49, 50, 51, 52, 53, 
54, 55, 56, 57, 58, 59, 60, 61, 309, 310, 
311, 312, 313, 314, 315, 316, 317, 318, 319, 320, 
321, 322, 323, 324, 325, 326, 327, 328, 329, 330, 
331, 332, 333, 334, 335, 336, 337, 338, 339, 340, 
341, 342, 343, 344, 345, 346, 347, 348, 349, 350, 
351, 352, 353, 354, 355, 356, 357, 358, 359, 360, 
361, 362, 363, 364, 365, 366, 367, 368, 369, 370, 
371, 372, 373, 374, 375, 376, 377, 378, 379, 380, 
381, 382, 383, 384, 385, 386, 387, 388, 389, 390, 
391, 392, 393, 394, 395, 396, 397, 398, 399, 400, 
401, 402, 403, 404, 405, 406, 407, 408, 409, 410, 
411, 412, 413, 414, 415, 416, 417, 
*NSET,NSET=Blank
6, 7, 8, 9, 62, 63, 64, 65, 66, 67, 
68, 69, 70, 71, 72, 73, 74, 75, 76, 77, 
78, 79, 80, 81, 82, 83, 84, 85, 86, 87, 
88, 89, 90, 91, 92, 93, 94, 95, 96, 97, 
98, 99, 100, 101, 102, 103, 104, 105, 106, 107, 
108, 109, 110, 111, 112, 113, 114, 115, 116, 117, 
118, 119, 120, 121, 122, 123, 124, 125, 126, 127, 
128, 129, 130, 131, 132, 133, 134, 135, 136, 137, 
138, 139, 140, 141, 142, 143, 144, 145, 146, 147, 
148, 149, 150, 151, 152, 153, 154, 155, 156, 157, 
158, 159, 160, 161, 162, 163, 164, 165, 166, 167, 
168, 169, 170, 171, 172, 173, 174, 175, 176, 177, 
178, 179, 180, 181, 182, 183, 184, 185, 186, 187, 
188, 189, 190, 191, 192, 193, 194, 195, 196, 197, 
198, 199, 200, 201, 202, 203, 204, 205, 206, 207, 
208, 209, 210, 211, 212, 213, 214, 215, 216, 217, 
218, 219, 220, 221, 222, 223, 224, 225, 418, 419, 
420, 421, 422, 423, 424, 425, 426, 427, 428, 429, 
430, 431, 432, 433, 434, 435, 436, 437, 438, 439, 
440, 441, 442, 443, 444, 445, 446, 447, 448, 449, 
450, 451, 452, 453, 454, 455, 456, 457, 458, 459, 
460, 461, 462, 463, 464, 465, 466, 467, 468, 469, 
470, 471, 472, 473, 474, 475, 476, 477, 478, 479, 
480, 481, 482, 483, 484, 485, 486, 487, 488, 489, 
490, 491, 492, 493, 494, 495, 496, 497, 498, 499, 
500, 501, 502, 503, 504, 505, 506, 507, 508, 509, 
510, 511, 512, 513, 514, 515, 516, 517, 518, 519, 
520, 521, 522, 523, 524, 525, 526, 527, 528, 529, 
530, 531, 532, 533, 534, 535, 536, 537, 538, 539, 
540, 541, 542, 543, 544, 545, 546, 547, 548, 549, 
550, 551, 552, 553, 554, 555, 556, 557, 558, 559, 
560, 561, 562, 563, 564, 565, 566, 567, 568, 569, 
570, 571, 572, 573, 574, 575, 576, 577, 578, 579, 
580, 581, 582, 583, 584, 585, 586, 587, 588, 589, 
590, 591, 592, 593, 594, 595, 596, 597, 598, 599, 
600, 601, 602, 603, 604, 605, 606, 607, 608, 609, 
610, 611, 612, 613, 614, 615, 616, 617, 618, 619, 
620, 621, 622, 623, 624, 625, 626, 627, 628, 629, 
630, 631, 632, 633, 634, 635, 636, 637, 638, 639, 
640, 641, 642, 643, 644, 645, 646, 647, 648, 649, 
650, 651, 652, 653, 654, 655, 656, 657, 658, 659, 
660, 661, 662, 663, 664, 665, 666, 667, 668, 669, 
670, 671, 672, 673, 674, 675, 676, 677, 678, 679, 
680, 681, 682, 683, 684, 685, 686, 687, 688, 689, 
690, 691, 692, 693, 694, 695, 696, 697, 698, 699, 
700, 701, 702, 703, 704, 705, 706, 707, 708, 709, 
710, 711, 712, 713, 714, 715, 716, 717, 718, 719, 
720, 721, 722, 723, 724, 725, 726, 727, 728, 729, 
730, 731, 732, 733, 734, 735, 736, 737, 738, 739, 
740, 741, 742, 743, 744, 745, 746, 747, 748, 749, 
750, 751, 752, 753, 754, 755, 756, 757, 758, 759, 
760, 761, 762, 763, 764, 765, 766, 767, 768, 769, 
770, 771, 772, 773, 774, 775, 776, 777, 778, 779, 
780, 781, 782, 783, 784, 785, 786, 787, 788, 789, 
790, 
*NSET,NSET=BlankHolder
10, 11, 12, 13, 226, 227, 228, 229, 230, 231, 
232, 233, 234, 235, 236, 237, 238, 239, 240, 241, 
242, 243, 244, 245, 246, 247, 248, 249, 250, 251, 
252, 253, 791, 792, 793, 794, 795, 796, 797, 798, 
799, 800, 801, 802, 803, 804, 805, 806, 807, 808, 
809, 810, 811, 812, 813, 814, 815, 816, 817, 818, 
819, 820, 821, 822, 823, 824, 825, 826, 827, 828, 
829, 
*NSET,NSET=Die
14, 15, 16, 17, 18, 254, 255, 256, 257, 258, 
259, 260, 261, 262, 263, 264, 265, 266, 267, 268, 
269, 270, 271, 272, 273, 274, 275, 276, 277, 278, 
279, 280, 281, 282, 283, 284, 285, 286, 287, 288, 
289, 290, 291, 292, 293, 294, 295, 296, 297, 298, 
299, 300, 301, 302, 303, 304, 305, 306, 307, 308, 
830, 831, 832, 833, 834, 835, 836, 837, 838, 839, 
840, 841, 842, 843, 844, 845, 846, 847, 848, 849, 
850, 851, 852, 853, 854, 855, 856, 857, 858, 859, 
860, 861, 862, 863, 864, 865, 866, 867, 868, 869, 
870, 871, 872, 873, 874, 875, 876, 877, 878, 879, 
880, 881, 882, 883, 884, 885, 886, 887, 888, 889, 
890, 891, 892, 893, 894, 895, 896, 897, 898, 899, 
900, 901, 902, 903, 904, 905, 906, 907, 908, 909, 
910, 911, 912, 913, 914, 915, 916, 917, 918, 919, 
920, 921, 922, 923, 924, 925, 926, 927, 928, 929, 
930, 931, 932, 933, 934, 935, 936, 937, 938, 939, 
940, 941, 942, 943, 944, 945, 946, 947, 948, 949, 
950, 951, 952, 953, 954, 955, 956, 957, 958, 959, 
960, 961, 962, 963, 964, 965, 966, 967, 968, 969, 
970, 971, 972, 973, 974, 975, 976, 977, 978, 979, 
980, 981, 982, 983, 984, 985, 986, 987, 988, 989, 
990, 991, 992, 993, 994, 995, 996, 997, 998, 999, 
1000, 1001, 
