**
** Heading +++++++++++++++++++++++++++++++++++++++++++++++++
**
*Heading
Hash: SQ5nkzSL, Date: 01/18/2026, Unit system: MM_TON_S_C
**
** Nodes +++++++++++++++++++++++++++++++++++++++++++++++++++
**
*Node
1, 0.00000000E+000, 1.00100000E+000
2, 1.20000000E+001, 1.00100000E+000
3, 1.50000000E+001, 4.00100000E+000
4, 1.50000000E+001, 2.60010000E+001
5, 0.00000000E+000, 2.60010000E+001
6, 0.00000000E+000, 0.00000000E+000
7, 3.61000000E+001, 0.00000000E+000
8, 3.61000000E+001, 1.00000000E+000
9, 0.00000000E+000, 1.00000000E+000
10, 1.61000000E+001, 1.00000000E+000
11, 3.61000000E+001, 1.00000000E+000
12, 3.61000000E+001, 9.00000000E+000
13, 1.61000000E+001, 9.00000000E+000
14, 1.91000000E+001, 0.00000000E+000
15, 3.61000000E+001, 0.00000000E+000
16, 3.61000000E+001, -3.50000000E+001
17, 1.61000000E+001, -3.50000000E+001
18, 1.61000000E+001, -3.00000000E+000
19, 3.81848553E+000, 1.00100000E+000
20, 7.02943702E+000, 1.00100000E+000
21, 9.72951432E+000, 1.00100000E+000
22, 1.90924277E+000, 1.00100000E+000
23, 5.42396127E+000, 1.00100000E+000
24, 8.37947567E+000, 1.00100000E+000
25, 1.08647572E+001, 1.00100000E+000
26, 1.41213203E+001, 1.87967966E+000
27, 1.31480503E+001, 1.22936140E+000
28, 1.47716386E+001, 2.85294970E+000
29, 1.50000000E+001, 5.99217065E+000
30, 1.50000000E+001, 8.16355703E+000
31, 1.50000000E+001, 1.05314703E+001
32, 1.50000000E+001, 1.31136987E+001
33, 1.50000000E+001, 1.59296385E+001
34, 1.50000000E+001, 1.90004425E+001
35, 1.50000000E+001, 2.23491779E+001
36, 1.50000000E+001, 4.99658532E+000
37, 1.50000000E+001, 7.07786384E+000
38, 1.50000000E+001, 9.34751365E+000
39, 1.50000000E+001, 1.18225845E+001
40, 1.50000000E+001, 1.45216686E+001
41, 1.50000000E+001, 1.74650405E+001
42, 1.50000000E+001, 2.06748102E+001
43, 1.50000000E+001, 2.41750890E+001
44, 1.12500000E+001, 2.60010000E+001
45, 7.50000000E+000, 2.60010000E+001
46, 3.75000000E+000, 2.60010000E+001
47, 1.31250000E+001, 2.60010000E+001
48, 9.37500000E+000, 2.60010000E+001
49, 5.62500000E+000, 2.60010000E+001
50, 1.87500000E+000, 2.60010000E+001
51, 0.00000000E+000, 2.18343333E+001
52, 0.00000000E+000, 1.76676667E+001
53, 0.00000000E+000, 1.35010000E+001
54, 0.00000000E+000, 9.33433333E+000
55, 0.00000000E+000, 5.16766667E+000
56, 0.00000000E+000, 2.39176667E+001
57, 0.00000000E+000, 1.97510000E+001
58, 0.00000000E+000, 1.55843333E+001
59, 0.00000000E+000, 1.14176667E+001
60, 0.00000000E+000, 7.25100000E+000
61, 0.00000000E+000, 3.08433333E+000
62, 4.51250000E-001, 0.00000000E+000
63, 9.02500000E-001, 0.00000000E+000
64, 1.35375000E+000, 0.00000000E+000
65, 1.80500000E+000, 0.00000000E+000
66, 2.25625000E+000, 0.00000000E+000
67, 2.70750000E+000, 0.00000000E+000
68, 3.15875000E+000, 0.00000000E+000
69, 3.61000000E+000, 0.00000000E+000
70, 4.06125000E+000, 0.00000000E+000
71, 4.51250000E+000, 0.00000000E+000
72, 4.96375000E+000, 0.00000000E+000
73, 5.41500000E+000, 0.00000000E+000
74, 5.86625000E+000, 0.00000000E+000
75, 6.31750000E+000, 0.00000000E+000
76, 6.76875000E+000, 0.00000000E+000
77, 7.22000000E+000, 0.00000000E+000
78, 7.67125000E+000, 0.00000000E+000
79, 8.12250000E+000, 0.00000000E+000
80, 8.57375000E+000, 0.00000000E+000
81, 9.02500000E+000, 0.00000000E+000
82, 9.47625000E+000, 0.00000000E+000
83, 9.92750000E+000, 0.00000000E+000
84, 1.03787500E+001, 0.00000000E+000
85, 1.08300000E+001, 0.00000000E+000
86, 1.12812500E+001, 0.00000000E+000
87, 1.17325000E+001, 0.00000000E+000
88, 1.21837500E+001, 0.00000000E+000
89, 1.26350000E+001, 0.00000000E+000
90, 1.30862500E+001, 0.00000000E+000
91, 1.35375000E+001, 0.00000000E+000
92, 1.39887500E+001, 0.00000000E+000
93, 1.44400000E+001, 0.00000000E+000
94, 1.48912500E+001, 0.00000000E+000
95, 1.53425000E+001, 0.00000000E+000
96, 1.57937500E+001, 0.00000000E+000
97, 1.62450000E+001, 0.00000000E+000
98, 1.66962500E+001, 0.00000000E+000
99, 1.71475000E+001, 0.00000000E+000
100, 1.75987500E+001, 0.00000000E+000
101, 1.80500000E+001, 0.00000000E+000
102, 1.85012500E+001, 0.00000000E+000
103, 1.89525000E+001, 0.00000000E+000
104, 1.94037500E+001, 0.00000000E+000
105, 1.98550000E+001, 0.00000000E+000
106, 2.03062500E+001, 0.00000000E+000
107, 2.07575000E+001, 0.00000000E+000
108, 2.12087500E+001, 0.00000000E+000
109, 2.16600000E+001, 0.00000000E+000
110, 2.21112500E+001, 0.00000000E+000
111, 2.25625000E+001, 0.00000000E+000
112, 2.30137500E+001, 0.00000000E+000
113, 2.34650000E+001, 0.00000000E+000
114, 2.39162500E+001, 0.00000000E+000
115, 2.43675000E+001, 0.00000000E+000
116, 2.48187500E+001, 0.00000000E+000
117, 2.52700000E+001, 0.00000000E+000
118, 2.57212500E+001, 0.00000000E+000
119, 2.61725000E+001, 0.00000000E+000
120, 2.66237500E+001, 0.00000000E+000
121, 2.70750000E+001, 0.00000000E+000
122, 2.75262500E+001, 0.00000000E+000
123, 2.79775000E+001, 0.00000000E+000
124, 2.84287500E+001, 0.00000000E+000
125, 2.88800000E+001, 0.00000000E+000
126, 2.93312500E+001, 0.00000000E+000
127, 2.97825000E+001, 0.00000000E+000
128, 3.02337500E+001, 0.00000000E+000
129, 3.06850000E+001, 0.00000000E+000
130, 3.11362500E+001, 0.00000000E+000
131, 3.15875000E+001, 0.00000000E+000
132, 3.20387500E+001, 0.00000000E+000
133, 3.24900000E+001, 0.00000000E+000
134, 3.29412500E+001, 0.00000000E+000
135, 3.33925000E+001, 0.00000000E+000
136, 3.38437500E+001, 0.00000000E+000
137, 3.42950000E+001, 0.00000000E+000
138, 3.47462500E+001, 0.00000000E+000
139, 3.51975000E+001, 0.00000000E+000
140, 3.56487500E+001, 0.00000000E+000
141, 2.25625000E-001, 0.00000000E+000
142, 6.76875000E-001, 0.00000000E+000
143, 1.12812500E+000, 0.00000000E+000
144, 1.57937500E+000, 0.00000000E+000
145, 2.03062500E+000, 0.00000000E+000
146, 2.48187500E+000, 0.00000000E+000
147, 2.93312500E+000, 0.00000000E+000
148, 3.38437500E+000, 0.00000000E+000
149, 3.83562500E+000, 0.00000000E+000
150, 4.28687500E+000, 0.00000000E+000
151, 4.73812500E+000, 0.00000000E+000
152, 5.18937500E+000, 0.00000000E+000
153, 5.64062500E+000, 0.00000000E+000
154, 6.09187500E+000, 0.00000000E+000
155, 6.54312500E+000, 0.00000000E+000
156, 6.99437500E+000, 0.00000000E+000
157, 7.44562500E+000, 0.00000000E+000
158, 7.89687500E+000, 0.00000000E+000
159, 8.34812500E+000, 0.00000000E+000
160, 8.79937500E+000, 0.00000000E+000
161, 9.25062500E+000, 0.00000000E+000
162, 9.70187500E+000, 0.00000000E+000
163, 1.01531250E+001, 0.00000000E+000
164, 1.06043750E+001, 0.00000000E+000
165, 1.10556250E+001, 0.00000000E+000
166, 1.15068750E+001, 0.00000000E+000
167, 1.19581250E+001, 0.00000000E+000
168, 1.24093750E+001, 0.00000000E+000
169, 1.28606250E+001, 0.00000000E+000
170, 1.33118750E+001, 0.00000000E+000
171, 1.37631250E+001, 0.00000000E+000
172, 1.42143750E+001, 0.00000000E+000
173, 1.46656250E+001, 0.00000000E+000
174, 1.51168750E+001, 0.00000000E+000
175, 1.55681250E+001, 0.00000000E+000
176, 1.60193750E+001, 0.00000000E+000
177, 1.64706250E+001, 0.00000000E+000
178, 1.69218750E+001, 0.00000000E+000
179, 1.73731250E+001, 0.00000000E+000
180, 1.78243750E+001, 0.00000000E+000
181, 1.82756250E+001, 0.00000000E+000
182, 1.87268750E+001, 0.00000000E+000
183, 1.91781250E+001, 0.00000000E+000
184, 1.96293750E+001, 0.00000000E+000
185, 2.00806250E+001, 0.00000000E+000
186, 2.05318750E+001, 0.00000000E+000
187, 2.09831250E+001, 0.00000000E+000
188, 2.14343750E+001, 0.00000000E+000
189, 2.18856250E+001, 0.00000000E+000
190, 2.23368750E+001, 0.00000000E+000
191, 2.27881250E+001, 0.00000000E+000
192, 2.32393750E+001, 0.00000000E+000
193, 2.36906250E+001, 0.00000000E+000
194, 2.41418750E+001, 0.00000000E+000
195, 2.45931250E+001, 0.00000000E+000
196, 2.50443750E+001, 0.00000000E+000
197, 2.54956250E+001, 0.00000000E+000
198, 2.59468750E+001, 0.00000000E+000
199, 2.63981250E+001, 0.00000000E+000
200, 2.68493750E+001, 0.00000000E+000
201, 2.73006250E+001, 0.00000000E+000
202, 2.77518750E+001, 0.00000000E+000
203, 2.82031250E+001, 0.00000000E+000
204, 2.86543750E+001, 0.00000000E+000
205, 2.91056250E+001, 0.00000000E+000
206, 2.95568750E+001, 0.00000000E+000
207, 3.00081250E+001, 0.00000000E+000
208, 3.04593750E+001, 0.00000000E+000
209, 3.09106250E+001, 0.00000000E+000
210, 3.13618750E+001, 0.00000000E+000
211, 3.18131250E+001, 0.00000000E+000
212, 3.22643750E+001, 0.00000000E+000
213, 3.27156250E+001, 0.00000000E+000
214, 3.31668750E+001, 0.00000000E+000
215, 3.36181250E+001, 0.00000000E+000
216, 3.40693750E+001, 0.00000000E+000
217, 3.45206250E+001, 0.00000000E+000
218, 3.49718750E+001, 0.00000000E+000
219, 3.54231250E+001, 0.00000000E+000
220, 3.58743750E+001, 0.00000000E+000
221, 3.61000000E+001, 2.50000000E-001
222, 3.61000000E+001, 5.00000000E-001
223, 3.61000000E+001, 7.50000000E-001
224, 3.61000000E+001, 1.25000000E-001
225, 3.61000000E+001, 3.75000000E-001
226, 3.61000000E+001, 6.25000000E-001
227, 3.61000000E+001, 8.75000000E-001
228, 3.56487500E+001, 1.00000000E+000
229, 3.51975000E+001, 1.00000000E+000
230, 3.47462500E+001, 1.00000000E+000
231, 3.42950000E+001, 1.00000000E+000
232, 3.38437500E+001, 1.00000000E+000
233, 3.33925000E+001, 1.00000000E+000
234, 3.29412500E+001, 1.00000000E+000
235, 3.24900000E+001, 1.00000000E+000
236, 3.20387500E+001, 1.00000000E+000
237, 3.15875000E+001, 1.00000000E+000
238, 3.11362500E+001, 1.00000000E+000
239, 3.06850000E+001, 1.00000000E+000
240, 3.02337500E+001, 1.00000000E+000
241, 2.97825000E+001, 1.00000000E+000
242, 2.93312500E+001, 1.00000000E+000
243, 2.88800000E+001, 1.00000000E+000
244, 2.84287500E+001, 1.00000000E+000
245, 2.79775000E+001, 1.00000000E+000
246, 2.75262500E+001, 1.00000000E+000
247, 2.70750000E+001, 1.00000000E+000
248, 2.66237500E+001, 1.00000000E+000
249, 2.61725000E+001, 1.00000000E+000
250, 2.57212500E+001, 1.00000000E+000
251, 2.52700000E+001, 1.00000000E+000
252, 2.48187500E+001, 1.00000000E+000
253, 2.43675000E+001, 1.00000000E+000
254, 2.39162500E+001, 1.00000000E+000
255, 2.34650000E+001, 1.00000000E+000
256, 2.30137500E+001, 1.00000000E+000
257, 2.25625000E+001, 1.00000000E+000
258, 2.21112500E+001, 1.00000000E+000
259, 2.16600000E+001, 1.00000000E+000
260, 2.12087500E+001, 1.00000000E+000
261, 2.07575000E+001, 1.00000000E+000
262, 2.03062500E+001, 1.00000000E+000
263, 1.98550000E+001, 1.00000000E+000
264, 1.94037500E+001, 1.00000000E+000
265, 1.89525000E+001, 1.00000000E+000
266, 1.85012500E+001, 1.00000000E+000
267, 1.80500000E+001, 1.00000000E+000
268, 1.75987500E+001, 1.00000000E+000
269, 1.71475000E+001, 1.00000000E+000
270, 1.66962500E+001, 1.00000000E+000
271, 1.62450000E+001, 1.00000000E+000
272, 1.57937500E+001, 1.00000000E+000
273, 1.53425000E+001, 1.00000000E+000
274, 1.48912500E+001, 1.00000000E+000
275, 1.44400000E+001, 1.00000000E+000
276, 1.39887500E+001, 1.00000000E+000
277, 1.35375000E+001, 1.00000000E+000
278, 1.30862500E+001, 1.00000000E+000
279, 1.26350000E+001, 1.00000000E+000
280, 1.21837500E+001, 1.00000000E+000
281, 1.17325000E+001, 1.00000000E+000
282, 1.12812500E+001, 1.00000000E+000
283, 1.08300000E+001, 1.00000000E+000
284, 1.03787500E+001, 1.00000000E+000
285, 9.92750000E+000, 1.00000000E+000
286, 9.47625000E+000, 1.00000000E+000
287, 9.02500000E+000, 1.00000000E+000
288, 8.57375000E+000, 1.00000000E+000
289, 8.12250000E+000, 1.00000000E+000
290, 7.67125000E+000, 1.00000000E+000
291, 7.22000000E+000, 1.00000000E+000
292, 6.76875000E+000, 1.00000000E+000
293, 6.31750000E+000, 1.00000000E+000
294, 5.86625000E+000, 1.00000000E+000
295, 5.41500000E+000, 1.00000000E+000
296, 4.96375000E+000, 1.00000000E+000
297, 4.51250000E+000, 1.00000000E+000
298, 4.06125000E+000, 1.00000000E+000
299, 3.61000000E+000, 1.00000000E+000
300, 3.15875000E+000, 1.00000000E+000
301, 2.70750000E+000, 1.00000000E+000
302, 2.25625000E+000, 1.00000000E+000
303, 1.80500000E+000, 1.00000000E+000
304, 1.35375000E+000, 1.00000000E+000
305, 9.02500000E-001, 1.00000000E+000
306, 4.51250000E-001, 1.00000000E+000
307, 3.58743750E+001, 1.00000000E+000
308, 3.54231250E+001, 1.00000000E+000
309, 3.49718750E+001, 1.00000000E+000
310, 3.45206250E+001, 1.00000000E+000
311, 3.40693750E+001, 1.00000000E+000
312, 3.36181250E+001, 1.00000000E+000
313, 3.31668750E+001, 1.00000000E+000
314, 3.27156250E+001, 1.00000000E+000
315, 3.22643750E+001, 1.00000000E+000
316, 3.18131250E+001, 1.00000000E+000
317, 3.13618750E+001, 1.00000000E+000
318, 3.09106250E+001, 1.00000000E+000
319, 3.04593750E+001, 1.00000000E+000
320, 3.00081250E+001, 1.00000000E+000
321, 2.95568750E+001, 1.00000000E+000
322, 2.91056250E+001, 1.00000000E+000
323, 2.86543750E+001, 1.00000000E+000
324, 2.82031250E+001, 1.00000000E+000
325, 2.77518750E+001, 1.00000000E+000
326, 2.73006250E+001, 1.00000000E+000
327, 2.68493750E+001, 1.00000000E+000
328, 2.63981250E+001, 1.00000000E+000
329, 2.59468750E+001, 1.00000000E+000
330, 2.54956250E+001, 1.00000000E+000
331, 2.50443750E+001, 1.00000000E+000
332, 2.45931250E+001, 1.00000000E+000
333, 2.41418750E+001, 1.00000000E+000
334, 2.36906250E+001, 1.00000000E+000
335, 2.32393750E+001, 1.00000000E+000
336, 2.27881250E+001, 1.00000000E+000
337, 2.23368750E+001, 1.00000000E+000
338, 2.18856250E+001, 1.00000000E+000
339, 2.14343750E+001, 1.00000000E+000
340, 2.09831250E+001, 1.00000000E+000
341, 2.05318750E+001, 1.00000000E+000
342, 2.00806250E+001, 1.00000000E+000
343, 1.96293750E+001, 1.00000000E+000
344, 1.91781250E+001, 1.00000000E+000
345, 1.87268750E+001, 1.00000000E+000
346, 1.82756250E+001, 1.00000000E+000
347, 1.78243750E+001, 1.00000000E+000
348, 1.73731250E+001, 1.00000000E+000
349, 1.69218750E+001, 1.00000000E+000
350, 1.64706250E+001, 1.00000000E+000
351, 1.60193750E+001, 1.00000000E+000
352, 1.55681250E+001, 1.00000000E+000
353, 1.51168750E+001, 1.00000000E+000
354, 1.46656250E+001, 1.00000000E+000
355, 1.42143750E+001, 1.00000000E+000
356, 1.37631250E+001, 1.00000000E+000
357, 1.33118750E+001, 1.00000000E+000
358, 1.28606250E+001, 1.00000000E+000
359, 1.24093750E+001, 1.00000000E+000
360, 1.19581250E+001, 1.00000000E+000
361, 1.15068750E+001, 1.00000000E+000
362, 1.10556250E+001, 1.00000000E+000
363, 1.06043750E+001, 1.00000000E+000
364, 1.01531250E+001, 1.00000000E+000
365, 9.70187500E+000, 1.00000000E+000
366, 9.25062500E+000, 1.00000000E+000
367, 8.79937500E+000, 1.00000000E+000
368, 8.34812500E+000, 1.00000000E+000
369, 7.89687500E+000, 1.00000000E+000
370, 7.44562500E+000, 1.00000000E+000
371, 6.99437500E+000, 1.00000000E+000
372, 6.54312500E+000, 1.00000000E+000
373, 6.09187500E+000, 1.00000000E+000
374, 5.64062500E+000, 1.00000000E+000
375, 5.18937500E+000, 1.00000000E+000
376, 4.73812500E+000, 1.00000000E+000
377, 4.28687500E+000, 1.00000000E+000
378, 3.83562500E+000, 1.00000000E+000
379, 3.38437500E+000, 1.00000000E+000
380, 2.93312500E+000, 1.00000000E+000
381, 2.48187500E+000, 1.00000000E+000
382, 2.03062500E+000, 1.00000000E+000
383, 1.57937500E+000, 1.00000000E+000
384, 1.12812500E+000, 1.00000000E+000
385, 6.76875000E-001, 1.00000000E+000
386, 2.25625000E-001, 1.00000000E+000
387, 0.00000000E+000, 7.50000000E-001
388, 0.00000000E+000, 5.00000000E-001
389, 0.00000000E+000, 2.50000000E-001
390, 0.00000000E+000, 8.75000000E-001
391, 0.00000000E+000, 6.25000000E-001
392, 0.00000000E+000, 3.75000000E-001
393, 0.00000000E+000, 1.25000000E-001
394, 1.85492413E+001, 1.00000000E+000
395, 2.12984214E+001, 1.00000000E+000
396, 2.43842715E+001, 1.00000000E+000
397, 2.78480210E+001, 1.00000000E+000
398, 3.17359488E+001, 1.00000000E+000
399, 1.73246206E+001, 1.00000000E+000
400, 1.99238313E+001, 1.00000000E+000
401, 2.28413465E+001, 1.00000000E+000
402, 2.61161463E+001, 1.00000000E+000
403, 2.97919849E+001, 1.00000000E+000
404, 3.39179744E+001, 1.00000000E+000
405, 3.61000000E+001, 5.00000000E+000
406, 3.61000000E+001, 3.00000000E+000
407, 3.61000000E+001, 7.00000000E+000
408, 3.11000000E+001, 9.00000000E+000
409, 2.61000000E+001, 9.00000000E+000
410, 2.11000000E+001, 9.00000000E+000
411, 3.36000000E+001, 9.00000000E+000
412, 2.86000000E+001, 9.00000000E+000
413, 2.36000000E+001, 9.00000000E+000
414, 1.86000000E+001, 9.00000000E+000
415, 1.61000000E+001, 6.45434296E+000
416, 1.61000000E+001, 4.31370869E+000
417, 1.61000000E+001, 2.51365713E+000
418, 1.61000000E+001, 7.72717148E+000
419, 1.61000000E+001, 5.38402582E+000
420, 1.61000000E+001, 3.41368291E+000
421, 1.61000000E+001, 1.75682857E+000
422, 2.11818551E+001, 0.00000000E+000
423, 2.35186582E+001, 0.00000000E+000
424, 2.61416308E+001, 0.00000000E+000
425, 2.90858179E+001, 0.00000000E+000
426, 3.23905566E+001, 0.00000000E+000
427, 2.01409275E+001, 0.00000000E+000
428, 2.23502566E+001, 0.00000000E+000
429, 2.48301445E+001, 0.00000000E+000
430, 2.76137244E+001, 0.00000000E+000
431, 3.07381872E+001, 0.00000000E+000
432, 3.42452783E+001, 0.00000000E+000
433, 3.61000000E+001, -4.37500000E+000
434, 3.61000000E+001, -8.75000000E+000
435, 3.61000000E+001, -1.31250000E+001
436, 3.61000000E+001, -1.75000000E+001
437, 3.61000000E+001, -2.18750000E+001
438, 3.61000000E+001, -2.62500000E+001
439, 3.61000000E+001, -3.06250000E+001
440, 3.61000000E+001, -2.18750000E+000
441, 3.61000000E+001, -6.56250000E+000
442, 3.61000000E+001, -1.09375000E+001
443, 3.61000000E+001, -1.53125000E+001
444, 3.61000000E+001, -1.96875000E+001
445, 3.61000000E+001, -2.40625000E+001
446, 3.61000000E+001, -2.84375000E+001
447, 3.61000000E+001, -3.28125000E+001
448, 3.11000000E+001, -3.50000000E+001
449, 2.61000000E+001, -3.50000000E+001
450, 2.11000000E+001, -3.50000000E+001
451, 3.36000000E+001, -3.50000000E+001
452, 2.86000000E+001, -3.50000000E+001
453, 2.36000000E+001, -3.50000000E+001
454, 1.86000000E+001, -3.50000000E+001
455, 1.61000000E+001, -3.07141119E+001
456, 1.61000000E+001, -2.67152364E+001
457, 1.61000000E+001, -2.29841534E+001
458, 1.61000000E+001, -1.95029305E+001
459, 1.61000000E+001, -1.62548345E+001
460, 1.61000000E+001, -1.32242538E+001
461, 1.61000000E+001, -1.03966220E+001
462, 1.61000000E+001, -7.75834822E+000
463, 1.61000000E+001, -5.29675083E+000
464, 1.61000000E+001, -3.28570559E+001
465, 1.61000000E+001, -2.87146741E+001
466, 1.61000000E+001, -2.48496949E+001
467, 1.61000000E+001, -2.12435419E+001
468, 1.61000000E+001, -1.78788825E+001
469, 1.61000000E+001, -1.47395442E+001
470, 1.61000000E+001, -1.18104379E+001
471, 1.61000000E+001, -9.07748509E+000
472, 1.61000000E+001, -6.52754953E+000
473, 1.61000000E+001, -4.14837542E+000
474, 1.69786797E+001, -8.78679656E-001
475, 1.63283614E+001, -1.85194970E+000
476, 1.79519497E+001, -2.28361402E-001
477, 1.29401802E+001, 7.90430562E+000
478, 1.19827311E+001, 1.29093402E+001
479, 1.19063471E+001, 1.69901370E+001
480, 7.87620028E+000, 3.29975135E+000
481, 3.42451057E+000, 1.14310649E+001
482, 3.49120915E+000, 1.90614215E+001
483, 9.13063149E+000, 2.19801695E+001
484, 1.24888785E+001, 3.51248668E+000
485, 4.57860066E+000, 1.57989940E+001
486, 6.59461329E+000, 1.22845958E+001
487, 6.24735386E+000, 8.55599816E+000
488, 3.23944307E+000, 8.78614083E+000
489, 6.04511418E+000, 5.56694512E+000
490, 8.78935584E+000, 8.21992044E+000
491, 9.70448370E+000, 1.06517345E+001
492, 9.50760584E+000, 1.50414939E+001
493, 7.74636567E+000, 1.76250845E+001
494, 3.23438028E+000, 5.26353356E+000
495, 1.23061398E+001, 2.03546979E+001
496, 1.30337056E+001, 1.54089850E+001
497, 1.27475496E+001, 1.01224250E+001
498, 5.65210487E+000, 2.27938649E+001
499, 1.28058823E+001, 5.74455841E+000
500, 1.06146740E+001, 5.64027698E+000
501, 1.04220483E+001, 1.92598095E+001
502, 6.48177552E+000, 2.05397975E+001
503, 1.01627658E+001, 3.34230706E+000
504, 1.19430853E+001, 2.26418135E+001
505, 6.14212656E+000, 3.43265982E+000
506, 8.37848518E+000, 5.70362724E+000
507, 3.30939091E+000, 2.24701855E+001
508, 1.09091888E+001, 7.89443742E+000
509, 1.11662308E+001, 9.59293449E+000
510, 6.16248316E+000, 1.67120392E+001
511, 7.11407059E+000, 1.90824410E+001
512, 4.98649234E+000, 1.98006095E+001
513, 4.03490491E+000, 1.74302077E+001
514, 1.11641977E+001, 1.81249732E+001
515, 9.08420698E+000, 1.84424470E+001
516, 8.62698575E+000, 1.63332892E+001
517, 1.07069765E+001, 1.60158154E+001
518, 3.23691168E+000, 7.02483720E+000
519, 1.61972154E+000, 9.06023708E+000
520, 1.61719014E+000, 5.21560011E+000
521, 7.21179968E+000, 5.63528618E+000
522, 6.09362037E+000, 4.49980247E+000
523, 7.00916342E+000, 3.36620558E+000
524, 8.12734273E+000, 4.50168930E+000
525, 1.25082184E+001, 1.41591626E+001
526, 1.24700263E+001, 1.61995610E+001
527, 1.07451685E+001, 1.39754170E+001
528, 8.05110956E+000, 1.36630448E+001
529, 8.14954849E+000, 1.14681651E+001
530, 1.08436074E+001, 1.17805373E+001
531, 5.58660698E+000, 1.40417949E+001
532, 2.28930033E+000, 1.46499970E+001
533, 1.71225529E+000, 1.24660325E+001
534, 5.00956193E+000, 1.18578304E+001
535, 3.33197682E+000, 1.01086029E+001
536, 6.42098358E+000, 1.04202970E+001
537, 7.51835485E+000, 8.38795930E+000
538, 9.24691977E+000, 9.43582748E+000
539, 1.19246845E+001, 7.89937152E+000
540, 1.07619314E+001, 6.76735720E+000
541, 1.17102781E+001, 5.69241769E+000
542, 1.28730313E+001, 6.82443201E+000
543, 1.28438649E+001, 9.01336533E+000
544, 1.19568902E+001, 9.85767977E+000
545, 1.10377098E+001, 8.74368595E+000
546, 4.74339847E+000, 8.67106950E+000
547, 4.63974723E+000, 5.41523934E+000
548, 6.14623402E+000, 7.06147164E+000
549, 1.74560457E+000, 1.83645441E+001
550, 8.58392051E+000, 6.96177384E+000
551, 1.37444392E+001, 3.75674334E+000
552, 1.22444392E+001, 2.25674334E+000
553, 6.57605244E+000, 2.43974325E+001
554, 6.06694020E+000, 2.16668312E+001
555, 7.80620351E+000, 2.12599835E+001
556, 8.31531575E+000, 2.39905847E+001
557, 1.13258221E+001, 3.42739687E+000
558, 9.94614006E+000, 2.17165353E+000
559, 3.52643291E+000, 3.13226678E+000
560, 4.98030605E+000, 2.21682991E+000
561, 1.34531735E+001, 1.79952898E+001
562, 1.40168528E+001, 1.56693117E+001
563, 9.49657958E+000, 5.67195211E+000
564, 9.84927232E+000, 8.05717893E+000
565, 1.34913656E+001, 1.30115194E+001
566, 1.39029411E+001, 5.86836453E+000
567, 1.26473804E+001, 4.62852255E+000
568, 1.23651404E+001, 1.15158826E+001
569, 1.38737748E+001, 1.03269477E+001
570, 1.36530699E+001, 1.96775702E+001
571, 1.13640940E+001, 1.98072537E+001
572, 1.39700901E+001, 8.03393132E+000
573, 1.65469545E+000, 2.21522594E+001
574, 3.52969545E+000, 2.42355927E+001
575, 1.15965426E+001, 2.43214068E+001
576, 1.34715426E+001, 2.24954957E+001
577, 1.21246125E+001, 2.14982557E+001
578, 1.05368584E+001, 2.23109915E+001
579, 9.77633989E+000, 2.06199895E+001
580, 1.04353572E+001, 1.01223345E+001
581, 9.01948304E+000, 3.32102920E+000
582, 1.03887199E+001, 4.49129202E+000
583, 3.40030003E+000, 2.07658035E+001
584, 7.45281865E+000, 2.15037568E+000
585, 4.48074789E+000, 2.26320252E+001
586, 4.51250000E-001, 2.50000000E-001
587, 4.51250000E-001, 5.00000000E-001
588, 4.51250000E-001, 7.50000000E-001
589, 9.02500000E-001, 2.50000000E-001
590, 9.02500000E-001, 5.00000000E-001
591, 9.02500000E-001, 7.50000000E-001
592, 1.35375000E+000, 2.50000000E-001
593, 1.35375000E+000, 5.00000000E-001
594, 1.35375000E+000, 7.50000000E-001
595, 1.80500000E+000, 2.50000000E-001
596, 1.80500000E+000, 5.00000000E-001
597, 1.80500000E+000, 7.50000000E-001
598, 2.25625000E+000, 2.50000000E-001
599, 2.25625000E+000, 5.00000000E-001
600, 2.25625000E+000, 7.50000000E-001
601, 2.70750000E+000, 2.50000000E-001
602, 2.70750000E+000, 5.00000000E-001
603, 2.70750000E+000, 7.50000000E-001
604, 3.15875000E+000, 2.50000000E-001
605, 3.15875000E+000, 5.00000000E-001
606, 3.15875000E+000, 7.50000000E-001
607, 3.61000000E+000, 2.50000000E-001
608, 3.61000000E+000, 5.00000000E-001
609, 3.61000000E+000, 7.50000000E-001
610, 4.06125000E+000, 2.50000000E-001
611, 4.06125000E+000, 5.00000000E-001
612, 4.06125000E+000, 7.50000000E-001
613, 4.51250000E+000, 2.50000000E-001
614, 4.51250000E+000, 5.00000000E-001
615, 4.51250000E+000, 7.50000000E-001
616, 4.96375000E+000, 2.50000000E-001
617, 4.96375000E+000, 5.00000000E-001
618, 4.96375000E+000, 7.50000000E-001
619, 5.41500000E+000, 2.50000000E-001
620, 5.41500000E+000, 5.00000000E-001
621, 5.41500000E+000, 7.50000000E-001
622, 5.86625000E+000, 2.50000000E-001
623, 5.86625000E+000, 5.00000000E-001
624, 5.86625000E+000, 7.50000000E-001
625, 6.31750000E+000, 2.50000000E-001
626, 6.31750000E+000, 5.00000000E-001
627, 6.31750000E+000, 7.50000000E-001
628, 6.76875000E+000, 2.50000000E-001
629, 6.76875000E+000, 5.00000000E-001
630, 6.76875000E+000, 7.50000000E-001
631, 7.22000000E+000, 2.50000000E-001
632, 7.22000000E+000, 5.00000000E-001
633, 7.22000000E+000, 7.50000000E-001
634, 7.67125000E+000, 2.50000000E-001
635, 7.67125000E+000, 5.00000000E-001
636, 7.67125000E+000, 7.50000000E-001
637, 8.12250000E+000, 2.50000000E-001
638, 8.12250000E+000, 5.00000000E-001
639, 8.12250000E+000, 7.50000000E-001
640, 8.57375000E+000, 2.50000000E-001
641, 8.57375000E+000, 5.00000000E-001
642, 8.57375000E+000, 7.50000000E-001
643, 9.02500000E+000, 2.50000000E-001
644, 9.02500000E+000, 5.00000000E-001
645, 9.02500000E+000, 7.50000000E-001
646, 9.47625000E+000, 2.50000000E-001
647, 9.47625000E+000, 5.00000000E-001
648, 9.47625000E+000, 7.50000000E-001
649, 9.92750000E+000, 2.50000000E-001
650, 9.92750000E+000, 5.00000000E-001
651, 9.92750000E+000, 7.50000000E-001
652, 1.03787500E+001, 2.50000000E-001
653, 1.03787500E+001, 5.00000000E-001
654, 1.03787500E+001, 7.50000000E-001
655, 1.08300000E+001, 2.50000000E-001
656, 1.08300000E+001, 5.00000000E-001
657, 1.08300000E+001, 7.50000000E-001
658, 1.12812500E+001, 2.50000000E-001
659, 1.12812500E+001, 5.00000000E-001
660, 1.12812500E+001, 7.50000000E-001
661, 1.17325000E+001, 2.50000000E-001
662, 1.17325000E+001, 5.00000000E-001
663, 1.17325000E+001, 7.50000000E-001
664, 1.21837500E+001, 2.50000000E-001
665, 1.21837500E+001, 5.00000000E-001
666, 1.21837500E+001, 7.50000000E-001
667, 1.26350000E+001, 2.50000000E-001
668, 1.26350000E+001, 5.00000000E-001
669, 1.26350000E+001, 7.50000000E-001
670, 1.30862500E+001, 2.50000000E-001
671, 1.30862500E+001, 5.00000000E-001
672, 1.30862500E+001, 7.50000000E-001
673, 1.35375000E+001, 2.50000000E-001
674, 1.35375000E+001, 5.00000000E-001
675, 1.35375000E+001, 7.50000000E-001
676, 1.39887500E+001, 2.50000000E-001
677, 1.39887500E+001, 5.00000000E-001
678, 1.39887500E+001, 7.50000000E-001
679, 1.44400000E+001, 2.50000000E-001
680, 1.44400000E+001, 5.00000000E-001
681, 1.44400000E+001, 7.50000000E-001
682, 1.48912500E+001, 2.50000000E-001
683, 1.48912500E+001, 5.00000000E-001
684, 1.48912500E+001, 7.50000000E-001
685, 1.53425000E+001, 2.50000000E-001
686, 1.53425000E+001, 5.00000000E-001
687, 1.53425000E+001, 7.50000000E-001
688, 1.57937500E+001, 2.50000000E-001
689, 1.57937500E+001, 5.00000000E-001
690, 1.57937500E+001, 7.50000000E-001
691, 1.62450000E+001, 2.50000000E-001
692, 1.62450000E+001, 5.00000000E-001
693, 1.62450000E+001, 7.50000000E-001
694, 1.66962500E+001, 2.50000000E-001
695, 1.66962500E+001, 5.00000000E-001
696, 1.66962500E+001, 7.50000000E-001
697, 1.71475000E+001, 2.50000000E-001
698, 1.71475000E+001, 5.00000000E-001
699, 1.71475000E+001, 7.50000000E-001
700, 1.75987500E+001, 2.50000000E-001
701, 1.75987500E+001, 5.00000000E-001
702, 1.75987500E+001, 7.50000000E-001
703, 1.80500000E+001, 2.50000000E-001
704, 1.80500000E+001, 5.00000000E-001
705, 1.80500000E+001, 7.50000000E-001
706, 1.85012500E+001, 2.50000000E-001
707, 1.85012500E+001, 5.00000000E-001
708, 1.85012500E+001, 7.50000000E-001
709, 1.89525000E+001, 2.50000000E-001
710, 1.89525000E+001, 5.00000000E-001
711, 1.89525000E+001, 7.50000000E-001
712, 1.94037500E+001, 2.50000000E-001
713, 1.94037500E+001, 5.00000000E-001
714, 1.94037500E+001, 7.50000000E-001
715, 1.98550000E+001, 2.50000000E-001
716, 1.98550000E+001, 5.00000000E-001
717, 1.98550000E+001, 7.50000000E-001
718, 2.03062500E+001, 2.50000000E-001
719, 2.03062500E+001, 5.00000000E-001
720, 2.03062500E+001, 7.50000000E-001
721, 2.07575000E+001, 2.50000000E-001
722, 2.07575000E+001, 5.00000000E-001
723, 2.07575000E+001, 7.50000000E-001
724, 2.12087500E+001, 2.50000000E-001
725, 2.12087500E+001, 5.00000000E-001
726, 2.12087500E+001, 7.50000000E-001
727, 2.16600000E+001, 2.50000000E-001
728, 2.16600000E+001, 5.00000000E-001
729, 2.16600000E+001, 7.50000000E-001
730, 2.21112500E+001, 2.50000000E-001
731, 2.21112500E+001, 5.00000000E-001
732, 2.21112500E+001, 7.50000000E-001
733, 2.25625000E+001, 2.50000000E-001
734, 2.25625000E+001, 5.00000000E-001
735, 2.25625000E+001, 7.50000000E-001
736, 2.30137500E+001, 2.50000000E-001
737, 2.30137500E+001, 5.00000000E-001
738, 2.30137500E+001, 7.50000000E-001
739, 2.34650000E+001, 2.50000000E-001
740, 2.34650000E+001, 5.00000000E-001
741, 2.34650000E+001, 7.50000000E-001
742, 2.39162500E+001, 2.50000000E-001
743, 2.39162500E+001, 5.00000000E-001
744, 2.39162500E+001, 7.50000000E-001
745, 2.43675000E+001, 2.50000000E-001
746, 2.43675000E+001, 5.00000000E-001
747, 2.43675000E+001, 7.50000000E-001
748, 2.48187500E+001, 2.50000000E-001
749, 2.48187500E+001, 5.00000000E-001
750, 2.48187500E+001, 7.50000000E-001
751, 2.52700000E+001, 2.50000000E-001
752, 2.52700000E+001, 5.00000000E-001
753, 2.52700000E+001, 7.50000000E-001
754, 2.57212500E+001, 2.50000000E-001
755, 2.57212500E+001, 5.00000000E-001
756, 2.57212500E+001, 7.50000000E-001
757, 2.61725000E+001, 2.50000000E-001
758, 2.61725000E+001, 5.00000000E-001
759, 2.61725000E+001, 7.50000000E-001
760, 2.66237500E+001, 2.50000000E-001
761, 2.66237500E+001, 5.00000000E-001
762, 2.66237500E+001, 7.50000000E-001
763, 2.70750000E+001, 2.50000000E-001
764, 2.70750000E+001, 5.00000000E-001
765, 2.70750000E+001, 7.50000000E-001
766, 2.75262500E+001, 2.50000000E-001
767, 2.75262500E+001, 5.00000000E-001
768, 2.75262500E+001, 7.50000000E-001
769, 2.79775000E+001, 2.50000000E-001
770, 2.79775000E+001, 5.00000000E-001
771, 2.79775000E+001, 7.50000000E-001
772, 2.84287500E+001, 2.50000000E-001
773, 2.84287500E+001, 5.00000000E-001
774, 2.84287500E+001, 7.50000000E-001
775, 2.88800000E+001, 2.50000000E-001
776, 2.88800000E+001, 5.00000000E-001
777, 2.88800000E+001, 7.50000000E-001
778, 2.93312500E+001, 2.50000000E-001
779, 2.93312500E+001, 5.00000000E-001
780, 2.93312500E+001, 7.50000000E-001
781, 2.97825000E+001, 2.50000000E-001
782, 2.97825000E+001, 5.00000000E-001
783, 2.97825000E+001, 7.50000000E-001
784, 3.02337500E+001, 2.50000000E-001
785, 3.02337500E+001, 5.00000000E-001
786, 3.02337500E+001, 7.50000000E-001
787, 3.06850000E+001, 2.50000000E-001
788, 3.06850000E+001, 5.00000000E-001
789, 3.06850000E+001, 7.50000000E-001
790, 3.11362500E+001, 2.50000000E-001
791, 3.11362500E+001, 5.00000000E-001
792, 3.11362500E+001, 7.50000000E-001
793, 3.15875000E+001, 2.50000000E-001
794, 3.15875000E+001, 5.00000000E-001
795, 3.15875000E+001, 7.50000000E-001
796, 3.20387500E+001, 2.50000000E-001
797, 3.20387500E+001, 5.00000000E-001
798, 3.20387500E+001, 7.50000000E-001
799, 3.24900000E+001, 2.50000000E-001
800, 3.24900000E+001, 5.00000000E-001
801, 3.24900000E+001, 7.50000000E-001
802, 3.29412500E+001, 2.50000000E-001
803, 3.29412500E+001, 5.00000000E-001
804, 3.29412500E+001, 7.50000000E-001
805, 3.33925000E+001, 2.50000000E-001
806, 3.33925000E+001, 5.00000000E-001
807, 3.33925000E+001, 7.50000000E-001
808, 3.38437500E+001, 2.50000000E-001
809, 3.38437500E+001, 5.00000000E-001
810, 3.38437500E+001, 7.50000000E-001
811, 3.42950000E+001, 2.50000000E-001
812, 3.42950000E+001, 5.00000000E-001
813, 3.42950000E+001, 7.50000000E-001
814, 3.47462500E+001, 2.50000000E-001
815, 3.47462500E+001, 5.00000000E-001
816, 3.47462500E+001, 7.50000000E-001
817, 3.51975000E+001, 2.50000000E-001
818, 3.51975000E+001, 5.00000000E-001
819, 3.51975000E+001, 7.50000000E-001
820, 3.56487500E+001, 2.50000000E-001
821, 3.56487500E+001, 5.00000000E-001
822, 3.56487500E+001, 7.50000000E-001
823, 4.51250000E-001, 1.25000000E-001
824, 2.25625000E-001, 2.50000000E-001
825, 4.51250000E-001, 3.75000000E-001
826, 2.25625000E-001, 5.00000000E-001
827, 4.51250000E-001, 6.25000000E-001
828, 2.25625000E-001, 7.50000000E-001
829, 4.51250000E-001, 8.75000000E-001
830, 9.02500000E-001, 1.25000000E-001
831, 6.76875000E-001, 2.50000000E-001
832, 9.02500000E-001, 3.75000000E-001
833, 6.76875000E-001, 5.00000000E-001
834, 9.02500000E-001, 6.25000000E-001
835, 6.76875000E-001, 7.50000000E-001
836, 9.02500000E-001, 8.75000000E-001
837, 1.35375000E+000, 1.25000000E-001
838, 1.12812500E+000, 2.50000000E-001
839, 1.35375000E+000, 3.75000000E-001
840, 1.12812500E+000, 5.00000000E-001
841, 1.35375000E+000, 6.25000000E-001
842, 1.12812500E+000, 7.50000000E-001
843, 1.35375000E+000, 8.75000000E-001
844, 1.80500000E+000, 1.25000000E-001
845, 1.57937500E+000, 2.50000000E-001
846, 1.80500000E+000, 3.75000000E-001
847, 1.57937500E+000, 5.00000000E-001
848, 1.80500000E+000, 6.25000000E-001
849, 1.57937500E+000, 7.50000000E-001
850, 1.80500000E+000, 8.75000000E-001
851, 2.25625000E+000, 1.25000000E-001
852, 2.03062500E+000, 2.50000000E-001
853, 2.25625000E+000, 3.75000000E-001
854, 2.03062500E+000, 5.00000000E-001
855, 2.25625000E+000, 6.25000000E-001
856, 2.03062500E+000, 7.50000000E-001
857, 2.25625000E+000, 8.75000000E-001
858, 2.70750000E+000, 1.25000000E-001
859, 2.48187500E+000, 2.50000000E-001
860, 2.70750000E+000, 3.75000000E-001
861, 2.48187500E+000, 5.00000000E-001
862, 2.70750000E+000, 6.25000000E-001
863, 2.48187500E+000, 7.50000000E-001
864, 2.70750000E+000, 8.75000000E-001
865, 3.15875000E+000, 1.25000000E-001
866, 2.93312500E+000, 2.50000000E-001
867, 3.15875000E+000, 3.75000000E-001
868, 2.93312500E+000, 5.00000000E-001
869, 3.15875000E+000, 6.25000000E-001
870, 2.93312500E+000, 7.50000000E-001
871, 3.15875000E+000, 8.75000000E-001
872, 3.61000000E+000, 1.25000000E-001
873, 3.38437500E+000, 2.50000000E-001
874, 3.61000000E+000, 3.75000000E-001
875, 3.38437500E+000, 5.00000000E-001
876, 3.61000000E+000, 6.25000000E-001
877, 3.38437500E+000, 7.50000000E-001
878, 3.61000000E+000, 8.75000000E-001
879, 4.06125000E+000, 1.25000000E-001
880, 3.83562500E+000, 2.50000000E-001
881, 4.06125000E+000, 3.75000000E-001
882, 3.83562500E+000, 5.00000000E-001
883, 4.06125000E+000, 6.25000000E-001
884, 3.83562500E+000, 7.50000000E-001
885, 4.06125000E+000, 8.75000000E-001
886, 4.51250000E+000, 1.25000000E-001
887, 4.28687500E+000, 2.50000000E-001
888, 4.51250000E+000, 3.75000000E-001
889, 4.28687500E+000, 5.00000000E-001
890, 4.51250000E+000, 6.25000000E-001
891, 4.28687500E+000, 7.50000000E-001
892, 4.51250000E+000, 8.75000000E-001
893, 4.96375000E+000, 1.25000000E-001
894, 4.73812500E+000, 2.50000000E-001
895, 4.96375000E+000, 3.75000000E-001
896, 4.73812500E+000, 5.00000000E-001
897, 4.96375000E+000, 6.25000000E-001
898, 4.73812500E+000, 7.50000000E-001
899, 4.96375000E+000, 8.75000000E-001
900, 5.41500000E+000, 1.25000000E-001
901, 5.18937500E+000, 2.50000000E-001
902, 5.41500000E+000, 3.75000000E-001
903, 5.18937500E+000, 5.00000000E-001
904, 5.41500000E+000, 6.25000000E-001
905, 5.18937500E+000, 7.50000000E-001
906, 5.41500000E+000, 8.75000000E-001
907, 5.86625000E+000, 1.25000000E-001
908, 5.64062500E+000, 2.50000000E-001
909, 5.86625000E+000, 3.75000000E-001
910, 5.64062500E+000, 5.00000000E-001
911, 5.86625000E+000, 6.25000000E-001
912, 5.64062500E+000, 7.50000000E-001
913, 5.86625000E+000, 8.75000000E-001
914, 6.31750000E+000, 1.25000000E-001
915, 6.09187500E+000, 2.50000000E-001
916, 6.31750000E+000, 3.75000000E-001
917, 6.09187500E+000, 5.00000000E-001
918, 6.31750000E+000, 6.25000000E-001
919, 6.09187500E+000, 7.50000000E-001
920, 6.31750000E+000, 8.75000000E-001
921, 6.76875000E+000, 1.25000000E-001
922, 6.54312500E+000, 2.50000000E-001
923, 6.76875000E+000, 3.75000000E-001
924, 6.54312500E+000, 5.00000000E-001
925, 6.76875000E+000, 6.25000000E-001
926, 6.54312500E+000, 7.50000000E-001
927, 6.76875000E+000, 8.75000000E-001
928, 7.22000000E+000, 1.25000000E-001
929, 6.99437500E+000, 2.50000000E-001
930, 7.22000000E+000, 3.75000000E-001
931, 6.99437500E+000, 5.00000000E-001
932, 7.22000000E+000, 6.25000000E-001
933, 6.99437500E+000, 7.50000000E-001
934, 7.22000000E+000, 8.75000000E-001
935, 7.67125000E+000, 1.25000000E-001
936, 7.44562500E+000, 2.50000000E-001
937, 7.67125000E+000, 3.75000000E-001
938, 7.44562500E+000, 5.00000000E-001
939, 7.67125000E+000, 6.25000000E-001
940, 7.44562500E+000, 7.50000000E-001
941, 7.67125000E+000, 8.75000000E-001
942, 8.12250000E+000, 1.25000000E-001
943, 7.89687500E+000, 2.50000000E-001
944, 8.12250000E+000, 3.75000000E-001
945, 7.89687500E+000, 5.00000000E-001
946, 8.12250000E+000, 6.25000000E-001
947, 7.89687500E+000, 7.50000000E-001
948, 8.12250000E+000, 8.75000000E-001
949, 8.57375000E+000, 1.25000000E-001
950, 8.34812500E+000, 2.50000000E-001
951, 8.57375000E+000, 3.75000000E-001
952, 8.34812500E+000, 5.00000000E-001
953, 8.57375000E+000, 6.25000000E-001
954, 8.34812500E+000, 7.50000000E-001
955, 8.57375000E+000, 8.75000000E-001
956, 9.02500000E+000, 1.25000000E-001
957, 8.79937500E+000, 2.50000000E-001
958, 9.02500000E+000, 3.75000000E-001
959, 8.79937500E+000, 5.00000000E-001
960, 9.02500000E+000, 6.25000000E-001
961, 8.79937500E+000, 7.50000000E-001
962, 9.02500000E+000, 8.75000000E-001
963, 9.47625000E+000, 1.25000000E-001
964, 9.25062500E+000, 2.50000000E-001
965, 9.47625000E+000, 3.75000000E-001
966, 9.25062500E+000, 5.00000000E-001
967, 9.47625000E+000, 6.25000000E-001
968, 9.25062500E+000, 7.50000000E-001
969, 9.47625000E+000, 8.75000000E-001
970, 9.92750000E+000, 1.25000000E-001
971, 9.70187500E+000, 2.50000000E-001
972, 9.92750000E+000, 3.75000000E-001
973, 9.70187500E+000, 5.00000000E-001
974, 9.92750000E+000, 6.25000000E-001
975, 9.70187500E+000, 7.50000000E-001
976, 9.92750000E+000, 8.75000000E-001
977, 1.03787500E+001, 1.25000000E-001
978, 1.01531250E+001, 2.50000000E-001
979, 1.03787500E+001, 3.75000000E-001
980, 1.01531250E+001, 5.00000000E-001
981, 1.03787500E+001, 6.25000000E-001
982, 1.01531250E+001, 7.50000000E-001
983, 1.03787500E+001, 8.75000000E-001
984, 1.08300000E+001, 1.25000000E-001
985, 1.06043750E+001, 2.50000000E-001
986, 1.08300000E+001, 3.75000000E-001
987, 1.06043750E+001, 5.00000000E-001
988, 1.08300000E+001, 6.25000000E-001
989, 1.06043750E+001, 7.50000000E-001
990, 1.08300000E+001, 8.75000000E-001
991, 1.12812500E+001, 1.25000000E-001
992, 1.10556250E+001, 2.50000000E-001
993, 1.12812500E+001, 3.75000000E-001
994, 1.10556250E+001, 5.00000000E-001
995, 1.12812500E+001, 6.25000000E-001
996, 1.10556250E+001, 7.50000000E-001
997, 1.12812500E+001, 8.75000000E-001
998, 1.17325000E+001, 1.25000000E-001
999, 1.15068750E+001, 2.50000000E-001
1000, 1.17325000E+001, 3.75000000E-001
1001, 1.15068750E+001, 5.00000000E-001
1002, 1.17325000E+001, 6.25000000E-001
1003, 1.15068750E+001, 7.50000000E-001
1004, 1.17325000E+001, 8.75000000E-001
1005, 1.21837500E+001, 1.25000000E-001
1006, 1.19581250E+001, 2.50000000E-001
1007, 1.21837500E+001, 3.75000000E-001
1008, 1.19581250E+001, 5.00000000E-001
1009, 1.21837500E+001, 6.25000000E-001
1010, 1.19581250E+001, 7.50000000E-001
1011, 1.21837500E+001, 8.75000000E-001
1012, 1.26350000E+001, 1.25000000E-001
1013, 1.24093750E+001, 2.50000000E-001
1014, 1.26350000E+001, 3.75000000E-001
1015, 1.24093750E+001, 5.00000000E-001
1016, 1.26350000E+001, 6.25000000E-001
1017, 1.24093750E+001, 7.50000000E-001
1018, 1.26350000E+001, 8.75000000E-001
1019, 1.30862500E+001, 1.25000000E-001
1020, 1.28606250E+001, 2.50000000E-001
1021, 1.30862500E+001, 3.75000000E-001
1022, 1.28606250E+001, 5.00000000E-001
1023, 1.30862500E+001, 6.25000000E-001
1024, 1.28606250E+001, 7.50000000E-001
1025, 1.30862500E+001, 8.75000000E-001
1026, 1.35375000E+001, 1.25000000E-001
1027, 1.33118750E+001, 2.50000000E-001
1028, 1.35375000E+001, 3.75000000E-001
1029, 1.33118750E+001, 5.00000000E-001
1030, 1.35375000E+001, 6.25000000E-001
1031, 1.33118750E+001, 7.50000000E-001
1032, 1.35375000E+001, 8.75000000E-001
1033, 1.39887500E+001, 1.25000000E-001
1034, 1.37631250E+001, 2.50000000E-001
1035, 1.39887500E+001, 3.75000000E-001
1036, 1.37631250E+001, 5.00000000E-001
1037, 1.39887500E+001, 6.25000000E-001
1038, 1.37631250E+001, 7.50000000E-001
1039, 1.39887500E+001, 8.75000000E-001
1040, 1.44400000E+001, 1.25000000E-001
1041, 1.42143750E+001, 2.50000000E-001
1042, 1.44400000E+001, 3.75000000E-001
1043, 1.42143750E+001, 5.00000000E-001
1044, 1.44400000E+001, 6.25000000E-001
1045, 1.42143750E+001, 7.50000000E-001
1046, 1.44400000E+001, 8.75000000E-001
1047, 1.48912500E+001, 1.25000000E-001
1048, 1.46656250E+001, 2.50000000E-001
1049, 1.48912500E+001, 3.75000000E-001
1050, 1.46656250E+001, 5.00000000E-001
1051, 1.48912500E+001, 6.25000000E-001
1052, 1.46656250E+001, 7.50000000E-001
1053, 1.48912500E+001, 8.75000000E-001
1054, 1.53425000E+001, 1.25000000E-001
1055, 1.51168750E+001, 2.50000000E-001
1056, 1.53425000E+001, 3.75000000E-001
1057, 1.51168750E+001, 5.00000000E-001
1058, 1.53425000E+001, 6.25000000E-001
1059, 1.51168750E+001, 7.50000000E-001
1060, 1.53425000E+001, 8.75000000E-001
1061, 1.57937500E+001, 1.25000000E-001
1062, 1.55681250E+001, 2.50000000E-001
1063, 1.57937500E+001, 3.75000000E-001
1064, 1.55681250E+001, 5.00000000E-001
1065, 1.57937500E+001, 6.25000000E-001
1066, 1.55681250E+001, 7.50000000E-001
1067, 1.57937500E+001, 8.75000000E-001
1068, 1.62450000E+001, 1.25000000E-001
1069, 1.60193750E+001, 2.50000000E-001
1070, 1.62450000E+001, 3.75000000E-001
1071, 1.60193750E+001, 5.00000000E-001
1072, 1.62450000E+001, 6.25000000E-001
1073, 1.60193750E+001, 7.50000000E-001
1074, 1.62450000E+001, 8.75000000E-001
1075, 1.66962500E+001, 1.25000000E-001
1076, 1.64706250E+001, 2.50000000E-001
1077, 1.66962500E+001, 3.75000000E-001
1078, 1.64706250E+001, 5.00000000E-001
1079, 1.66962500E+001, 6.25000000E-001
1080, 1.64706250E+001, 7.50000000E-001
1081, 1.66962500E+001, 8.75000000E-001
1082, 1.71475000E+001, 1.25000000E-001
1083, 1.69218750E+001, 2.50000000E-001
1084, 1.71475000E+001, 3.75000000E-001
1085, 1.69218750E+001, 5.00000000E-001
1086, 1.71475000E+001, 6.25000000E-001
1087, 1.69218750E+001, 7.50000000E-001
1088, 1.71475000E+001, 8.75000000E-001
1089, 1.75987500E+001, 1.25000000E-001
1090, 1.73731250E+001, 2.50000000E-001
1091, 1.75987500E+001, 3.75000000E-001
1092, 1.73731250E+001, 5.00000000E-001
1093, 1.75987500E+001, 6.25000000E-001
1094, 1.73731250E+001, 7.50000000E-001
1095, 1.75987500E+001, 8.75000000E-001
1096, 1.80500000E+001, 1.25000000E-001
1097, 1.78243750E+001, 2.50000000E-001
1098, 1.80500000E+001, 3.75000000E-001
1099, 1.78243750E+001, 5.00000000E-001
1100, 1.80500000E+001, 6.25000000E-001
1101, 1.78243750E+001, 7.50000000E-001
1102, 1.80500000E+001, 8.75000000E-001
1103, 1.85012500E+001, 1.25000000E-001
1104, 1.82756250E+001, 2.50000000E-001
1105, 1.85012500E+001, 3.75000000E-001
1106, 1.82756250E+001, 5.00000000E-001
1107, 1.85012500E+001, 6.25000000E-001
1108, 1.82756250E+001, 7.50000000E-001
1109, 1.85012500E+001, 8.75000000E-001
1110, 1.89525000E+001, 1.25000000E-001
1111, 1.87268750E+001, 2.50000000E-001
1112, 1.89525000E+001, 3.75000000E-001
1113, 1.87268750E+001, 5.00000000E-001
1114, 1.89525000E+001, 6.25000000E-001
1115, 1.87268750E+001, 7.50000000E-001
1116, 1.89525000E+001, 8.75000000E-001
1117, 1.94037500E+001, 1.25000000E-001
1118, 1.91781250E+001, 2.50000000E-001
1119, 1.94037500E+001, 3.75000000E-001
1120, 1.91781250E+001, 5.00000000E-001
1121, 1.94037500E+001, 6.25000000E-001
1122, 1.91781250E+001, 7.50000000E-001
1123, 1.94037500E+001, 8.75000000E-001
1124, 1.98550000E+001, 1.25000000E-001
1125, 1.96293750E+001, 2.50000000E-001
1126, 1.98550000E+001, 3.75000000E-001
1127, 1.96293750E+001, 5.00000000E-001
1128, 1.98550000E+001, 6.25000000E-001
1129, 1.96293750E+001, 7.50000000E-001
1130, 1.98550000E+001, 8.75000000E-001
1131, 2.03062500E+001, 1.25000000E-001
1132, 2.00806250E+001, 2.50000000E-001
1133, 2.03062500E+001, 3.75000000E-001
1134, 2.00806250E+001, 5.00000000E-001
1135, 2.03062500E+001, 6.25000000E-001
1136, 2.00806250E+001, 7.50000000E-001
1137, 2.03062500E+001, 8.75000000E-001
1138, 2.07575000E+001, 1.25000000E-001
1139, 2.05318750E+001, 2.50000000E-001
1140, 2.07575000E+001, 3.75000000E-001
1141, 2.05318750E+001, 5.00000000E-001
1142, 2.07575000E+001, 6.25000000E-001
1143, 2.05318750E+001, 7.50000000E-001
1144, 2.07575000E+001, 8.75000000E-001
1145, 2.12087500E+001, 1.25000000E-001
1146, 2.09831250E+001, 2.50000000E-001
1147, 2.12087500E+001, 3.75000000E-001
1148, 2.09831250E+001, 5.00000000E-001
1149, 2.12087500E+001, 6.25000000E-001
1150, 2.09831250E+001, 7.50000000E-001
1151, 2.12087500E+001, 8.75000000E-001
1152, 2.16600000E+001, 1.25000000E-001
1153, 2.14343750E+001, 2.50000000E-001
1154, 2.16600000E+001, 3.75000000E-001
1155, 2.14343750E+001, 5.00000000E-001
1156, 2.16600000E+001, 6.25000000E-001
1157, 2.14343750E+001, 7.50000000E-001
1158, 2.16600000E+001, 8.75000000E-001
1159, 2.21112500E+001, 1.25000000E-001
1160, 2.18856250E+001, 2.50000000E-001
1161, 2.21112500E+001, 3.75000000E-001
1162, 2.18856250E+001, 5.00000000E-001
1163, 2.21112500E+001, 6.25000000E-001
1164, 2.18856250E+001, 7.50000000E-001
1165, 2.21112500E+001, 8.75000000E-001
1166, 2.25625000E+001, 1.25000000E-001
1167, 2.23368750E+001, 2.50000000E-001
1168, 2.25625000E+001, 3.75000000E-001
1169, 2.23368750E+001, 5.00000000E-001
1170, 2.25625000E+001, 6.25000000E-001
1171, 2.23368750E+001, 7.50000000E-001
1172, 2.25625000E+001, 8.75000000E-001
1173, 2.30137500E+001, 1.25000000E-001
1174, 2.27881250E+001, 2.50000000E-001
1175, 2.30137500E+001, 3.75000000E-001
1176, 2.27881250E+001, 5.00000000E-001
1177, 2.30137500E+001, 6.25000000E-001
1178, 2.27881250E+001, 7.50000000E-001
1179, 2.30137500E+001, 8.75000000E-001
1180, 2.34650000E+001, 1.25000000E-001
1181, 2.32393750E+001, 2.50000000E-001
1182, 2.34650000E+001, 3.75000000E-001
1183, 2.32393750E+001, 5.00000000E-001
1184, 2.34650000E+001, 6.25000000E-001
1185, 2.32393750E+001, 7.50000000E-001
1186, 2.34650000E+001, 8.75000000E-001
1187, 2.39162500E+001, 1.25000000E-001
1188, 2.36906250E+001, 2.50000000E-001
1189, 2.39162500E+001, 3.75000000E-001
1190, 2.36906250E+001, 5.00000000E-001
1191, 2.39162500E+001, 6.25000000E-001
1192, 2.36906250E+001, 7.50000000E-001
1193, 2.39162500E+001, 8.75000000E-001
1194, 2.43675000E+001, 1.25000000E-001
1195, 2.41418750E+001, 2.50000000E-001
1196, 2.43675000E+001, 3.75000000E-001
1197, 2.41418750E+001, 5.00000000E-001
1198, 2.43675000E+001, 6.25000000E-001
1199, 2.41418750E+001, 7.50000000E-001
1200, 2.43675000E+001, 8.75000000E-001
1201, 2.48187500E+001, 1.25000000E-001
1202, 2.45931250E+001, 2.50000000E-001
1203, 2.48187500E+001, 3.75000000E-001
1204, 2.45931250E+001, 5.00000000E-001
1205, 2.48187500E+001, 6.25000000E-001
1206, 2.45931250E+001, 7.50000000E-001
1207, 2.48187500E+001, 8.75000000E-001
1208, 2.52700000E+001, 1.25000000E-001
1209, 2.50443750E+001, 2.50000000E-001
1210, 2.52700000E+001, 3.75000000E-001
1211, 2.50443750E+001, 5.00000000E-001
1212, 2.52700000E+001, 6.25000000E-001
1213, 2.50443750E+001, 7.50000000E-001
1214, 2.52700000E+001, 8.75000000E-001
1215, 2.57212500E+001, 1.25000000E-001
1216, 2.54956250E+001, 2.50000000E-001
1217, 2.57212500E+001, 3.75000000E-001
1218, 2.54956250E+001, 5.00000000E-001
1219, 2.57212500E+001, 6.25000000E-001
1220, 2.54956250E+001, 7.50000000E-001
1221, 2.57212500E+001, 8.75000000E-001
1222, 2.61725000E+001, 1.25000000E-001
1223, 2.59468750E+001, 2.50000000E-001
1224, 2.61725000E+001, 3.75000000E-001
1225, 2.59468750E+001, 5.00000000E-001
1226, 2.61725000E+001, 6.25000000E-001
1227, 2.59468750E+001, 7.50000000E-001
1228, 2.61725000E+001, 8.75000000E-001
1229, 2.66237500E+001, 1.25000000E-001
1230, 2.63981250E+001, 2.50000000E-001
1231, 2.66237500E+001, 3.75000000E-001
1232, 2.63981250E+001, 5.00000000E-001
1233, 2.66237500E+001, 6.25000000E-001
1234, 2.63981250E+001, 7.50000000E-001
1235, 2.66237500E+001, 8.75000000E-001
1236, 2.70750000E+001, 1.25000000E-001
1237, 2.68493750E+001, 2.50000000E-001
1238, 2.70750000E+001, 3.75000000E-001
1239, 2.68493750E+001, 5.00000000E-001
1240, 2.70750000E+001, 6.25000000E-001
1241, 2.68493750E+001, 7.50000000E-001
1242, 2.70750000E+001, 8.75000000E-001
1243, 2.75262500E+001, 1.25000000E-001
1244, 2.73006250E+001, 2.50000000E-001
1245, 2.75262500E+001, 3.75000000E-001
1246, 2.73006250E+001, 5.00000000E-001
1247, 2.75262500E+001, 6.25000000E-001
1248, 2.73006250E+001, 7.50000000E-001
1249, 2.75262500E+001, 8.75000000E-001
1250, 2.79775000E+001, 1.25000000E-001
1251, 2.77518750E+001, 2.50000000E-001
1252, 2.79775000E+001, 3.75000000E-001
1253, 2.77518750E+001, 5.00000000E-001
1254, 2.79775000E+001, 6.25000000E-001
1255, 2.77518750E+001, 7.50000000E-001
1256, 2.79775000E+001, 8.75000000E-001
1257, 2.84287500E+001, 1.25000000E-001
1258, 2.82031250E+001, 2.50000000E-001
1259, 2.84287500E+001, 3.75000000E-001
1260, 2.82031250E+001, 5.00000000E-001
1261, 2.84287500E+001, 6.25000000E-001
1262, 2.82031250E+001, 7.50000000E-001
1263, 2.84287500E+001, 8.75000000E-001
1264, 2.88800000E+001, 1.25000000E-001
1265, 2.86543750E+001, 2.50000000E-001
1266, 2.88800000E+001, 3.75000000E-001
1267, 2.86543750E+001, 5.00000000E-001
1268, 2.88800000E+001, 6.25000000E-001
1269, 2.86543750E+001, 7.50000000E-001
1270, 2.88800000E+001, 8.75000000E-001
1271, 2.93312500E+001, 1.25000000E-001
1272, 2.91056250E+001, 2.50000000E-001
1273, 2.93312500E+001, 3.75000000E-001
1274, 2.91056250E+001, 5.00000000E-001
1275, 2.93312500E+001, 6.25000000E-001
1276, 2.91056250E+001, 7.50000000E-001
1277, 2.93312500E+001, 8.75000000E-001
1278, 2.97825000E+001, 1.25000000E-001
1279, 2.95568750E+001, 2.50000000E-001
1280, 2.97825000E+001, 3.75000000E-001
1281, 2.95568750E+001, 5.00000000E-001
1282, 2.97825000E+001, 6.25000000E-001
1283, 2.95568750E+001, 7.50000000E-001
1284, 2.97825000E+001, 8.75000000E-001
1285, 3.02337500E+001, 1.25000000E-001
1286, 3.00081250E+001, 2.50000000E-001
1287, 3.02337500E+001, 3.75000000E-001
1288, 3.00081250E+001, 5.00000000E-001
1289, 3.02337500E+001, 6.25000000E-001
1290, 3.00081250E+001, 7.50000000E-001
1291, 3.02337500E+001, 8.75000000E-001
1292, 3.06850000E+001, 1.25000000E-001
1293, 3.04593750E+001, 2.50000000E-001
1294, 3.06850000E+001, 3.75000000E-001
1295, 3.04593750E+001, 5.00000000E-001
1296, 3.06850000E+001, 6.25000000E-001
1297, 3.04593750E+001, 7.50000000E-001
1298, 3.06850000E+001, 8.75000000E-001
1299, 3.11362500E+001, 1.25000000E-001
1300, 3.09106250E+001, 2.50000000E-001
1301, 3.11362500E+001, 3.75000000E-001
1302, 3.09106250E+001, 5.00000000E-001
1303, 3.11362500E+001, 6.25000000E-001
1304, 3.09106250E+001, 7.50000000E-001
1305, 3.11362500E+001, 8.75000000E-001
1306, 3.15875000E+001, 1.25000000E-001
1307, 3.13618750E+001, 2.50000000E-001
1308, 3.15875000E+001, 3.75000000E-001
1309, 3.13618750E+001, 5.00000000E-001
1310, 3.15875000E+001, 6.25000000E-001
1311, 3.13618750E+001, 7.50000000E-001
1312, 3.15875000E+001, 8.75000000E-001
1313, 3.20387500E+001, 1.25000000E-001
1314, 3.18131250E+001, 2.50000000E-001
1315, 3.20387500E+001, 3.75000000E-001
1316, 3.18131250E+001, 5.00000000E-001
1317, 3.20387500E+001, 6.25000000E-001
1318, 3.18131250E+001, 7.50000000E-001
1319, 3.20387500E+001, 8.75000000E-001
1320, 3.24900000E+001, 1.25000000E-001
1321, 3.22643750E+001, 2.50000000E-001
1322, 3.24900000E+001, 3.75000000E-001
1323, 3.22643750E+001, 5.00000000E-001
1324, 3.24900000E+001, 6.25000000E-001
1325, 3.22643750E+001, 7.50000000E-001
1326, 3.24900000E+001, 8.75000000E-001
1327, 3.29412500E+001, 1.25000000E-001
1328, 3.27156250E+001, 2.50000000E-001
1329, 3.29412500E+001, 3.75000000E-001
1330, 3.27156250E+001, 5.00000000E-001
1331, 3.29412500E+001, 6.25000000E-001
1332, 3.27156250E+001, 7.50000000E-001
1333, 3.29412500E+001, 8.75000000E-001
1334, 3.33925000E+001, 1.25000000E-001
1335, 3.31668750E+001, 2.50000000E-001
1336, 3.33925000E+001, 3.75000000E-001
1337, 3.31668750E+001, 5.00000000E-001
1338, 3.33925000E+001, 6.25000000E-001
1339, 3.31668750E+001, 7.50000000E-001
1340, 3.33925000E+001, 8.75000000E-001
1341, 3.38437500E+001, 1.25000000E-001
1342, 3.36181250E+001, 2.50000000E-001
1343, 3.38437500E+001, 3.75000000E-001
1344, 3.36181250E+001, 5.00000000E-001
1345, 3.38437500E+001, 6.25000000E-001
1346, 3.36181250E+001, 7.50000000E-001
1347, 3.38437500E+001, 8.75000000E-001
1348, 3.42950000E+001, 1.25000000E-001
1349, 3.40693750E+001, 2.50000000E-001
1350, 3.42950000E+001, 3.75000000E-001
1351, 3.40693750E+001, 5.00000000E-001
1352, 3.42950000E+001, 6.25000000E-001
1353, 3.40693750E+001, 7.50000000E-001
1354, 3.42950000E+001, 8.75000000E-001
1355, 3.47462500E+001, 1.25000000E-001
1356, 3.45206250E+001, 2.50000000E-001
1357, 3.47462500E+001, 3.75000000E-001
1358, 3.45206250E+001, 5.00000000E-001
1359, 3.47462500E+001, 6.25000000E-001
1360, 3.45206250E+001, 7.50000000E-001
1361, 3.47462500E+001, 8.75000000E-001
1362, 3.51975000E+001, 1.25000000E-001
1363, 3.49718750E+001, 2.50000000E-001
1364, 3.51975000E+001, 3.75000000E-001
1365, 3.49718750E+001, 5.00000000E-001
1366, 3.51975000E+001, 6.25000000E-001
1367, 3.49718750E+001, 7.50000000E-001
1368, 3.51975000E+001, 8.75000000E-001
1369, 3.56487500E+001, 1.25000000E-001
1370, 3.54231250E+001, 2.50000000E-001
1371, 3.56487500E+001, 3.75000000E-001
1372, 3.54231250E+001, 5.00000000E-001
1373, 3.56487500E+001, 6.25000000E-001
1374, 3.54231250E+001, 7.50000000E-001
1375, 3.56487500E+001, 8.75000000E-001
1376, 3.58743750E+001, 2.50000000E-001
1377, 3.58743750E+001, 5.00000000E-001
1378, 3.58743750E+001, 7.50000000E-001
1379, 1.97087210E+001, 4.05844470E+000
1380, 1.83035718E+001, 5.74432216E+000
1381, 2.48584859E+001, 4.21434062E+000
1382, 2.25242093E+001, 3.76850139E+000
1383, 1.73791791E+001, 4.28349018E+000
1384, 2.91097660E+001, 4.73877415E+000
1385, 2.16504928E+001, 5.53751789E+000
1386, 2.41921968E+001, 6.05408888E+000
1387, 3.24349552E+001, 3.41084169E+000
1388, 3.21284333E+001, 6.58437461E+000
1389, 1.79277730E+001, 2.95500564E+000
1390, 2.76048830E+001, 6.86938708E+000
1391, 2.51460984E+001, 7.52704444E+000
1392, 2.45253414E+001, 5.13421475E+000
1393, 2.69841260E+001, 4.47655739E+000
1394, 1.78413755E+001, 5.01390617E+000
1395, 1.76534761E+001, 3.61924791E+000
1396, 1.88182470E+001, 3.50672517E+000
1397, 1.90061464E+001, 4.90138343E+000
1398, 3.06190996E+001, 5.66157438E+000
1399, 3.16142166E+001, 7.79218731E+000
1400, 1.82385071E+001, 1.97750282E+000
1401, 2.05035712E+001, 2.52922235E+000
1402, 3.42674776E+001, 4.20542084E+000
1403, 3.20854520E+001, 2.20542084E+000
1404, 2.84788935E+001, 2.86938708E+000
1405, 2.46213787E+001, 2.60717031E+000
1406, 2.36913476E+001, 3.99142101E+000
1407, 2.19113153E+001, 2.38425069E+000
1408, 1.97017859E+001, 7.37216108E+000
1409, 2.06796069E+001, 4.79798130E+000
1410, 2.13752464E+001, 7.26875895E+000
1411, 1.70138865E+001, 2.73433139E+000
1412, 2.20873511E+001, 4.65300964E+000
1413, 1.67395896E+001, 4.29859944E+000
1414, 1.72017859E+001, 6.09933256E+000
1415, 2.29213448E+001, 5.79580339E+000
1416, 3.41142166E+001, 5.79218731E+000
1417, 3.07723606E+001, 4.07480792E+000
1418, 2.48769977E+001, -2.49528922E+000
1419, 1.86187389E+001, -1.27988259E+001
1420, 1.88603164E+001, -1.88006296E+001
1421, 2.01204800E+001, -2.43914771E+001
1422, 3.23304653E+001, -9.72639511E+000
1423, 1.82867374E+001, -7.20149746E+000
1424, 3.23785927E+001, -1.82452177E+001
1425, 2.05866496E+001, -2.25309394E+000
1426, 2.86308076E+001, -2.95764818E+001
1427, 3.06463371E+001, -2.86350069E+000
1428, 3.16917475E+001, -5.91880209E+000
1429, 2.88908066E+001, -1.01649150E+001
1430, 2.58394620E+001, -9.91287552E+000
1431, 2.55933758E+001, -1.41839126E+001
1432, 2.57497009E+001, -6.51777517E+000
1433, 2.31478569E+001, -9.45398460E+000
1434, 2.29916589E+001, -5.99922857E+000
1435, 2.88905319E+001, -1.42442375E+001
1436, 2.50721825E+001, -1.84876881E+001
1437, 2.16842995E+001, -1.52964824E+001
1438, 2.30994239E+001, -1.18484697E+001
1439, 3.24635779E+001, -2.25038871E+001
1440, 2.82922436E+001, -2.35733500E+001
1441, 2.33824917E+001, -2.99812425E+001
1442, 2.57863101E+001, -2.74119842E+001
1443, 2.70673429E+001, -3.13656486E+000
1444, 2.84472475E+001, -6.48723453E+000
1445, 2.17737294E+001, -1.84587193E+001
1446, 1.89197280E+001, -2.10008411E+001
1447, 1.96122087E+001, -2.73999079E+001
1448, 1.84303392E+001, -9.93058926E+000
1449, 1.88001661E+001, -1.58134582E+001
1450, 1.82835930E+001, -4.80052059E+000
1451, 2.04921331E+001, -6.78056267E+000
1452, 2.24205343E+001, -2.68957898E+000
1453, 3.24244130E+001, -1.38525718E+001
1454, 2.43097037E+001, -2.22575943E+001
1455, 3.25433904E+001, -2.65094801E+001
1456, 2.07687969E+001, -9.53985192E+000
1457, 2.30888885E+001, -2.54972328E+001
1458, 2.55802890E+001, -4.50527984E+000
1459, 2.18189659E+001, -4.24108920E+000
1460, 1.85469891E+001, -2.52887533E+000
1461, 2.11810327E+001, -1.23562417E+001
1462, 3.27993625E+001, -2.26784756E+000
1463, 2.00603575E+001, -3.08941605E+001
1464, 2.99333759E+001, -2.66679500E+001
1465, 2.11229045E+001, -2.15043212E+001
1466, 2.41496240E+001, -3.73175335E+000
1467, 3.20901879E+001, -3.05443684E+001
1468, 2.86679535E+001, -1.85230636E+001
1469, 2.20215640E+001, -2.76190328E+001
1470, 2.03610369E+001, -4.49190918E+000
1471, 2.63009737E+001, -2.29154722E+001
1472, 2.36992961E+001, -2.38774136E+001
1473, 2.44375993E+001, -2.64546085E+001
1474, 2.70392769E+001, -2.54926671E+001
1475, 3.06574724E+001, -1.40484046E+001
1476, 2.87792427E+001, -1.63836506E+001
1477, 3.05232731E+001, -1.83841407E+001
1478, 3.24015028E+001, -1.60488948E+001
1479, 2.06304650E+001, -8.16020730E+000
1480, 2.19583269E+001, -9.49691826E+000
1481, 2.30697579E+001, -7.72660659E+000
1482, 2.17418960E+001, -6.38989562E+000
1483, 1.88302412E+001, -1.73070439E+001
1484, 2.03170229E+001, -1.86296745E+001
1485, 2.17290145E+001, -1.68776008E+001
1486, 2.02422328E+001, -1.55549703E+001
1487, 2.44936595E+001, -9.68343006E+000
1488, 2.57945814E+001, -8.21532535E+000
1489, 2.43706799E+001, -6.25850187E+000
1490, 3.20111064E+001, -7.82259860E+000
1491, 3.00694975E+001, -6.20301831E+000
1492, 2.86690270E+001, -8.32607476E+000
1493, 3.06106359E+001, -9.94565505E+000
1494, 2.45844009E+001, -2.86966134E+001
1495, 2.47412459E+001, -3.24906213E+001
1496, 2.73654038E+001, -3.22882409E+001
1497, 2.72085588E+001, -2.84942330E+001
1498, 3.23774391E+001, -1.17894834E+001
1499, 2.88906692E+001, -1.22045763E+001
1500, 3.42152326E+001, -9.23819755E+000
1501, 3.38958737E+001, -5.14690105E+000
1502, 3.42817890E+001, -2.21894436E+001
1503, 3.42392964E+001, -1.78726089E+001
1504, 3.24210853E+001, -2.03745524E+001
1505, 2.57164189E+001, -1.20483941E+001
1506, 2.31236404E+001, -1.06512272E+001
1507, 2.43463998E+001, -1.30161912E+001
1508, 3.11690423E+001, -4.39115139E+000
1509, 2.88568400E+001, -3.00003277E+000
1510, 2.77572952E+001, -4.81189969E+000
1511, 2.73651343E+001, -1.00388953E+001
1512, 2.70984742E+001, -6.50250485E+000
1513, 2.21402283E+001, -1.21023557E+001
1514, 2.14326661E+001, -1.38263620E+001
1515, 2.36388376E+001, -1.47401975E+001
1516, 3.42622065E+001, -1.34887859E+001
1517, 2.56649949E+001, -5.51152751E+000
1518, 2.48649565E+001, -4.11851659E+000
1519, 2.35706414E+001, -4.86549096E+000
1520, 3.44496812E+001, -3.32142378E+000
1521, 3.17228498E+001, -2.56567412E+000
1522, 2.84800986E+001, -2.10482068E+001
1523, 3.03779108E+001, -2.30386186E+001
1524, 2.34229560E+001, -1.84732037E+001
1525, 2.53327791E+001, -1.63358004E+001
1526, 1.74801582E+001, -1.91517801E+001
1527, 1.74500830E+001, -1.60341464E+001
1528, 1.73593694E+001, -1.30115398E+001
1529, 1.85245391E+001, -1.13647076E+001
1530, 1.72651696E+001, -1.01636056E+001
1531, 1.71933687E+001, -7.47992284E+000
1532, 1.82851652E+001, -6.00100903E+000
1533, 1.71917965E+001, -5.04863571E+000
1534, 3.25034842E+001, -2.45066836E+001
1535, 3.43216952E+001, -2.63797400E+001
1536, 2.66044869E+001, -1.56828243E+000
1537, 2.98660775E+001, -1.43175034E+000
1538, 1.95668194E+001, -2.39098464E+000
1539, 2.08842524E+001, -1.12654697E+000
1540, 1.88234946E+001, -1.26443767E+000
1541, 2.72419538E+001, -1.42140751E+001
1542, 2.41978279E+001, -1.24764461E+000
1543, 2.59721703E+001, -2.81592704E+000
1544, 2.15035920E+001, -2.47133646E+000
1545, 2.29695962E+001, -1.34478949E+000
1546, 2.92820917E+001, -2.81222159E+001
1547, 2.91128098E+001, -2.51206500E+001
1548, 2.05801787E+001, -3.29470803E+001
1549, 1.80801787E+001, -3.08041362E+001
1550, 2.17214246E+001, -3.04377015E+001
1551, 2.27020279E+001, -2.88001377E+001
1552, 2.08168864E+001, -2.75094704E+001
1553, 1.98362831E+001, -2.91470342E+001
1554, 3.25949595E+001, -1.13392378E+000
1555, 1.75098640E+001, -2.19924972E+001
1556, 1.88900222E+001, -1.99007354E+001
1557, 1.87094525E+001, -1.43061420E+001
1558, 1.83585383E+001, -8.56604336E+000
1559, 1.73234946E+001, -2.76443767E+000
1560, 1.78561044E+001, -2.70575721E+001
1561, 1.98663444E+001, -2.58956925E+001
1562, 1.81102400E+001, -2.36878152E+001
1563, 1.84152911E+001, -3.66469796E+000
1564, 2.16046843E+001, -2.49443550E+001
1565, 2.25552263E+001, -2.65581328E+001
1566, 2.63238160E+001, -3.82092235E+000
1567, 3.40950939E+001, -3.05846842E+001
1568, 3.15950939E+001, -3.27721842E+001
1569, 2.06216922E+001, -2.29478991E+001
1570, 2.00213162E+001, -2.12525811E+001
1571, 3.03604978E+001, -3.00604251E+001
1572, 1.93894353E+001, -6.99103007E+000
1573, 1.95995680E+001, -9.73522059E+000
1574, 1.98998858E+001, -1.25775338E+001
1575, 2.09749148E+001, -1.09480468E+001
1576, 2.45133108E+001, -3.11352128E+000
1577, 2.46909431E+001, -2.03726412E+001
1578, 2.68700680E+001, -1.85053759E+001
1579, 3.23167892E+001, -2.85269242E+001
1580, 3.12383832E+001, -2.65887150E+001
1581, 2.14483169E+001, -1.99815202E+001
1582, 2.27163041E+001, -2.18809577E+001
1583, 2.04265850E+001, -5.63623592E+000
1584, 1.93223150E+001, -4.64621488E+000
1585, 2.32850791E+001, -3.21066617E+000
1586, 2.21197501E+001, -3.46533409E+000
1587, 2.24053124E+001, -5.12015889E+000
1588, 2.10900014E+001, -4.36649919E+000
1589, 2.04738433E+001, -3.37250156E+000
**
** Elements ++++++++++++++++++++++++++++++++++++++++++++++++
**
*Element, Type=CAX8R, Elset=Punch_
233, 485, 493, 502, 482, 510, 511, 512, 513
234, 479, 501, 493, 492, 514, 515, 516, 517
235, 494, 488, 54, 55, 518, 519, 60, 520
236, 506, 489, 505, 480, 521, 522, 523, 524
237, 478, 496, 479, 492, 525, 526, 517, 527
238, 478, 492, 486, 491, 527, 528, 529, 530
239, 486, 485, 53, 481, 531, 532, 533, 534
240, 488, 481, 53, 54, 535, 533, 59, 519
241, 486, 487, 490, 491, 536, 537, 538, 529
242, 477, 508, 500, 499, 539, 540, 541, 542
243, 477, 497, 509, 508, 543, 544, 545, 539
244, 487, 488, 494, 489, 546, 518, 547, 548
245, 482, 52, 53, 485, 549, 58, 532, 513
246, 487, 489, 506, 490, 548, 521, 550, 537
247, 486, 481, 488, 487, 534, 535, 546, 536
248, 3, 484, 2, 26, 551, 552, 27, 28
249, 45, 498, 502, 483, 553, 554, 555, 556
250, 485, 486, 492, 493, 531, 528, 516, 510
251, 21, 2, 484, 503, 25, 552, 557, 558
252, 489, 494, 19, 505, 547, 559, 560, 522
253, 34, 479, 496, 33, 561, 526, 562, 41
254, 490, 506, 500, 508, 550, 563, 540, 564
255, 33, 496, 478, 32, 562, 525, 565, 40
256, 484, 3, 29, 499, 551, 36, 566, 567
257, 32, 478, 497, 31, 565, 568, 569, 39
258, 34, 495, 501, 479, 570, 571, 514, 561
259, 31, 497, 477, 30, 569, 543, 572, 38
260, 51, 507, 46, 5, 573, 574, 50, 56
261, 35, 4, 44, 504, 43, 47, 575, 576
262, 30, 477, 499, 29, 572, 542, 566, 37
263, 501, 495, 504, 483, 571, 577, 578, 579
264, 491, 509, 497, 478, 580, 544, 568, 530
265, 45, 483, 504, 44, 556, 578, 575, 48
266, 500, 506, 480, 503, 563, 524, 581, 582
267, 52, 482, 507, 51, 549, 583, 573, 57
268, 20, 21, 503, 480, 24, 558, 581, 584
269, 499, 500, 503, 484, 541, 582, 557, 567
270, 502, 498, 507, 482, 554, 585, 583, 512
271, 491, 490, 508, 509, 538, 564, 545, 580
272, 483, 502, 493, 501, 555, 511, 515, 579
273, 34, 35, 504, 495, 42, 576, 577, 570
274, 45, 46, 507, 498, 49, 574, 585, 553
275, 19, 20, 480, 505, 23, 584, 523, 560
276, 1, 19, 494, 55, 22, 559, 520, 61
*Element, Type=CAX8R, Elset=Blank_
277, 6, 62, 586, 389, 141, 823, 824, 393
278, 389, 586, 587, 388, 824, 825, 826, 392
279, 388, 587, 588, 387, 826, 827, 828, 391
280, 387, 588, 306, 9, 828, 829, 386, 390
281, 62, 63, 589, 586, 142, 830, 831, 823
282, 586, 589, 590, 587, 831, 832, 833, 825
283, 587, 590, 591, 588, 833, 834, 835, 827
284, 588, 591, 305, 306, 835, 836, 385, 829
285, 63, 64, 592, 589, 143, 837, 838, 830
286, 589, 592, 593, 590, 838, 839, 840, 832
287, 590, 593, 594, 591, 840, 841, 842, 834
288, 591, 594, 304, 305, 842, 843, 384, 836
289, 64, 65, 595, 592, 144, 844, 845, 837
290, 592, 595, 596, 593, 845, 846, 847, 839
291, 593, 596, 597, 594, 847, 848, 849, 841
292, 594, 597, 303, 304, 849, 850, 383, 843
293, 65, 66, 598, 595, 145, 851, 852, 844
294, 595, 598, 599, 596, 852, 853, 854, 846
295, 596, 599, 600, 597, 854, 855, 856, 848
296, 597, 600, 302, 303, 856, 857, 382, 850
297, 66, 67, 601, 598, 146, 858, 859, 851
298, 598, 601, 602, 599, 859, 860, 861, 853
299, 599, 602, 603, 600, 861, 862, 863, 855
300, 600, 603, 301, 302, 863, 864, 381, 857
301, 67, 68, 604, 601, 147, 865, 866, 858
302, 601, 604, 605, 602, 866, 867, 868, 860
303, 602, 605, 606, 603, 868, 869, 870, 862
304, 603, 606, 300, 301, 870, 871, 380, 864
305, 68, 69, 607, 604, 148, 872, 873, 865
306, 604, 607, 608, 605, 873, 874, 875, 867
307, 605, 608, 609, 606, 875, 876, 877, 869
308, 606, 609, 299, 300, 877, 878, 379, 871
309, 69, 70, 610, 607, 149, 879, 880, 872
310, 607, 610, 611, 608, 880, 881, 882, 874
311, 608, 611, 612, 609, 882, 883, 884, 876
312, 609, 612, 298, 299, 884, 885, 378, 878
313, 70, 71, 613, 610, 150, 886, 887, 879
314, 610, 613, 614, 611, 887, 888, 889, 881
315, 611, 614, 615, 612, 889, 890, 891, 883
316, 612, 615, 297, 298, 891, 892, 377, 885
317, 71, 72, 616, 613, 151, 893, 894, 886
318, 613, 616, 617, 614, 894, 895, 896, 888
319, 614, 617, 618, 615, 896, 897, 898, 890
320, 615, 618, 296, 297, 898, 899, 376, 892
321, 72, 73, 619, 616, 152, 900, 901, 893
322, 616, 619, 620, 617, 901, 902, 903, 895
323, 617, 620, 621, 618, 903, 904, 905, 897
324, 618, 621, 295, 296, 905, 906, 375, 899
325, 73, 74, 622, 619, 153, 907, 908, 900
326, 619, 622, 623, 620, 908, 909, 910, 902
327, 620, 623, 624, 621, 910, 911, 912, 904
328, 621, 624, 294, 295, 912, 913, 374, 906
329, 74, 75, 625, 622, 154, 914, 915, 907
330, 622, 625, 626, 623, 915, 916, 917, 909
331, 623, 626, 627, 624, 917, 918, 919, 911
332, 624, 627, 293, 294, 919, 920, 373, 913
333, 75, 76, 628, 625, 155, 921, 922, 914
334, 625, 628, 629, 626, 922, 923, 924, 916
335, 626, 629, 630, 627, 924, 925, 926, 918
336, 627, 630, 292, 293, 926, 927, 372, 920
337, 76, 77, 631, 628, 156, 928, 929, 921
338, 628, 631, 632, 629, 929, 930, 931, 923
339, 629, 632, 633, 630, 931, 932, 933, 925
340, 630, 633, 291, 292, 933, 934, 371, 927
341, 77, 78, 634, 631, 157, 935, 936, 928
342, 631, 634, 635, 632, 936, 937, 938, 930
343, 632, 635, 636, 633, 938, 939, 940, 932
344, 633, 636, 290, 291, 940, 941, 370, 934
345, 78, 79, 637, 634, 158, 942, 943, 935
346, 634, 637, 638, 635, 943, 944, 945, 937
347, 635, 638, 639, 636, 945, 946, 947, 939
348, 636, 639, 289, 290, 947, 948, 369, 941
349, 79, 80, 640, 637, 159, 949, 950, 942
350, 637, 640, 641, 638, 950, 951, 952, 944
351, 638, 641, 642, 639, 952, 953, 954, 946
352, 639, 642, 288, 289, 954, 955, 368, 948
353, 80, 81, 643, 640, 160, 956, 957, 949
354, 640, 643, 644, 641, 957, 958, 959, 951
355, 641, 644, 645, 642, 959, 960, 961, 953
356, 642, 645, 287, 288, 961, 962, 367, 955
357, 81, 82, 646, 643, 161, 963, 964, 956
358, 643, 646, 647, 644, 964, 965, 966, 958
359, 644, 647, 648, 645, 966, 967, 968, 960
360, 645, 648, 286, 287, 968, 969, 366, 962
361, 82, 83, 649, 646, 162, 970, 971, 963
362, 646, 649, 650, 647, 971, 972, 973, 965
363, 647, 650, 651, 648, 973, 974, 975, 967
364, 648, 651, 285, 286, 975, 976, 365, 969
365, 83, 84, 652, 649, 163, 977, 978, 970
366, 649, 652, 653, 650, 978, 979, 980, 972
367, 650, 653, 654, 651, 980, 981, 982, 974
368, 651, 654, 284, 285, 982, 983, 364, 976
369, 84, 85, 655, 652, 164, 984, 985, 977
370, 652, 655, 656, 653, 985, 986, 987, 979
371, 653, 656, 657, 654, 987, 988, 989, 981
372, 654, 657, 283, 284, 989, 990, 363, 983
373, 85, 86, 658, 655, 165, 991, 992, 984
374, 655, 658, 659, 656, 992, 993, 994, 986
375, 656, 659, 660, 657, 994, 995, 996, 988
376, 657, 660, 282, 283, 996, 997, 362, 990
377, 86, 87, 661, 658, 166, 998, 999, 991
378, 658, 661, 662, 659, 999, 1000, 1001, 993
379, 659, 662, 663, 660, 1001, 1002, 1003, 995
380, 660, 663, 281, 282, 1003, 1004, 361, 997
381, 87, 88, 664, 661, 167, 1005, 1006, 998
382, 661, 664, 665, 662, 1006, 1007, 1008, 1000
383, 662, 665, 666, 663, 1008, 1009, 1010, 1002
384, 663, 666, 280, 281, 1010, 1011, 360, 1004
385, 88, 89, 667, 664, 168, 1012, 1013, 1005
386, 664, 667, 668, 665, 1013, 1014, 1015, 1007
387, 665, 668, 669, 666, 1015, 1016, 1017, 1009
388, 666, 669, 279, 280, 1017, 1018, 359, 1011
389, 89, 90, 670, 667, 169, 1019, 1020, 1012
390, 667, 670, 671, 668, 1020, 1021, 1022, 1014
391, 668, 671, 672, 669, 1022, 1023, 1024, 1016
392, 669, 672, 278, 279, 1024, 1025, 358, 1018
393, 90, 91, 673, 670, 170, 1026, 1027, 1019
394, 670, 673, 674, 671, 1027, 1028, 1029, 1021
395, 671, 674, 675, 672, 1029, 1030, 1031, 1023
396, 672, 675, 277, 278, 1031, 1032, 357, 1025
397, 91, 92, 676, 673, 171, 1033, 1034, 1026
398, 673, 676, 677, 674, 1034, 1035, 1036, 1028
399, 674, 677, 678, 675, 1036, 1037, 1038, 1030
400, 675, 678, 276, 277, 1038, 1039, 356, 1032
401, 92, 93, 679, 676, 172, 1040, 1041, 1033
402, 676, 679, 680, 677, 1041, 1042, 1043, 1035
403, 677, 680, 681, 678, 1043, 1044, 1045, 1037
404, 678, 681, 275, 276, 1045, 1046, 355, 1039
405, 93, 94, 682, 679, 173, 1047, 1048, 1040
406, 679, 682, 683, 680, 1048, 1049, 1050, 1042
407, 680, 683, 684, 681, 1050, 1051, 1052, 1044
408, 681, 684, 274, 275, 1052, 1053, 354, 1046
409, 94, 95, 685, 682, 174, 1054, 1055, 1047
410, 682, 685, 686, 683, 1055, 1056, 1057, 1049
411, 683, 686, 687, 684, 1057, 1058, 1059, 1051
412, 684, 687, 273, 274, 1059, 1060, 353, 1053
413, 95, 96, 688, 685, 175, 1061, 1062, 1054
414, 685, 688, 689, 686, 1062, 1063, 1064, 1056
415, 686, 689, 690, 687, 1064, 1065, 1066, 1058
416, 687, 690, 272, 273, 1066, 1067, 352, 1060
417, 96, 97, 691, 688, 176, 1068, 1069, 1061
418, 688, 691, 692, 689, 1069, 1070, 1071, 1063
419, 689, 692, 693, 690, 1071, 1072, 1073, 1065
420, 690, 693, 271, 272, 1073, 1074, 351, 1067
421, 97, 98, 694, 691, 177, 1075, 1076, 1068
422, 691, 694, 695, 692, 1076, 1077, 1078, 1070
423, 692, 695, 696, 693, 1078, 1079, 1080, 1072
424, 693, 696, 270, 271, 1080, 1081, 350, 1074
425, 98, 99, 697, 694, 178, 1082, 1083, 1075
426, 694, 697, 698, 695, 1083, 1084, 1085, 1077
427, 695, 698, 699, 696, 1085, 1086, 1087, 1079
428, 696, 699, 269, 270, 1087, 1088, 349, 1081
429, 99, 100, 700, 697, 179, 1089, 1090, 1082
430, 697, 700, 701, 698, 1090, 1091, 1092, 1084
431, 698, 701, 702, 699, 1092, 1093, 1094, 1086
432, 699, 702, 268, 269, 1094, 1095, 348, 1088
433, 100, 101, 703, 700, 180, 1096, 1097, 1089
434, 700, 703, 704, 701, 1097, 1098, 1099, 1091
435, 701, 704, 705, 702, 1099, 1100, 1101, 1093
436, 702, 705, 267, 268, 1101, 1102, 347, 1095
437, 101, 102, 706, 703, 181, 1103, 1104, 1096
438, 703, 706, 707, 704, 1104, 1105, 1106, 1098
439, 704, 707, 708, 705, 1106, 1107, 1108, 1100
440, 705, 708, 266, 267, 1108, 1109, 346, 1102
441, 102, 103, 709, 706, 182, 1110, 1111, 1103
442, 706, 709, 710, 707, 1111, 1112, 1113, 1105
443, 707, 710, 711, 708, 1113, 1114, 1115, 1107
444, 708, 711, 265, 266, 1115, 1116, 345, 1109
445, 103, 104, 712, 709, 183, 1117, 1118, 1110
446, 709, 712, 713, 710, 1118, 1119, 1120, 1112
447, 710, 713, 714, 711, 1120, 1121, 1122, 1114
448, 711, 714, 264, 265, 1122, 1123, 344, 1116
449, 104, 105, 715, 712, 184, 1124, 1125, 1117
450, 712, 715, 716, 713, 1125, 1126, 1127, 1119
451, 713, 716, 717, 714, 1127, 1128, 1129, 1121
452, 714, 717, 263, 264, 1129, 1130, 343, 1123
453, 105, 106, 718, 715, 185, 1131, 1132, 1124
454, 715, 718, 719, 716, 1132, 1133, 1134, 1126
455, 716, 719, 720, 717, 1134, 1135, 1136, 1128
456, 717, 720, 262, 263, 1136, 1137, 342, 1130
457, 106, 107, 721, 718, 186, 1138, 1139, 1131
458, 718, 721, 722, 719, 1139, 1140, 1141, 1133
459, 719, 722, 723, 720, 1141, 1142, 1143, 1135
460, 720, 723, 261, 262, 1143, 1144, 341, 1137
461, 107, 108, 724, 721, 187, 1145, 1146, 1138
462, 721, 724, 725, 722, 1146, 1147, 1148, 1140
463, 722, 725, 726, 723, 1148, 1149, 1150, 1142
464, 723, 726, 260, 261, 1150, 1151, 340, 1144
465, 108, 109, 727, 724, 188, 1152, 1153, 1145
466, 724, 727, 728, 725, 1153, 1154, 1155, 1147
467, 725, 728, 729, 726, 1155, 1156, 1157, 1149
468, 726, 729, 259, 260, 1157, 1158, 339, 1151
469, 109, 110, 730, 727, 189, 1159, 1160, 1152
470, 727, 730, 731, 728, 1160, 1161, 1162, 1154
471, 728, 731, 732, 729, 1162, 1163, 1164, 1156
472, 729, 732, 258, 259, 1164, 1165, 338, 1158
473, 110, 111, 733, 730, 190, 1166, 1167, 1159
474, 730, 733, 734, 731, 1167, 1168, 1169, 1161
475, 731, 734, 735, 732, 1169, 1170, 1171, 1163
476, 732, 735, 257, 258, 1171, 1172, 337, 1165
477, 111, 112, 736, 733, 191, 1173, 1174, 1166
478, 733, 736, 737, 734, 1174, 1175, 1176, 1168
479, 734, 737, 738, 735, 1176, 1177, 1178, 1170
480, 735, 738, 256, 257, 1178, 1179, 336, 1172
481, 112, 113, 739, 736, 192, 1180, 1181, 1173
482, 736, 739, 740, 737, 1181, 1182, 1183, 1175
483, 737, 740, 741, 738, 1183, 1184, 1185, 1177
484, 738, 741, 255, 256, 1185, 1186, 335, 1179
485, 113, 114, 742, 739, 193, 1187, 1188, 1180
486, 739, 742, 743, 740, 1188, 1189, 1190, 1182
487, 740, 743, 744, 741, 1190, 1191, 1192, 1184
488, 741, 744, 254, 255, 1192, 1193, 334, 1186
489, 114, 115, 745, 742, 194, 1194, 1195, 1187
490, 742, 745, 746, 743, 1195, 1196, 1197, 1189
491, 743, 746, 747, 744, 1197, 1198, 1199, 1191
492, 744, 747, 253, 254, 1199, 1200, 333, 1193
493, 115, 116, 748, 745, 195, 1201, 1202, 1194
494, 745, 748, 749, 746, 1202, 1203, 1204, 1196
495, 746, 749, 750, 747, 1204, 1205, 1206, 1198
496, 747, 750, 252, 253, 1206, 1207, 332, 1200
497, 116, 117, 751, 748, 196, 1208, 1209, 1201
498, 748, 751, 752, 749, 1209, 1210, 1211, 1203
499, 749, 752, 753, 750, 1211, 1212, 1213, 1205
500, 750, 753, 251, 252, 1213, 1214, 331, 1207
501, 117, 118, 754, 751, 197, 1215, 1216, 1208
502, 751, 754, 755, 752, 1216, 1217, 1218, 1210
503, 752, 755, 756, 753, 1218, 1219, 1220, 1212
504, 753, 756, 250, 251, 1220, 1221, 330, 1214
505, 118, 119, 757, 754, 198, 1222, 1223, 1215
506, 754, 757, 758, 755, 1223, 1224, 1225, 1217
507, 755, 758, 759, 756, 1225, 1226, 1227, 1219
508, 756, 759, 249, 250, 1227, 1228, 329, 1221
509, 119, 120, 760, 757, 199, 1229, 1230, 1222
510, 757, 760, 761, 758, 1230, 1231, 1232, 1224
511, 758, 761, 762, 759, 1232, 1233, 1234, 1226
512, 759, 762, 248, 249, 1234, 1235, 328, 1228
513, 120, 121, 763, 760, 200, 1236, 1237, 1229
514, 760, 763, 764, 761, 1237, 1238, 1239, 1231
515, 761, 764, 765, 762, 1239, 1240, 1241, 1233
516, 762, 765, 247, 248, 1241, 1242, 327, 1235
517, 121, 122, 766, 763, 201, 1243, 1244, 1236
518, 763, 766, 767, 764, 1244, 1245, 1246, 1238
519, 764, 767, 768, 765, 1246, 1247, 1248, 1240
520, 765, 768, 246, 247, 1248, 1249, 326, 1242
521, 122, 123, 769, 766, 202, 1250, 1251, 1243
522, 766, 769, 770, 767, 1251, 1252, 1253, 1245
523, 767, 770, 771, 768, 1253, 1254, 1255, 1247
524, 768, 771, 245, 246, 1255, 1256, 325, 1249
525, 123, 124, 772, 769, 203, 1257, 1258, 1250
526, 769, 772, 773, 770, 1258, 1259, 1260, 1252
527, 770, 773, 774, 771, 1260, 1261, 1262, 1254
528, 771, 774, 244, 245, 1262, 1263, 324, 1256
529, 124, 125, 775, 772, 204, 1264, 1265, 1257
530, 772, 775, 776, 773, 1265, 1266, 1267, 1259
531, 773, 776, 777, 774, 1267, 1268, 1269, 1261
532, 774, 777, 243, 244, 1269, 1270, 323, 1263
533, 125, 126, 778, 775, 205, 1271, 1272, 1264
534, 775, 778, 779, 776, 1272, 1273, 1274, 1266
535, 776, 779, 780, 777, 1274, 1275, 1276, 1268
536, 777, 780, 242, 243, 1276, 1277, 322, 1270
537, 126, 127, 781, 778, 206, 1278, 1279, 1271
538, 778, 781, 782, 779, 1279, 1280, 1281, 1273
539, 779, 782, 783, 780, 1281, 1282, 1283, 1275
540, 780, 783, 241, 242, 1283, 1284, 321, 1277
541, 127, 128, 784, 781, 207, 1285, 1286, 1278
542, 781, 784, 785, 782, 1286, 1287, 1288, 1280
543, 782, 785, 786, 783, 1288, 1289, 1290, 1282
544, 783, 786, 240, 241, 1290, 1291, 320, 1284
545, 128, 129, 787, 784, 208, 1292, 1293, 1285
546, 784, 787, 788, 785, 1293, 1294, 1295, 1287
547, 785, 788, 789, 786, 1295, 1296, 1297, 1289
548, 786, 789, 239, 240, 1297, 1298, 319, 1291
549, 129, 130, 790, 787, 209, 1299, 1300, 1292
550, 787, 790, 791, 788, 1300, 1301, 1302, 1294
551, 788, 791, 792, 789, 1302, 1303, 1304, 1296
552, 789, 792, 238, 239, 1304, 1305, 318, 1298
553, 130, 131, 793, 790, 210, 1306, 1307, 1299
554, 790, 793, 794, 791, 1307, 1308, 1309, 1301
555, 791, 794, 795, 792, 1309, 1310, 1311, 1303
556, 792, 795, 237, 238, 1311, 1312, 317, 1305
557, 131, 132, 796, 793, 211, 1313, 1314, 1306
558, 793, 796, 797, 794, 1314, 1315, 1316, 1308
559, 794, 797, 798, 795, 1316, 1317, 1318, 1310
560, 795, 798, 236, 237, 1318, 1319, 316, 1312
561, 132, 133, 799, 796, 212, 1320, 1321, 1313
562, 796, 799, 800, 797, 1321, 1322, 1323, 1315
563, 797, 800, 801, 798, 1323, 1324, 1325, 1317
564, 798, 801, 235, 236, 1325, 1326, 315, 1319
565, 133, 134, 802, 799, 213, 1327, 1328, 1320
566, 799, 802, 803, 800, 1328, 1329, 1330, 1322
567, 800, 803, 804, 801, 1330, 1331, 1332, 1324
568, 801, 804, 234, 235, 1332, 1333, 314, 1326
569, 134, 135, 805, 802, 214, 1334, 1335, 1327
570, 802, 805, 806, 803, 1335, 1336, 1337, 1329
571, 803, 806, 807, 804, 1337, 1338, 1339, 1331
572, 804, 807, 233, 234, 1339, 1340, 313, 1333
573, 135, 136, 808, 805, 215, 1341, 1342, 1334
574, 805, 808, 809, 806, 1342, 1343, 1344, 1336
575, 806, 809, 810, 807, 1344, 1345, 1346, 1338
576, 807, 810, 232, 233, 1346, 1347, 312, 1340
577, 136, 137, 811, 808, 216, 1348, 1349, 1341
578, 808, 811, 812, 809, 1349, 1350, 1351, 1343
579, 809, 812, 813, 810, 1351, 1352, 1353, 1345
580, 810, 813, 231, 232, 1353, 1354, 311, 1347
581, 137, 138, 814, 811, 217, 1355, 1356, 1348
582, 811, 814, 815, 812, 1356, 1357, 1358, 1350
583, 812, 815, 816, 813, 1358, 1359, 1360, 1352
584, 813, 816, 230, 231, 1360, 1361, 310, 1354
585, 138, 139, 817, 814, 218, 1362, 1363, 1355
586, 814, 817, 818, 815, 1363, 1364, 1365, 1357
587, 815, 818, 819, 816, 1365, 1366, 1367, 1359
588, 816, 819, 229, 230, 1367, 1368, 309, 1361
589, 139, 140, 820, 817, 219, 1369, 1370, 1362
590, 817, 820, 821, 818, 1370, 1371, 1372, 1364
591, 818, 821, 822, 819, 1372, 1373, 1374, 1366
592, 819, 822, 228, 229, 1374, 1375, 308, 1368
593, 140, 7, 221, 820, 220, 224, 1376, 1369
594, 820, 221, 222, 821, 1376, 225, 1377, 1371
595, 821, 222, 223, 822, 1377, 226, 1378, 1373
596, 822, 223, 8, 228, 1378, 227, 307, 1375
*Element, Type=CAX8R, Elset=Holder_
597, 1384, 409, 1386, 1381, 1390, 1391, 1392, 1393
598, 1380, 1383, 1389, 1379, 1394, 1395, 1396, 1397
599, 409, 1384, 1388, 408, 1390, 1398, 1399, 412
600, 1389, 394, 395, 1379, 1400, 400, 1401, 1396
601, 398, 11, 405, 1387, 404, 406, 1402, 1403
602, 396, 397, 1384, 1381, 402, 1404, 1393, 1405
603, 395, 396, 1381, 1382, 401, 1405, 1406, 1407
604, 410, 1380, 1379, 1385, 1408, 1397, 1409, 1410
605, 394, 1389, 417, 10, 1400, 1411, 421, 399
606, 395, 1382, 1385, 1379, 1407, 1412, 1409, 1401
607, 415, 416, 1383, 1380, 419, 1413, 1394, 1414
608, 1381, 1386, 1385, 1382, 1392, 1415, 1412, 1406
609, 408, 1388, 405, 12, 1399, 1416, 407, 411
610, 397, 398, 1387, 1384, 403, 1403, 1417, 1404
611, 416, 417, 1389, 1383, 420, 1411, 1395, 1413
612, 1384, 1387, 405, 1388, 1417, 1402, 1416, 1398
613, 409, 410, 1385, 1386, 413, 1410, 1415, 1391
614, 410, 13, 415, 1380, 414, 418, 1414, 1408
*Element, Type=CAX8R, Elset=Die_
615, 1440, 1454, 1457, 1442, 1471, 1472, 1473, 1474
616, 1453, 1435, 1468, 1424, 1475, 1476, 1477, 1478
617, 1451, 1456, 1433, 1434, 1479, 1480, 1481, 1482
618, 1449, 1420, 1445, 1437, 1483, 1484, 1485, 1486
619, 1434, 1433, 1430, 1432, 1481, 1487, 1488, 1489
620, 1422, 1428, 1444, 1429, 1490, 1491, 1492, 1493
621, 1442, 1441, 449, 1426, 1494, 1495, 1496, 1497
622, 1435, 1453, 1422, 1429, 1475, 1498, 1493, 1499
623, 1422, 434, 433, 1428, 1500, 441, 1501, 1490
624, 1439, 437, 436, 1424, 1502, 444, 1503, 1504
625, 1431, 1430, 1433, 1438, 1505, 1487, 1506, 1507
626, 1428, 1427, 1443, 1444, 1508, 1509, 1510, 1491
627, 1430, 1429, 1444, 1432, 1511, 1492, 1512, 1488
628, 1431, 1438, 1461, 1437, 1507, 1513, 1514, 1515
629, 434, 1422, 1453, 435, 1500, 1498, 1516, 442
630, 1424, 436, 435, 1453, 1503, 443, 1516, 1478
631, 1432, 1458, 1466, 1434, 1517, 1518, 1519, 1489
632, 1427, 1428, 433, 1462, 1508, 1501, 1520, 1521
633, 1439, 1424, 1468, 1440, 1504, 1477, 1522, 1523
634, 1431, 1437, 1445, 1436, 1515, 1485, 1524, 1525
635, 458, 1420, 1449, 459, 1526, 1483, 1527, 468
636, 460, 1419, 1448, 461, 1528, 1529, 1530, 470
637, 462, 1423, 1450, 463, 1531, 1532, 1533, 472
638, 437, 1439, 1455, 438, 1502, 1534, 1535, 445
639, 424, 1443, 1427, 425, 1536, 1509, 1537, 430
640, 1460, 1425, 422, 14, 1538, 1539, 427, 1540
641, 1430, 1431, 1435, 1429, 1505, 1541, 1499, 1511
642, 423, 1418, 1443, 424, 1542, 1543, 1536, 429
643, 423, 422, 1425, 1452, 428, 1539, 1544, 1545
644, 1440, 1442, 1426, 1464, 1474, 1497, 1546, 1547
645, 450, 1463, 455, 17, 1548, 1549, 464, 454
646, 1463, 1441, 1469, 1447, 1550, 1551, 1552, 1553
647, 433, 15, 426, 1462, 440, 432, 1554, 1520
648, 457, 1446, 1420, 458, 1555, 1556, 1526, 467
649, 459, 1449, 1419, 460, 1527, 1557, 1528, 469
650, 461, 1448, 1423, 462, 1530, 1558, 1531, 471
651, 14, 474, 18, 1460, 476, 475, 1559, 1540
652, 457, 456, 1447, 1421, 466, 1560, 1561, 1562
653, 449, 1441, 1463, 450, 1495, 1550, 1548, 453
654, 463, 1450, 1460, 18, 1533, 1563, 1559, 473
655, 1457, 1421, 1447, 1469, 1564, 1561, 1552, 1565
656, 1443, 1458, 1432, 1444, 1566, 1517, 1512, 1510
657, 448, 16, 439, 1467, 451, 447, 1567, 1568
658, 457, 1421, 1465, 1446, 1562, 1569, 1570, 1555
659, 449, 448, 1467, 1426, 452, 1568, 1571, 1496
660, 1451, 1423, 1448, 1456, 1572, 1558, 1573, 1479
661, 1448, 1419, 1461, 1456, 1529, 1574, 1575, 1573
662, 1443, 1418, 1466, 1458, 1543, 1576, 1518, 1566
663, 1436, 1454, 1440, 1468, 1577, 1471, 1522, 1578
664, 1464, 1426, 1467, 1455, 1546, 1571, 1579, 1580
665, 1436, 1445, 1465, 1454, 1524, 1581, 1582, 1577
666, 1420, 1446, 1465, 1445, 1556, 1570, 1581, 1484
667, 1433, 1456, 1461, 1438, 1480, 1575, 1513, 1506
668, 1423, 1451, 1470, 1450, 1572, 1583, 1584, 1532
669, 1440, 1464, 1455, 1439, 1547, 1580, 1534, 1523
670, 425, 1427, 1462, 426, 1537, 1521, 1554, 431
671, 1421, 1457, 1454, 1465, 1564, 1472, 1582, 1569
672, 456, 455, 1463, 1447, 465, 1549, 1553, 1560
673, 1437, 1461, 1419, 1449, 1514, 1574, 1557, 1486
674, 1441, 1442, 1457, 1469, 1494, 1473, 1565, 1551
675, 438, 1455, 1467, 439, 1535, 1579, 1567, 446
676, 423, 1452, 1466, 1418, 1545, 1585, 1576, 1542
677, 1431, 1436, 1468, 1435, 1525, 1578, 1476, 1541
678, 1434, 1466, 1452, 1459, 1519, 1585, 1586, 1587
679, 1434, 1459, 1470, 1451, 1587, 1588, 1583, 1482
680, 1452, 1425, 1470, 1459, 1544, 1589, 1588, 1586
681, 1425, 1460, 1450, 1470, 1538, 1563, 1584, 1589
**
** Node sets +++++++++++++++++++++++++++++++++++++++++++++++
**
*Nset, Nset=PunchBottom
1, 2, 3, 19, 20, 21, 22, 23, 24, 25, 26, 27, 28
*Nset, Nset=PunchSide
3, 4, 29, 30, 31, 32, 33, 34, 35, 36, 37, 38, 39, 40, 41, 42, 
43
*Nset, Nset=PunchTop
4, 5, 44, 45, 46, 47, 48, 49, 50
*Nset, Nset=BlankBottom
6, 7, 62, 63, 64, 65, 66, 67, 68, 69, 70, 71, 72, 73, 74, 75, 
76, 77, 78, 79, 80, 81, 82, 83, 84, 85, 86, 87, 88, 89, 90, 91, 
92, 93, 94, 95, 96, 97, 98, 99, 100, 101, 102, 103, 104, 105, 106, 107, 
108, 109, 110, 111, 112, 113, 114, 115, 116, 117, 118, 119, 120, 121, 122, 123, 
124, 125, 126, 127, 128, 129, 130, 131, 132, 133, 134, 135, 136, 137, 138, 139, 
140, 141, 142, 143, 144, 145, 146, 147, 148, 149, 150, 151, 152, 153, 154, 155, 
156, 157, 158, 159, 160, 161, 162, 163, 164, 165, 166, 167, 168, 169, 170, 171, 
172, 173, 174, 175, 176, 177, 178, 179, 180, 181, 182, 183, 184, 185, 186, 187, 
188, 189, 190, 191, 192, 193, 194, 195, 196, 197, 198, 199, 200, 201, 202, 203, 
204, 205, 206, 207, 208, 209, 210, 211, 212, 213, 214, 215, 216, 217, 218, 219, 
220
*Nset, Nset=BlankTop
8, 9, 228, 229, 230, 231, 232, 233, 234, 235, 236, 237, 238, 239, 240, 241, 
242, 243, 244, 245, 246, 247, 248, 249, 250, 251, 252, 253, 254, 255, 256, 257, 
258, 259, 260, 261, 262, 263, 264, 265, 266, 267, 268, 269, 270, 271, 272, 273, 
274, 275, 276, 277, 278, 279, 280, 281, 282, 283, 284, 285, 286, 287, 288, 289, 
290, 291, 292, 293, 294, 295, 296, 297, 298, 299, 300, 301, 302, 303, 304, 305, 
306, 307, 308, 309, 310, 311, 312, 313, 314, 315, 316, 317, 318, 319, 320, 321, 
322, 323, 324, 325, 326, 327, 328, 329, 330, 331, 332, 333, 334, 335, 336, 337, 
338, 339, 340, 341, 342, 343, 344, 345, 346, 347, 348, 349, 350, 351, 352, 353, 
354, 355, 356, 357, 358, 359, 360, 361, 362, 363, 364, 365, 366, 367, 368, 369, 
370, 371, 372, 373, 374, 375, 376, 377, 378, 379, 380, 381, 382, 383, 384, 385, 
386
*Nset, Nset=BlankOuter
7, 8, 221, 222, 223, 224, 225, 226, 227
*Nset, Nset=BlankInner
6, 9, 387, 388, 389, 390, 391, 392, 393
*Nset, Nset=BH_Bottom
10, 11, 394, 395, 396, 397, 398, 399, 400, 401, 402, 403, 404
*Nset, Nset=BH_Outer
11, 12, 405, 406, 407
*Nset, Nset=BH_Top
12, 13, 408, 409, 410, 411, 412, 413, 414
*Nset, Nset=BH_Inner
10, 13, 415, 416, 417, 418, 419, 420, 421
*Nset, Nset=DieTop
14, 15, 18, 422, 423, 424, 425, 426, 427, 428, 429, 430, 431, 432, 474, 475, 
476
*Nset, Nset=DieOuter
15, 16, 433, 434, 435, 436, 437, 438, 439, 440, 441, 442, 443, 444, 445, 446, 
447
*Nset, Nset=DieBottom
16, 17, 448, 449, 450, 451, 452, 453, 454
*Nset, Nset=DieInner
17, 18, 455, 456, 457, 458, 459, 460, 461, 462, 463, 464, 465, 466, 467, 468, 
469, 470, 471, 472, 473
*Nset, Nset=Punch
1, 2, 3, 4, 5, 19, 20, 21, 22, 23, 24, 25, 26, 27, 28, 29, 
30, 31, 32, 33, 34, 35, 36, 37, 38, 39, 40, 41, 42, 43, 44, 45, 
46, 47, 48, 49, 50, 51, 52, 53, 54, 55, 56, 57, 58, 59, 60, 61, 
477, 478, 479, 480, 481, 482, 483, 484, 485, 486, 487, 488, 489, 490, 491, 492, 
493, 494, 495, 496, 497, 498, 499, 500, 501, 502, 503, 504, 505, 506, 507, 508, 
509, 510, 511, 512, 513, 514, 515, 516, 517, 518, 519, 520, 521, 522, 523, 524, 
525, 526, 527, 528, 529, 530, 531, 532, 533, 534, 535, 536, 537, 538, 539, 540, 
541, 542, 543, 544, 545, 546, 547, 548, 549, 550, 551, 552, 553, 554, 555, 556, 
557, 558, 559, 560, 561, 562, 563, 564, 565, 566, 567, 568, 569, 570, 571, 572, 
573, 574, 575, 576, 577, 578, 579, 580, 581, 582, 583, 584, 585
*Nset, Nset=Blank
6, 7, 8, 9, 62, 63, 64, 65, 66, 67, 68, 69, 70, 71, 72, 73, 
74, 75, 76, 77, 78, 79, 80, 81, 82, 83, 84, 85, 86, 87, 88, 89, 
90, 91, 92, 93, 94, 95, 96, 97, 98, 99, 100, 101, 102, 103, 104, 105, 
106, 107, 108, 109, 110, 111, 112, 113, 114, 115, 116, 117, 118, 119, 120, 121, 
122, 123, 124, 125, 126, 127, 128, 129, 130, 131, 132, 133, 134, 135, 136, 137, 
138, 139, 140, 141, 142, 143, 144, 145, 146, 147, 148, 149, 150, 151, 152, 153, 
154, 155, 156, 157, 158, 159, 160, 161, 162, 163, 164, 165, 166, 167, 168, 169, 
170, 171, 172, 173, 174, 175, 176, 177, 178, 179, 180, 181, 182, 183, 184, 185, 
186, 187, 188, 189, 190, 191, 192, 193, 194, 195, 196, 197, 198, 199, 200, 201, 
202, 203, 204, 205, 206, 207, 208, 209, 210, 211, 212, 213, 214, 215, 216, 217, 
218, 219, 220, 221, 222, 223, 224, 225, 226, 227, 228, 229, 230, 231, 232, 233, 
234, 235, 236, 237, 238, 239, 240, 241, 242, 243, 244, 245, 246, 247, 248, 249, 
250, 251, 252, 253, 254, 255, 256, 257, 258, 259, 260, 261, 262, 263, 264, 265, 
266, 267, 268, 269, 270, 271, 272, 273, 274, 275, 276, 277, 278, 279, 280, 281, 
282, 283, 284, 285, 286, 287, 288, 289, 290, 291, 292, 293, 294, 295, 296, 297, 
298, 299, 300, 301, 302, 303, 304, 305, 306, 307, 308, 309, 310, 311, 312, 313, 
314, 315, 316, 317, 318, 319, 320, 321, 322, 323, 324, 325, 326, 327, 328, 329, 
330, 331, 332, 333, 334, 335, 336, 337, 338, 339, 340, 341, 342, 343, 344, 345, 
346, 347, 348, 349, 350, 351, 352, 353, 354, 355, 356, 357, 358, 359, 360, 361, 
362, 363, 364, 365, 366, 367, 368, 369, 370, 371, 372, 373, 374, 375, 376, 377, 
378, 379, 380, 381, 382, 383, 384, 385, 386, 387, 388, 389, 390, 391, 392, 393, 
586, 587, 588, 589, 590, 591, 592, 593, 594, 595, 596, 597, 598, 599, 600, 601, 
602, 603, 604, 605, 606, 607, 608, 609, 610, 611, 612, 613, 614, 615, 616, 617, 
618, 619, 620, 621, 622, 623, 624, 625, 626, 627, 628, 629, 630, 631, 632, 633, 
634, 635, 636, 637, 638, 639, 640, 641, 642, 643, 644, 645, 646, 647, 648, 649, 
650, 651, 652, 653, 654, 655, 656, 657, 658, 659, 660, 661, 662, 663, 664, 665, 
666, 667, 668, 669, 670, 671, 672, 673, 674, 675, 676, 677, 678, 679, 680, 681, 
682, 683, 684, 685, 686, 687, 688, 689, 690, 691, 692, 693, 694, 695, 696, 697, 
698, 699, 700, 701, 702, 703, 704, 705, 706, 707, 708, 709, 710, 711, 712, 713, 
714, 715, 716, 717, 718, 719, 720, 721, 722, 723, 724, 725, 726, 727, 728, 729, 
730, 731, 732, 733, 734, 735, 736, 737, 738, 739, 740, 741, 742, 743, 744, 745, 
746, 747, 748, 749, 750, 751, 752, 753, 754, 755, 756, 757, 758, 759, 760, 761, 
762, 763, 764, 765, 766, 767, 768, 769, 770, 771, 772, 773, 774, 775, 776, 777, 
778, 779, 780, 781, 782, 783, 784, 785, 786, 787, 788, 789, 790, 791, 792, 793, 
794, 795, 796, 797, 798, 799, 800, 801, 802, 803, 804, 805, 806, 807, 808, 809, 
810, 811, 812, 813, 814, 815, 816, 817, 818, 819, 820, 821, 822, 823, 824, 825, 
826, 827, 828, 829, 830, 831, 832, 833, 834, 835, 836, 837, 838, 839, 840, 841, 
842, 843, 844, 845, 846, 847, 848, 849, 850, 851, 852, 853, 854, 855, 856, 857, 
858, 859, 860, 861, 862, 863, 864, 865, 866, 867, 868, 869, 870, 871, 872, 873, 
874, 875, 876, 877, 878, 879, 880, 881, 882, 883, 884, 885, 886, 887, 888, 889, 
890, 891, 892, 893, 894, 895, 896, 897, 898, 899, 900, 901, 902, 903, 904, 905, 
906, 907, 908, 909, 910, 911, 912, 913, 914, 915, 916, 917, 918, 919, 920, 921, 
922, 923, 924, 925, 926, 927, 928, 929, 930, 931, 932, 933, 934, 935, 936, 937, 
938, 939, 940, 941, 942, 943, 944, 945, 946, 947, 948, 949, 950, 951, 952, 953, 
954, 955, 956, 957, 958, 959, 960, 961, 962, 963, 964, 965, 966, 967, 968, 969, 
970, 971, 972, 973, 974, 975, 976, 977, 978, 979, 980, 981, 982, 983, 984, 985, 
986, 987, 988, 989, 990, 991, 992, 993, 994, 995, 996, 997, 998, 999, 1000, 1001, 
1002, 1003, 1004, 1005, 1006, 1007, 1008, 1009, 1010, 1011, 1012, 1013, 1014, 1015, 1016, 1017, 
1018, 1019, 1020, 1021, 1022, 1023, 1024, 1025, 1026, 1027, 1028, 1029, 1030, 1031, 1032, 1033, 
1034, 1035, 1036, 1037, 1038, 1039, 1040, 1041, 1042, 1043, 1044, 1045, 1046, 1047, 1048, 1049, 
1050, 1051, 1052, 1053, 1054, 1055, 1056, 1057, 1058, 1059, 1060, 1061, 1062, 1063, 1064, 1065, 
1066, 1067, 1068, 1069, 1070, 1071, 1072, 1073, 1074, 1075, 1076, 1077, 1078, 1079, 1080, 1081, 
1082, 1083, 1084, 1085, 1086, 1087, 1088, 1089, 1090, 1091, 1092, 1093, 1094, 1095, 1096, 1097, 
1098, 1099, 1100, 1101, 1102, 1103, 1104, 1105, 1106, 1107, 1108, 1109, 1110, 1111, 1112, 1113, 
1114, 1115, 1116, 1117, 1118, 1119, 1120, 1121, 1122, 1123, 1124, 1125, 1126, 1127, 1128, 1129, 
1130, 1131, 1132, 1133, 1134, 1135, 1136, 1137, 1138, 1139, 1140, 1141, 1142, 1143, 1144, 1145, 
1146, 1147, 1148, 1149, 1150, 1151, 1152, 1153, 1154, 1155, 1156, 1157, 1158, 1159, 1160, 1161, 
1162, 1163, 1164, 1165, 1166, 1167, 1168, 1169, 1170, 1171, 1172, 1173, 1174, 1175, 1176, 1177, 
1178, 1179, 1180, 1181, 1182, 1183, 1184, 1185, 1186, 1187, 1188, 1189, 1190, 1191, 1192, 1193, 
1194, 1195, 1196, 1197, 1198, 1199, 1200, 1201, 1202, 1203, 1204, 1205, 1206, 1207, 1208, 1209, 
1210, 1211, 1212, 1213, 1214, 1215, 1216, 1217, 1218, 1219, 1220, 1221, 1222, 1223, 1224, 1225, 
1226, 1227, 1228, 1229, 1230, 1231, 1232, 1233, 1234, 1235, 1236, 1237, 1238, 1239, 1240, 1241, 
1242, 1243, 1244, 1245, 1246, 1247, 1248, 1249, 1250, 1251, 1252, 1253, 1254, 1255, 1256, 1257, 
1258, 1259, 1260, 1261, 1262, 1263, 1264, 1265, 1266, 1267, 1268, 1269, 1270, 1271, 1272, 1273, 
1274, 1275, 1276, 1277, 1278, 1279, 1280, 1281, 1282, 1283, 1284, 1285, 1286, 1287, 1288, 1289, 
1290, 1291, 1292, 1293, 1294, 1295, 1296, 1297, 1298, 1299, 1300, 1301, 1302, 1303, 1304, 1305, 
1306, 1307, 1308, 1309, 1310, 1311, 1312, 1313, 1314, 1315, 1316, 1317, 1318, 1319, 1320, 1321, 
1322, 1323, 1324, 1325, 1326, 1327, 1328, 1329, 1330, 1331, 1332, 1333, 1334, 1335, 1336, 1337, 
1338, 1339, 1340, 1341, 1342, 1343, 1344, 1345, 1346, 1347, 1348, 1349, 1350, 1351, 1352, 1353, 
1354, 1355, 1356, 1357, 1358, 1359, 1360, 1361, 1362, 1363, 1364, 1365, 1366, 1367, 1368, 1369, 
1370, 1371, 1372, 1373, 1374, 1375, 1376, 1377, 1378
*Nset, Nset=BlankHolder
10, 11, 12, 13, 394, 395, 396, 397, 398, 399, 400, 401, 402, 403, 404, 405, 
406, 407, 408, 409, 410, 411, 412, 413, 414, 415, 416, 417, 418, 419, 420, 421, 
1379, 1380, 1381, 1382, 1383, 1384, 1385, 1386, 1387, 1388, 1389, 1390, 1391, 1392, 1393, 1394, 
1395, 1396, 1397, 1398, 1399, 1400, 1401, 1402, 1403, 1404, 1405, 1406, 1407, 1408, 1409, 1410, 
1411, 1412, 1413, 1414, 1415, 1416, 1417
*Nset, Nset=Die
14, 15, 16, 17, 18, 422, 423, 424, 425, 426, 427, 428, 429, 430, 431, 432, 
433, 434, 435, 436, 437, 438, 439, 440, 441, 442, 443, 444, 445, 446, 447, 448, 
449, 450, 451, 452, 453, 454, 455, 456, 457, 458, 459, 460, 461, 462, 463, 464, 
465, 466, 467, 468, 469, 470, 471, 472, 473, 474, 475, 476, 1418, 1419, 1420, 1421, 
1422, 1423, 1424, 1425, 1426, 1427, 1428, 1429, 1430, 1431, 1432, 1433, 1434, 1435, 1436, 1437, 
1438, 1439, 1440, 1441, 1442, 1443, 1444, 1445, 1446, 1447, 1448, 1449, 1450, 1451, 1452, 1453, 
1454, 1455, 1456, 1457, 1458, 1459, 1460, 1461, 1462, 1463, 1464, 1465, 1466, 1467, 1468, 1469, 
1470, 1471, 1472, 1473, 1474, 1475, 1476, 1477, 1478, 1479, 1480, 1481, 1482, 1483, 1484, 1485, 
1486, 1487, 1488, 1489, 1490, 1491, 1492, 1493, 1494, 1495, 1496, 1497, 1498, 1499, 1500, 1501, 
1502, 1503, 1504, 1505, 1506, 1507, 1508, 1509, 1510, 1511, 1512, 1513, 1514, 1515, 1516, 1517, 
1518, 1519, 1520, 1521, 1522, 1523, 1524, 1525, 1526, 1527, 1528, 1529, 1530, 1531, 1532, 1533, 
1534, 1535, 1536, 1537, 1538, 1539, 1540, 1541, 1542, 1543, 1544, 1545, 1546, 1547, 1548, 1549, 
1550, 1551, 1552, 1553, 1554, 1555, 1556, 1557, 1558, 1559, 1560, 1561, 1562, 1563, 1564, 1565, 
1566, 1567, 1568, 1569, 1570, 1571, 1572, 1573, 1574, 1575, 1576, 1577, 1578, 1579, 1580, 1581, 
1582, 1583, 1584, 1585, 1586, 1587, 1588, 1589
*Nset, Nset=Internal_Selection-1_Displacement_Rotation-1
4, 5, 44, 45, 46, 47, 48, 49, 50
*Nset, Nset=Internal_Selection-1_Fixed-1
12, 13, 408, 409, 410, 411, 412, 413, 414
*Nset, Nset=Internal_Selection-1_Fixed-2
16, 17, 448, 449, 450, 451, 452, 453, 454
*Nset, Nset=Internal-1_Internal_Selection-1_Contact_Punch_blank_Master
1, 2, 3, 4, 19, 20, 21, 22, 23, 24, 25, 26, 27, 28, 29, 30, 
31, 32, 33, 34, 35, 36, 37, 38, 39, 40, 41, 42, 43
*Nset, Nset=Internal-1_Internal_Selection-1_Contact_Punch_blank_Slave
8, 9, 228, 229, 230, 231, 232, 233, 234, 235, 236, 237, 238, 239, 240, 241, 
242, 243, 244, 245, 246, 247, 248, 249, 250, 251, 252, 253, 254, 255, 256, 257, 
258, 259, 260, 261, 262, 263, 264, 265, 266, 267, 268, 269, 270, 271, 272, 273, 
274, 275, 276, 277, 278, 279, 280, 281, 282, 283, 284, 285, 286, 287, 288, 289, 
290, 291, 292, 293, 294, 295, 296, 297, 298, 299, 300, 301, 302, 303, 304, 305, 
306, 307, 308, 309, 310, 311, 312, 313, 314, 315, 316, 317, 318, 319, 320, 321, 
322, 323, 324, 325, 326, 327, 328, 329, 330, 331, 332, 333, 334, 335, 336, 337, 
338, 339, 340, 341, 342, 343, 344, 345, 346, 347, 348, 349, 350, 351, 352, 353, 
354, 355, 356, 357, 358, 359, 360, 361, 362, 363, 364, 365, 366, 367, 368, 369, 
370, 371, 372, 373, 374, 375, 376, 377, 378, 379, 380, 381, 382, 383, 384, 385, 
386
*Nset, Nset=Internal-1_Internal_Selection-1_Contact_Holder_blank_Master
10, 11, 394, 395, 396, 397, 398, 399, 400, 401, 402, 403, 404
*Nset, Nset=Internal-1_Internal_Selection-1_Contact_Holder_blank_Slave
8, 9, 228, 229, 230, 231, 232, 233, 234, 235, 236, 237, 238, 239, 240, 241, 
242, 243, 244, 245, 246, 247, 248, 249, 250, 251, 252, 253, 254, 255, 256, 257, 
258, 259, 260, 261, 262, 263, 264, 265, 266, 267, 268, 269, 270, 271, 272, 273, 
274, 275, 276, 277, 278, 279, 280, 281, 282, 283, 284, 285, 286, 287, 288, 289, 
290, 291, 292, 293, 294, 295, 296, 297, 298, 299, 300, 301, 302, 303, 304, 305, 
306, 307, 308, 309, 310, 311, 312, 313, 314, 315, 316, 317, 318, 319, 320, 321, 
322, 323, 324, 325, 326, 327, 328, 329, 330, 331, 332, 333, 334, 335, 336, 337, 
338, 339, 340, 341, 342, 343, 344, 345, 346, 347, 348, 349, 350, 351, 352, 353, 
354, 355, 356, 357, 358, 359, 360, 361, 362, 363, 364, 365, 366, 367, 368, 369, 
370, 371, 372, 373, 374, 375, 376, 377, 378, 379, 380, 381, 382, 383, 384, 385, 
386
*Nset, Nset=Internal-1_Internal_Selection-1_Contact_Die_blank_Master
14, 15, 17, 18, 422, 423, 424, 425, 426, 427, 428, 429, 430, 431, 432, 455, 
456, 457, 458, 459, 460, 461, 462, 463, 464, 465, 466, 467, 468, 469, 470, 471, 
472, 473, 474, 475, 476
*Nset, Nset=Internal-1_Internal_Selection-1_Contact_Die_blank_Slave
6, 7, 62, 63, 64, 65, 66, 67, 68, 69, 70, 71, 72, 73, 74, 75, 
76, 77, 78, 79, 80, 81, 82, 83, 84, 85, 86, 87, 88, 89, 90, 91, 
92, 93, 94, 95, 96, 97, 98, 99, 100, 101, 102, 103, 104, 105, 106, 107, 
108, 109, 110, 111, 112, 113, 114, 115, 116, 117, 118, 119, 120, 121, 122, 123, 
124, 125, 126, 127, 128, 129, 130, 131, 132, 133, 134, 135, 136, 137, 138, 139, 
140, 141, 142, 143, 144, 145, 146, 147, 148, 149, 150, 151, 152, 153, 154, 155, 
156, 157, 158, 159, 160, 161, 162, 163, 164, 165, 166, 167, 168, 169, 170, 171, 
172, 173, 174, 175, 176, 177, 178, 179, 180, 181, 182, 183, 184, 185, 186, 187, 
188, 189, 190, 191, 192, 193, 194, 195, 196, 197, 198, 199, 200, 201, 202, 203, 
204, 205, 206, 207, 208, 209, 210, 211, 212, 213, 214, 215, 216, 217, 218, 219, 
220
**
** Element sets ++++++++++++++++++++++++++++++++++++++++++++
**
*Elset, Elset=Surface11
233, 234, 235, 236, 237, 238, 239, 240, 241, 242, 243, 244, 245, 246, 247, 248, 
249, 250, 251, 252, 253, 254, 255, 256, 257, 258, 259, 260, 261, 262, 263, 264, 
265, 266, 267, 268, 269, 270, 271, 272, 273, 274, 275, 276
*Elset, Elset=Surface21
277, 278, 279, 280, 281, 282, 283, 284, 285, 286, 287, 288, 289, 290, 291, 292, 
293, 294, 295, 296, 297, 298, 299, 300, 301, 302, 303, 304, 305, 306, 307, 308, 
309, 310, 311, 312, 313, 314, 315, 316, 317, 318, 319, 320, 321, 322, 323, 324, 
325, 326, 327, 328, 329, 330, 331, 332, 333, 334, 335, 336, 337, 338, 339, 340, 
341, 342, 343, 344, 345, 346, 347, 348, 349, 350, 351, 352, 353, 354, 355, 356, 
357, 358, 359, 360, 361, 362, 363, 364, 365, 366, 367, 368, 369, 370, 371, 372, 
373, 374, 375, 376, 377, 378, 379, 380, 381, 382, 383, 384, 385, 386, 387, 388, 
389, 390, 391, 392, 393, 394, 395, 396, 397, 398, 399, 400, 401, 402, 403, 404, 
405, 406, 407, 408, 409, 410, 411, 412, 413, 414, 415, 416, 417, 418, 419, 420, 
421, 422, 423, 424, 425, 426, 427, 428, 429, 430, 431, 432, 433, 434, 435, 436, 
437, 438, 439, 440, 441, 442, 443, 444, 445, 446, 447, 448, 449, 450, 451, 452, 
453, 454, 455, 456, 457, 458, 459, 460, 461, 462, 463, 464, 465, 466, 467, 468, 
469, 470, 471, 472, 473, 474, 475, 476, 477, 478, 479, 480, 481, 482, 483, 484, 
485, 486, 487, 488, 489, 490, 491, 492, 493, 494, 495, 496, 497, 498, 499, 500, 
501, 502, 503, 504, 505, 506, 507, 508, 509, 510, 511, 512, 513, 514, 515, 516, 
517, 518, 519, 520, 521, 522, 523, 524, 525, 526, 527, 528, 529, 530, 531, 532, 
533, 534, 535, 536, 537, 538, 539, 540, 541, 542, 543, 544, 545, 546, 547, 548, 
549, 550, 551, 552, 553, 554, 555, 556, 557, 558, 559, 560, 561, 562, 563, 564, 
565, 566, 567, 568, 569, 570, 571, 572, 573, 574, 575, 576, 577, 578, 579, 580, 
581, 582, 583, 584, 585, 586, 587, 588, 589, 590, 591, 592, 593, 594, 595, 596
*Elset, Elset=Surface31
597, 598, 599, 600, 601, 602, 603, 604, 605, 606, 607, 608, 609, 610, 611, 612, 
613, 614
*Elset, Elset=Surface41
615, 616, 617, 618, 619, 620, 621, 622, 623, 624, 625, 626, 627, 628, 629, 630, 
631, 632, 633, 634, 635, 636, 637, 638, 639, 640, 641, 642, 643, 644, 645, 646, 
647, 648, 649, 650, 651, 652, 653, 654, 655, 656, 657, 658, 659, 660, 661, 662, 
663, 664, 665, 666, 667, 668, 669, 670, 671, 672, 673, 674, 675, 676, 677, 678, 
679, 680, 681
*Elset, Elset=Punch
233, 234, 235, 236, 237, 238, 239, 240, 241, 242, 243, 244, 245, 246, 247, 248, 
249, 250, 251, 252, 253, 254, 255, 256, 257, 258, 259, 260, 261, 262, 263, 264, 
265, 266, 267, 268, 269, 270, 271, 272, 273, 274, 275, 276
*Elset, Elset=Blank
277, 278, 279, 280, 281, 282, 283, 284, 285, 286, 287, 288, 289, 290, 291, 292, 
293, 294, 295, 296, 297, 298, 299, 300, 301, 302, 303, 304, 305, 306, 307, 308, 
309, 310, 311, 312, 313, 314, 315, 316, 317, 318, 319, 320, 321, 322, 323, 324, 
325, 326, 327, 328, 329, 330, 331, 332, 333, 334, 335, 336, 337, 338, 339, 340, 
341, 342, 343, 344, 345, 346, 347, 348, 349, 350, 351, 352, 353, 354, 355, 356, 
357, 358, 359, 360, 361, 362, 363, 364, 365, 366, 367, 368, 369, 370, 371, 372, 
373, 374, 375, 376, 377, 378, 379, 380, 381, 382, 383, 384, 385, 386, 387, 388, 
389, 390, 391, 392, 393, 394, 395, 396, 397, 398, 399, 400, 401, 402, 403, 404, 
405, 406, 407, 408, 409, 410, 411, 412, 413, 414, 415, 416, 417, 418, 419, 420, 
421, 422, 423, 424, 425, 426, 427, 428, 429, 430, 431, 432, 433, 434, 435, 436, 
437, 438, 439, 440, 441, 442, 443, 444, 445, 446, 447, 448, 449, 450, 451, 452, 
453, 454, 455, 456, 457, 458, 459, 460, 461, 462, 463, 464, 465, 466, 467, 468, 
469, 470, 471, 472, 473, 474, 475, 476, 477, 478, 479, 480, 481, 482, 483, 484, 
485, 486, 487, 488, 489, 490, 491, 492, 493, 494, 495, 496, 497, 498, 499, 500, 
501, 502, 503, 504, 505, 506, 507, 508, 509, 510, 511, 512, 513, 514, 515, 516, 
517, 518, 519, 520, 521, 522, 523, 524, 525, 526, 527, 528, 529, 530, 531, 532, 
533, 534, 535, 536, 537, 538, 539, 540, 541, 542, 543, 544, 545, 546, 547, 548, 
549, 550, 551, 552, 553, 554, 555, 556, 557, 558, 559, 560, 561, 562, 563, 564, 
565, 566, 567, 568, 569, 570, 571, 572, 573, 574, 575, 576, 577, 578, 579, 580, 
581, 582, 583, 584, 585, 586, 587, 588, 589, 590, 591, 592, 593, 594, 595, 596
*Elset, Elset=BlankHolder
597, 598, 599, 600, 601, 602, 603, 604, 605, 606, 607, 608, 609, 610, 611, 612, 
613, 614
*Elset, Elset=Die
615, 616, 617, 618, 619, 620, 621, 622, 623, 624, 625, 626, 627, 628, 629, 630, 
631, 632, 633, 634, 635, 636, 637, 638, 639, 640, 641, 642, 643, 644, 645, 646, 
647, 648, 649, 650, 651, 652, 653, 654, 655, 656, 657, 658, 659, 660, 661, 662, 
663, 664, 665, 666, 667, 668, 669, 670, 671, 672, 673, 674, 675, 676, 677, 678, 
679, 680, 681
*Elset, Elset=Internal_Selection-1_steel_rigid_body
Punch_, 
Holder_, 
Die_
*Elset, Elset=Internal_Selection-1_all
Blank_
*Elset, Elset=Internal-1_Internal_Selection-1_Contact_Punch_blank_Master_S5
248
*Elset, Elset=Internal-1_Internal_Selection-1_Contact_Punch_blank_Master_S6
248, 253, 255, 257, 259, 262
*Elset, Elset=Internal-1_Internal_Selection-1_Contact_Punch_blank_Master_S3
251, 261, 268, 273, 275, 276
*Elset, Elset=Internal-1_Internal_Selection-1_Contact_Punch_blank_Master_S4
256
*Elset, Elset=Internal-1_Internal_Selection-1_Contact_Punch_blank_Slave_S5
280, 284, 288, 292, 296, 300, 304, 308, 312, 316, 320, 324, 328, 332, 336, 340, 
344, 348, 352, 356, 360, 364, 368, 372, 376, 380, 384, 388, 392, 396, 400, 404, 
408, 412, 416, 420, 424, 428, 432, 436, 440, 444, 448, 452, 456, 460, 464, 468, 
472, 476, 480, 484, 488, 492, 496, 500, 504, 508, 512, 516, 520, 524, 528, 532, 
536, 540, 544, 548, 552, 556, 560, 564, 568, 572, 576, 580, 584, 588, 592, 596
*Elset, Elset=Internal-1_Internal_Selection-1_Contact_Holder_blank_Master_S4
600
*Elset, Elset=Internal-1_Internal_Selection-1_Contact_Holder_blank_Master_S3
601, 602, 603, 610
*Elset, Elset=Internal-1_Internal_Selection-1_Contact_Holder_blank_Master_S6
605
*Elset, Elset=Internal-1_Internal_Selection-1_Contact_Holder_blank_Slave_S5
280, 284, 288, 292, 296, 300, 304, 308, 312, 316, 320, 324, 328, 332, 336, 340, 
344, 348, 352, 356, 360, 364, 368, 372, 376, 380, 384, 388, 392, 396, 400, 404, 
408, 412, 416, 420, 424, 428, 432, 436, 440, 444, 448, 452, 456, 460, 464, 468, 
472, 476, 480, 484, 488, 492, 496, 500, 504, 508, 512, 516, 520, 524, 528, 532, 
536, 540, 544, 548, 552, 556, 560, 564, 568, 572, 576, 580, 584, 588, 592, 596
*Elset, Elset=Internal-1_Internal_Selection-1_Contact_Die_blank_Master_S6
635, 636, 637, 639, 642, 648, 649, 650, 654, 670
*Elset, Elset=Internal-1_Internal_Selection-1_Contact_Die_blank_Master_S5
640, 645
*Elset, Elset=Internal-1_Internal_Selection-1_Contact_Die_blank_Master_S3
643, 651, 652, 672
*Elset, Elset=Internal-1_Internal_Selection-1_Contact_Die_blank_Master_S4
647, 651
*Elset, Elset=Internal-1_Internal_Selection-1_Contact_Die_blank_Slave_S3
277, 281, 285, 289, 293, 297, 301, 305, 309, 313, 317, 321, 325, 329, 333, 337, 
341, 345, 349, 353, 357, 361, 365, 369, 373, 377, 381, 385, 389, 393, 397, 401, 
405, 409, 413, 417, 421, 425, 429, 433, 437, 441, 445, 449, 453, 457, 461, 465, 
469, 473, 477, 481, 485, 489, 493, 497, 501, 505, 509, 513, 517, 521, 525, 529, 
533, 537, 541, 545, 549, 553, 557, 561, 565, 569, 573, 577, 581, 585, 589, 593
**
** Surfaces ++++++++++++++++++++++++++++++++++++++++++++++++
**
*Surface, Name=Internal_Selection-1_Contact_Punch_blank_Master, Type=Element
Internal-1_Internal_Selection-1_Contact_Punch_blank_Master_S5, S3
Internal-1_Internal_Selection-1_Contact_Punch_blank_Master_S6, S4
Internal-1_Internal_Selection-1_Contact_Punch_blank_Master_S3, S1
Internal-1_Internal_Selection-1_Contact_Punch_blank_Master_S4, S2
*Surface, Name=Internal_Selection-1_Contact_Punch_blank_Slave, Type=Element
Internal-1_Internal_Selection-1_Contact_Punch_blank_Slave_S5, S3
*Surface, Name=Internal_Selection-1_Contact_Holder_blank_Master, Type=Element
Internal-1_Internal_Selection-1_Contact_Holder_blank_Master_S4, S2
Internal-1_Internal_Selection-1_Contact_Holder_blank_Master_S3, S1
Internal-1_Internal_Selection-1_Contact_Holder_blank_Master_S6, S4
*Surface, Name=Internal_Selection-1_Contact_Holder_blank_Slave, Type=Element
Internal-1_Internal_Selection-1_Contact_Holder_blank_Slave_S5, S3
*Surface, Name=Internal_Selection-1_Contact_Die_blank_Master, Type=Element
Internal-1_Internal_Selection-1_Contact_Die_blank_Master_S6, S4
Internal-1_Internal_Selection-1_Contact_Die_blank_Master_S5, S3
Internal-1_Internal_Selection-1_Contact_Die_blank_Master_S3, S1
Internal-1_Internal_Selection-1_Contact_Die_blank_Master_S4, S2
*Surface, Name=Internal_Selection-1_Contact_Die_blank_Slave, Type=Element
Internal-1_Internal_Selection-1_Contact_Die_blank_Slave_S3, S1
**
** Physical constants ++++++++++++++++++++++++++++++++++++++
**
**
** Coordinate systems ++++++++++++++++++++++++++++++++++++++
**
**
** Materials +++++++++++++++++++++++++++++++++++++++++++++++
**
*Material, Name=S185
*Density
7.8E-09
*Elastic
210000, 0.28
*Expansion, Zero=20
1.1E-05
*Conductivity
14
*Specific heat
440000000
*Material, Name=1060_Alloy
*Density
2.7E-09
*Elastic69000, 0.33
*Expansion, Zero=20
2.4E-05
*Conductivity
200
*Specific heat
900000000
*Plastic
30, 0
35, 0.02
40, 0.06
45, 0.12
50, 0.2
60, 0.3
70, 0.4
**
** Sections ++++++++++++++++++++++++++++++++++++++++++++++++
**
*Solid section, Elset=Internal_Selection-1_steel_rigid_body, Material=S185
1
*Solid section, Elset=Internal_Selection-1_all, Material=1060_Alloy
1
**
** Pre-tension sections ++++++++++++++++++++++++++++++++++++
**
**
** Constraints +++++++++++++++++++++++++++++++++++++++++++++
**
**
** Surface interactions ++++++++++++++++++++++++++++++++++++
**
*Surface interaction, Name=Surface_Interaction-1
*Surface behavior, Pressure-overclosure=Linear
1000, 1000
*Friction
0.03
**
** Contact pairs +++++++++++++++++++++++++++++++++++++++++++
**
*Contact pair, Interaction=Surface_Interaction-1, Type=Surface to surface, Adjust=0.01
Internal_Selection-1_Contact_Punch_blank_Slave, Internal_Selection-1_Contact_Punch_blank_Master
*Contact pair, Interaction=Surface_Interaction-1, Type=Surface to surface, Adjust=0.1
Internal_Selection-1_Contact_Holder_blank_Slave, Internal_Selection-1_Contact_Holder_blank_Master
*Contact pair, Interaction=Surface_Interaction-1, Type=Surface to surface, Adjust=0.1
Internal_Selection-1_Contact_Die_blank_Slave, Internal_Selection-1_Contact_Die_blank_Master
**
** Amplitudes ++++++++++++++++++++++++++++++++++++++++++++++
**
**
** Initial conditions ++++++++++++++++++++++++++++++++++++++
**
**
** Steps +++++++++++++++++++++++++++++++++++++++++++++++++++
**
**
** Step-5mm ++++++++++++++++++++++++++++++++++++++++++++++++
**
*Step, Nlgeom, Inc=1000
*Static
0.001, 0.5, 1E-10, 0.01
**
** Controls ++++++++++++++++++++++++++++++++++++++++++++++++
**
**
** Output frequency ++++++++++++++++++++++++++++++++++++++++
**
**
** Boundary conditions +++++++++++++++++++++++++++++++++++++
**
*Boundary, op=New
** Name: Displacement_Rotation-1
*Boundary
Internal_Selection-1_Displacement_Rotation-1, 2, 2, -5
** Name: Fixed-1
*Boundary
Internal_Selection-1_Fixed-1, 1, 2, 0

** Name: Fixed-2
*Boundary
Internal_Selection-1_Fixed-2, 1, 2, 0

**
** Loads +++++++++++++++++++++++++++++++++++++++++++++++++++
**
*Cload, op=New
*Dload, op=New
**
** Defined fields ++++++++++++++++++++++++++++++++++++++++++
**
**
** History outputs +++++++++++++++++++++++++++++++++++++++++
**
**
** Field outputs +++++++++++++++++++++++++++++++++++++++++++
**
*Node file
RF, U
*El file
S, PHS, E, ME, PEEQ, NOE
**
** End step ++++++++++++++++++++++++++++++++++++++++++++++++
**
*End step
**
** Step-8mm ++++++++++++++++++++++++++++++++++++++++++++++++
**
*Step, Nlgeom, Inc=1000
*Static
0.001, 0.5, 1E-10, 0.01
**
** Controls ++++++++++++++++++++++++++++++++++++++++++++++++
**
**
** Output frequency ++++++++++++++++++++++++++++++++++++++++
**
**
** Boundary conditions +++++++++++++++++++++++++++++++++++++
**
*Boundary, op=New
** Name: Displacement_Rotation-1
*Boundary
Internal_Selection-1_Displacement_Rotation-1, 2, 2, -8
** Name: Fixed-1
*Boundary
Internal_Selection-1_Fixed-1, 1, 2, 0

** Name: Fixed-2
*Boundary
Internal_Selection-1_Fixed-2, 1, 2, 0

**
** Loads +++++++++++++++++++++++++++++++++++++++++++++++++++
**
*Cload, op=New
*Dload, op=New
**
** Defined fields ++++++++++++++++++++++++++++++++++++++++++
**
**
** History outputs +++++++++++++++++++++++++++++++++++++++++
**
**
** Field outputs +++++++++++++++++++++++++++++++++++++++++++
**
*Node file
RF, U
*El file
S, PHS, E, ME, PEEQ, NOE
**
** End step ++++++++++++++++++++++++++++++++++++++++++++++++
**
*End step
**
** Step-10mm +++++++++++++++++++++++++++++++++++++++++++++++
**
*Step, Nlgeom, Inc=1000
*Static
0.001, 1, 1E-10, 0.01
**
** Controls ++++++++++++++++++++++++++++++++++++++++++++++++
**
**
** Output frequency ++++++++++++++++++++++++++++++++++++++++
**
**
** Boundary conditions +++++++++++++++++++++++++++++++++++++
**
*Boundary, op=New
** Name: Displacement_Rotation-1
*Boundary
Internal_Selection-1_Displacement_Rotation-1, 2, 2, -10
** Name: Fixed-1
*Boundary
Internal_Selection-1_Fixed-1, 1, 2, 0

** Name: Fixed-2
*Boundary
Internal_Selection-1_Fixed-2, 1, 2, 0

**
** Loads +++++++++++++++++++++++++++++++++++++++++++++++++++
**
*Cload, op=New
*Dload, op=New
**
** Defined fields ++++++++++++++++++++++++++++++++++++++++++
**
**
** History outputs +++++++++++++++++++++++++++++++++++++++++
**
**
** Field outputs +++++++++++++++++++++++++++++++++++++++++++
**
*Node file
RF, U
*El file
S, PHS, E, ME, PEEQ, NOE
**
** End step ++++++++++++++++++++++++++++++++++++++++++++++++
**
*End step
**
** Step-17mm +++++++++++++++++++++++++++++++++++++++++++++++
**
*Step, Nlgeom, Inc=1000
*Static
0.001, 1.5, 1E-10, 0.01
**
** Controls ++++++++++++++++++++++++++++++++++++++++++++++++
**
**
** Output frequency ++++++++++++++++++++++++++++++++++++++++
**
**
** Boundary conditions +++++++++++++++++++++++++++++++++++++
**
*Boundary, op=New
** Name: Displacement_Rotation-1
*Boundary
Internal_Selection-1_Displacement_Rotation-1, 2, 2, -17
** Name: Fixed-1
*Boundary
Internal_Selection-1_Fixed-1, 1, 2, 0

** Name: Fixed-2
*Boundary
Internal_Selection-1_Fixed-2, 1, 2, 0

**
** Loads +++++++++++++++++++++++++++++++++++++++++++++++++++
**
*Cload, op=New
*Dload, op=New
**
** Defined fields ++++++++++++++++++++++++++++++++++++++++++
**
**
** History outputs +++++++++++++++++++++++++++++++++++++++++
**
**
** Field outputs +++++++++++++++++++++++++++++++++++++++++++
**
*Node file
RF, U
*El file
S, PHS, E, ME, PEEQ, NOE
**
** End step ++++++++++++++++++++++++++++++++++++++++++++++++
**
*End step
**
** Step-20mm +++++++++++++++++++++++++++++++++++++++++++++++
**
*Step, Nlgeom, Inc=1000
*Static
0.001, 2, 1E-10, 0.01
**
** Controls ++++++++++++++++++++++++++++++++++++++++++++++++
**
**
** Output frequency ++++++++++++++++++++++++++++++++++++++++
**
**
** Boundary conditions +++++++++++++++++++++++++++++++++++++
**
*Boundary, op=New
** Name: Displacement_Rotation-1
*Boundary
Internal_Selection-1_Displacement_Rotation-1, 2, 2, -20
** Name: Fixed-1
*Boundary
Internal_Selection-1_Fixed-1, 1, 2, 0

** Name: Fixed-2
*Boundary
Internal_Selection-1_Fixed-2, 1, 2, 0

**
** Loads +++++++++++++++++++++++++++++++++++++++++++++++++++
**
*Cload, op=New
*Dload, op=New
**
** Defined fields ++++++++++++++++++++++++++++++++++++++++++
**
**
** History outputs +++++++++++++++++++++++++++++++++++++++++
**
**
** Field outputs +++++++++++++++++++++++++++++++++++++++++++
**
*Node file
RF, U
*El file
S, PHS, E, ME, PEEQ, NOE
**
** End step ++++++++++++++++++++++++++++++++++++++++++++++++
**
*End step
**
** Step-17mm_upward ++++++++++++++++++++++++++++++++++++++++
**
*Step, Nlgeom, Inc=1000
*Static
0.001, 2, 1E-10, 0.01
**
** Controls ++++++++++++++++++++++++++++++++++++++++++++++++
**
**
** Output frequency ++++++++++++++++++++++++++++++++++++++++
**
**
** Boundary conditions +++++++++++++++++++++++++++++++++++++
**
*Boundary, op=New
** Name: Displacement_Rotation-1
*Boundary
Internal_Selection-1_Displacement_Rotation-1, 2, 2, -17
** Name: Fixed-1
*Boundary
Internal_Selection-1_Fixed-1, 1, 2, 0

** Name: Fixed-2
*Boundary
Internal_Selection-1_Fixed-2, 1, 2, 0

**
** Loads +++++++++++++++++++++++++++++++++++++++++++++++++++
**
*Cload, op=New
*Dload, op=New
**
** Defined fields ++++++++++++++++++++++++++++++++++++++++++
**
**
** History outputs +++++++++++++++++++++++++++++++++++++++++
**
**
** Field outputs +++++++++++++++++++++++++++++++++++++++++++
**
*Node file
RF, U
*El file
S, PHS, E, ME, PEEQ, NOE
**
** End step ++++++++++++++++++++++++++++++++++++++++++++++++
**
*End step
