*NODE, NSET=Nall
       1,-2.756411739741e+02,1.595137243979e+03,-4.097809140041e+02
       2,2.751845159932e+02,1.595317915975e+03,-4.099195393957e+02
       3,-2.754255040039e+02,1.594764373998e+03,4.007548179838e+01
       4,2.753893619942e+02,1.595551434051e+03,3.996970680058e+01
       5,-2.968216003850e+02,1.665440998380e+03,-5.807338799876e+03
       6,2.601528601721e+02,1.550798998554e+03,-5.810641954030e+03
       7,-3.016360002570e+02,1.679467596453e+03,-5.360328563983e+03
       8,2.554217997007e+02,1.535627800380e+03,-5.359110045974e+03
       9,-1.617500019068e+03,1.699405949296e-05,1.282499873730e+03
      10,-1.617509731020e+03,1.192904051095e-02,8.674862441405e+02
      11,-1.617114228000e+03,4.671019996748e-01,-4.532586398447e+01
      12,-1.617516573620e+03,1.873126052488e-02,6.149845171999e+02
      13,6.284839764766e-01,1.634674619716e+03,-9.383793702034e+03
      14,2.524360024842e+00,-1.623764260155e+03,-9.384684588001e+03
      15,1.984222035396e+00,-1.622470920272e+03,-7.384692771999e+03
      16,-2.161940073452e-02,-1.617540056402e+03,8.675257088004e+02
      17,1.620679560008e+03,-4.903680019188e-01,-2.704940399998e+03
      18,1.620269319981e+03,1.070807993528e+00,-3.405530787984e+03
      19,1.617499975336e+03,-1.712918029639e-05,1.282500085880e+03
      20,-3.806478071550e-01,1.617398713204e+03,-6.847956580046e+02
      21,1.941763059946e+02,1.605840296601e+03,-6.043475269995e+02
      22,-1.949075319868e+02,1.606110537990e+03,-6.041915180088e+02
      23,-2.756988120003e+02,1.595538244049e+03,-1.848601116022e+02
      24,-4.677120609420e-02,1.617265766006e+03,3.149851928396e+02
      25,-1.945743937992e+02,1.605729175002e+03,2.344865845989e+02
      26,1.945070718017e+02,1.606009454002e+03,2.344183117995e+02
      27,2.755810199946e+02,1.596438580067e+03,-1.849682158000e+02
      28,-2.976058085501e+00,1.619873860043e+03,-6.083735380068e+03
      29,-2.009096400431e+02,1.623138559493e+03,-6.002474757945e+03
      30,1.897853401175e+02,1.599273559963e+03,-6.004103650011e+03
      31,-3.100201991387e+02,1.709705796432e+03,-5.583528339929e+03
      32,-6.216381816607e+00,1.617716417993e+03,-5.084893506401e+03
      33,1.854685399300e+02,1.586814540182e+03,-5.164964093988e+03
      34,-2.051170997589e+02,1.632529200264e+03,-5.165849444000e+03
      35,2.497243989259e+02,1.514491401953e+03,-5.585161500193e+03
      36,-1.597590013047e+03,2.530330264870e+02,1.282499869525e+03
      37,-1.538329987166e+03,4.998349925684e+02,1.282499914743e+03
      38,-1.441199989545e+03,7.343299652048e+02,1.282500044511e+03
      39,-1.308579971511e+03,9.507429401460e+02,1.282500206826e+03
      40,-1.143749964216e+03,1.143749913387e+03,1.282500320988e+03
      41,-9.507429802982e+02,1.308579913100e+03,1.282500364664e+03
      42,-7.343299954043e+02,1.441199949632e+03,1.282500326758e+03
      43,-4.998349884919e+02,1.538329989460e+03,1.282500221860e+03
      44,-2.530329768988e+02,1.597589993618e+03,1.282500100320e+03
      45,1.554712531071e-05,1.617499989356e+03,1.282500008490e+03
      46,2.530330082124e+02,1.597590005346e+03,1.282499961397e+03
      47,4.998350182448e+02,1.538330014432e+03,1.282499931843e+03
      48,7.343300250184e+02,1.441200006093e+03,1.282499881317e+03
      49,9.507430217890e+02,1.308580009241e+03,1.282499808991e+03
      50,1.143750027320e+03,1.143750031788e+03,1.282499752262e+03
      51,1.308580044059e+03,9.507430463872e+02,1.282499748212e+03
      52,1.441200052322e+03,7.343300352422e+02,1.282499805742e+03
      53,1.538330037782e+03,4.998350086903e+02,1.282499901105e+03
      54,1.597590007170e+03,2.530329878578e+02,1.282500002847e+03
      55,1.597589953295e+03,-2.530330072797e+02,1.282500134216e+03
      56,1.538329948142e+03,-4.998349896168e+02,1.282500142040e+03
      57,1.441199960277e+03,-7.343299730620e+02,1.282500112868e+03
      58,1.308579986639e+03,-9.507429675980e+02,1.282500059922e+03
      59,1.143750016217e+03,-1.143749977946e+03,1.282500002856e+03
      60,9.507430346170e+02,-1.308579999070e+03,1.282499964098e+03
      61,7.343300343690e+02,-1.441200019242e+03,1.282499960593e+03
      62,4.998350179939e+02,-1.538330025746e+03,1.282499997026e+03
      63,2.530329965381e+02,-1.597590010963e+03,1.282500065047e+03
      64,-1.449158225137e-05,-1.617499976077e+03,1.282500143662e+03
      65,-2.530330050783e+02,-1.597589938692e+03,1.282500205614e+03
      66,-4.998349805845e+02,-1.538329922584e+03,1.282500220988e+03
      67,-7.343299654792e+02,-1.441199943338e+03,1.282500167856e+03
      68,-9.507429886432e+02,-1.308579993354e+03,1.282500040334e+03
      69,-1.143750053327e+03,-1.143750036988e+03,1.282499855399e+03
      70,-1.308580109879e+03,-9.507430409226e+02,1.282499693956e+03
      71,-1.441200113762e+03,-7.343300217812e+02,1.282499559112e+03
      72,-1.538330040902e+03,-4.998350123067e+02,1.282499755738e+03
      73,-1.597589995668e+03,-2.530330114825e+02,1.282499807655e+03
      74,-1.612510000000e+03,1.269080000000e+02,1.282500000000e+03
      75,-1.572810000000e+03,3.775980000000e+02,1.282500000000e+03
      76,-1.494380000000e+03,6.189900000000e+02,1.282500000000e+03
      77,-1.379150000000e+03,8.451410000000e+02,1.282500000000e+03
      78,-1.229960000000e+03,1.050480000000e+03,1.282500000000e+03
      79,-1.050480000000e+03,1.229960000000e+03,1.282500000000e+03
      80,-8.451410000000e+02,1.379150000000e+03,1.282500000000e+03
      81,-6.189900000000e+02,1.494380000000e+03,1.282500000000e+03
      82,-3.775980000000e+02,1.572810000000e+03,1.282500000000e+03
      83,-1.269080000000e+02,1.612510000000e+03,1.282500000000e+03
      84,1.269080000000e+02,1.612510000000e+03,1.282500000000e+03
      85,3.775980000000e+02,1.572810000000e+03,1.282500000000e+03
      86,6.189900000000e+02,1.494380000000e+03,1.282500000000e+03
      87,8.451410000000e+02,1.379150000000e+03,1.282500000000e+03
      88,1.050480000000e+03,1.229960000000e+03,1.282500000000e+03
      89,1.229960000000e+03,1.050480000000e+03,1.282500000000e+03
      90,1.379150000000e+03,8.451410000000e+02,1.282500000000e+03
      91,1.494380000000e+03,6.189900000000e+02,1.282500000000e+03
      92,1.572810000000e+03,3.775980000000e+02,1.282500000000e+03
      93,1.612510000000e+03,1.269080000000e+02,1.282500000000e+03
      94,1.612510000000e+03,-1.269080000000e+02,1.282500000000e+03
      95,1.572810000000e+03,-3.775980000000e+02,1.282500000000e+03
      96,1.494380000000e+03,-6.189900000000e+02,1.282500000000e+03
      97,1.379150000000e+03,-8.451410000000e+02,1.282500000000e+03
      98,1.229960000000e+03,-1.050480000000e+03,1.282500000000e+03
      99,1.050480000000e+03,-1.229960000000e+03,1.282500000000e+03
     100,8.451410000000e+02,-1.379150000000e+03,1.282500000000e+03
     101,6.189900000000e+02,-1.494380000000e+03,1.282500000000e+03
     102,3.775980000000e+02,-1.572810000000e+03,1.282500000000e+03
     103,1.269080000000e+02,-1.612510000000e+03,1.282500000000e+03
     104,-1.269080000000e+02,-1.612510000000e+03,1.282500000000e+03
     105,-3.775980000000e+02,-1.572810000000e+03,1.282500000000e+03
     106,-6.189900000000e+02,-1.494380000000e+03,1.282500000000e+03
     107,-8.451410000000e+02,-1.379150000000e+03,1.282500000000e+03
     108,-1.050480000000e+03,-1.229960000000e+03,1.282500000000e+03
     109,-1.229960000000e+03,-1.050480000000e+03,1.282500000000e+03
     110,-1.379150000000e+03,-8.451410000000e+02,1.282500000000e+03
     111,-1.494380000000e+03,-6.189900000000e+02,1.282500000000e+03
     112,-1.572810000000e+03,-3.775980000000e+02,1.282500000000e+03
     113,-1.612510000000e+03,-1.269080000000e+02,1.282500000000e+03
     114,-1.617493147080e+03,4.651400047351e-03,1.074991007220e+03
     115,-1.617497094020e+03,1.914216056775e-03,1.178745204780e+03
     116,-1.617495270000e+03,7.788959806021e-03,9.712376741799e+02
     117,-1.597535960999e+03,2.530390346201e+02,8.674737981989e+02
     118,-1.538270461998e+03,4.998335147321e+02,8.674806153210e+02
     119,-1.441210221100e+03,7.343571439990e+02,8.675078799201e+02
     120,-1.308665143802e+03,9.508216968030e+02,8.675346624006e+02
     121,-1.143869947199e+03,1.143868796997e+03,8.675535188019e+02
     122,-9.508507639990e+02,1.308699938204e+03,8.675627355985e+02
     123,-7.343937018002e+02,1.441270654200e+03,8.675598962015e+02
     124,-4.998580965998e+02,1.538335979960e+03,8.675434452022e+02
     125,-2.530408890400e+02,1.597571316280e+03,8.675190783589e+02
     126,-6.659220156566e-03,1.617478475400e+03,8.675002584980e+02
     127,2.530247831400e+02,1.597564460400e+03,8.674938137398e+02
     128,4.998301148197e+02,1.538318355480e+03,8.674897051600e+02
     129,7.343280357480e+02,1.441202043380e+03,8.674785022010e+02
     130,9.507224854011e+02,1.308564958559e+03,8.674641543991e+02
     131,1.143687237799e+03,1.143698762202e+03,8.674555404020e+02
     132,1.308482236796e+03,9.506720332016e+02,8.674574071990e+02
     133,1.441106263602e+03,7.342683525983e+02,8.674684509999e+02
     134,1.538278737400e+03,4.997951330001e+02,8.674846210801e+02
     135,1.597596452880e+03,2.530084731994e+02,8.675010676320e+02
     136,1.617556862600e+03,-2.156019946026e-02,8.675141532803e+02
     137,1.597679110199e+03,-2.530598610006e+02,8.675214510010e+02
     138,1.538428186201e+03,-4.998675326005e+02,8.675221254004e+02
     139,1.441283246396e+03,-7.343595353993e+02,8.675170059195e+02
     140,1.308630884601e+03,-9.507548163405e+02,8.675086034601e+02
     141,1.143762524940e+03,-1.143729951999e+03,8.675001886400e+02
     142,9.507254787801e+02,-1.308524942401e+03,8.674952592000e+02
     143,7.342992878009e+02,-1.441124034000e+03,8.674960767400e+02
     144,4.998059774011e+02,-1.538261550801e+03,8.675029721400e+02
     145,2.530107636003e+02,-1.597562857399e+03,8.675139630401e+02
     146,-2.530657944008e+02,-1.597700189603e+03,8.675339537996e+02
     147,-4.998830131985e+02,-1.538480582600e+03,8.675347740001e+02
     148,-7.343750296011e+02,-1.441333990998e+03,8.675258551995e+02
     149,-9.507400340801e+02,-1.308634472398e+03,8.675065171997e+02
     150,-1.143653521002e+03,-1.143698263599e+03,8.674791610003e+02
     151,-1.308402077807e+03,-9.506269666023e+02,8.674501926004e+02
     152,-1.441041770004e+03,-7.342336165991e+02,8.674318447999e+02
     153,-1.538294548999e+03,-4.998004936005e+02,8.674385271985e+02
     154,-1.597641526999e+03,-2.530270257800e+02,8.674703589992e+02
     155,-1.612482055000e+03,1.269192585803e+02,8.674803088804e+02
     156,-1.572743891600e+03,3.775978679056e+02,8.674734399989e+02
     157,-1.494350814199e+03,6.189981391198e+02,8.674933136201e+02
     158,-1.379200776398e+03,8.451929861987e+02,8.675220286006e+02
     159,-1.230068921404e+03,1.050582339000e+03,8.675452513996e+02
     160,-1.050599358401e+03,1.230085661800e+03,8.675595199981e+02
     161,-8.452288892024e+02,1.379251077603e+03,8.675630243994e+02
     162,-6.190304318007e+02,1.494415878199e+03,8.675532590002e+02
     163,-3.776104555595e+02,1.572797034359e+03,8.675315005991e+02
     164,-1.269145316800e+02,1.612491609200e+03,8.675081553998e+02
     165,1.269006367599e+02,1.612485379999e+03,8.674958258400e+02
     166,3.775905612400e+02,1.572788624801e+03,8.674923295599e+02
     167,6.189876908200e+02,1.494377360500e+03,8.674850496397e+02
     168,8.451336797801e+02,1.379148164224e+03,8.674711966007e+02
     169,1.050440136402e+03,1.229927077999e+03,8.674587016009e+02
     170,1.229876127199e+03,1.050414903999e+03,8.674550994016e+02
     171,1.379048334599e+03,8.450715140000e+02,8.674619722007e+02
     172,1.494303603000e+03,6.189391212020e+02,8.674761745994e+02
     173,1.572787604400e+03,3.775674766007e+02,8.674930943000e+02
     174,1.612543472199e+03,1.268864585998e+02,8.675082300602e+02
     175,1.612585713001e+03,-1.269315698008e+02,8.675186289196e+02
     176,1.572906724798e+03,-3.776281982004e+02,8.675226239990e+02
     177,1.494473462604e+03,-6.190226100007e+02,8.675202310002e+02
     178,1.379218804202e+03,-8.451637362011e+02,8.675130582202e+02
     179,1.229991566001e+03,-1.050477300520e+03,8.675041441999e+02
     180,1.050475653620e+03,-1.229921845201e+03,8.674970818200e+02
     181,8.451146089990e+02,-1.379081676798e+03,8.674948456002e+02
     182,6.189587527998e+02,-1.494303662799e+03,8.674987797700e+02
     183,3.775723904004e+02,-1.572757887800e+03,8.675080889600e+02
     184,1.268875681993e+02,-1.612514494360e+03,8.675200091995e+02
     185,-1.269337092006e+02,-1.612586434599e+03,8.675305183994e+02
     186,-3.776390409984e+02,-1.572946295002e+03,8.675354908002e+02
     187,-6.190407499999e+02,-1.494530796805e+03,8.675317086005e+02
     188,-8.451692320002e+02,-1.379251330397e+03,8.675174908996e+02
     189,-1.050434293198e+03,-1.229960749046e+03,8.674936201800e+02
     190,-1.229814659400e+03,-1.050385789200e+03,8.674642968010e+02
     191,-1.378963449795e+03,-8.450237703985e+02,8.674387519983e+02
     192,-1.494274367202e+03,-6.189240496015e+02,8.674314039997e+02
     193,-1.572832788399e+03,-3.775843331800e+02,8.674535924007e+02
     194,-1.612554038402e+03,-1.268999355599e+02,8.674833791799e+02
     195,-1.582547808021e+03,-3.295695340112e+02,2.848591498024e+02
     196,-1.599368450030e+03,-2.328170019831e+02,5.140654400767e+01
     197,-1.600484357401e+03,-2.332172329994e+02,5.183230345997e+02
     198,-1.583423192402e+03,3.301414358030e+02,2.848476569999e+02
     199,-1.600274541984e+03,2.332997752000e+02,5.183046914003e+02
     200,-1.600896785990e+03,2.338028899935e+02,5.142183599481e+01
     201,-2.505540201228e+02,-1.604075480117e+03,-9.384746823996e+03
     202,-4.972751798681e+02,-1.544310400019e+03,-9.384854685002e+03
     203,-7.311607200470e+02,-1.445616299926e+03,-9.385026096400e+03
     204,-9.461099199022e+02,-1.310581120010e+03,-9.385247084008e+03
     205,-1.136768619716e+03,-1.143033594007e+03,-9.385481946008e+03
     206,-1.298747239448e+03,-9.476676599358e+02,-9.385681296005e+03
     207,-1.429070500190e+03,-7.299507198557e+02,-9.385776735978e+03
     208,-1.525622459700e+03,-4.953191600265e+02,-9.385721891993e+03
     209,-1.586595420357e+03,-2.490009201129e+02,-9.385520329995e+03
     210,-1.609995580227e+03,3.736040089282e+00,-9.385234317995e+03
     211,-1.593888800106e+03,2.571018799345e+02,-9.384963401001e+03
     212,-1.537128378001e+03,5.045758198589e+02,-9.384800464393e+03
     213,-1.440378008002e+03,7.393046001605e+02,-9.384786741992e+03
     214,-1.306448659993e+03,9.549546400436e+02,-9.384889774399e+03
     215,-1.139937060024e+03,1.146490699856e+03,-9.385016357880e+03
     216,-9.461856000477e+02,1.310322809982e+03,-9.385054063198e+03
     217,-7.304611998777e+02,1.443865520005e+03,-9.384921899398e+03
     218,-4.975276999807e+02,1.544548979834e+03,-9.384613776017e+03
     219,-2.520537039809e+02,1.609278920204e+03,-9.384193979966e+03
     220,-1.244031799959e+02,-1.618938500055e+03,-9.384711759992e+03
     221,-3.751161199261e+02,-1.579158519819e+03,-9.384795868007e+03
     222,-6.162174800530e+02,-1.499713119771e+03,-9.384934327202e+03
     223,-8.413478398600e+02,-1.382428279910e+03,-9.385131619599e+03
     224,-1.044781199913e+03,-1.230613308016e+03,-9.385365531996e+03
     225,-1.221558399938e+03,-1.048486434034e+03,-9.385590484015e+03
     226,-1.368020739471e+03,-8.412593799314e+02,-9.385744627978e+03
     227,-1.481690819561e+03,-6.144203799313e+02,-9.385767074016e+03
     228,-1.560681339545e+03,-3.733002001036e+02,-9.385634226017e+03
     229,-1.603120019886e+03,-1.230903801277e+02,-9.385380177989e+03
     230,-1.606981640093e+03,1.307347200580e+02,-9.385090095800e+03
     231,-1.570600180059e+03,3.820074200712e+02,-9.384865643003e+03
     232,-1.493630707988e+03,6.239523800442e+02,-9.384777678004e+03
     233,-1.377807974065e+03,8.498619399054e+02,-9.384830683591e+03
     234,-1.226937580013e+03,1.053982620093e+03,-9.384958157600e+03
     235,-1.046122160065e+03,1.232044059961e+03,-9.385051744200e+03
     236,-8.407655601061e+02,1.381040480053e+03,-9.385009827700e+03
     237,-6.158675198795e+02,1.498511500027e+03,-9.384783767998e+03
     238,-3.760474620003e+02,1.581645060289e+03,-9.384407768009e+03
     239,-1.262332300192e+02,1.627103539527e+03,-9.383986111968e+03
     240,2.488780010032e+00,-1.623457779940e+03,-9.134686951996e+03
     241,2.447399892851e+00,-1.623318519858e+03,-8.884686133997e+03
     242,2.395299961797e+00,-1.623195520085e+03,-8.634686664014e+03
     243,2.334199962213e+00,-1.623046520115e+03,-8.384687564014e+03
     244,2.263359929208e+00,-1.622897360073e+03,-8.134688585995e+03
     245,2.181419986306e+00,-1.622756260047e+03,-7.884689793985e+03
     246,2.088360051864e+00,-1.622612660001e+03,-7.634691215999e+03
     247,2.504700096330e+00,-1.623577680155e+03,-9.259686765987e+03
     248,2.469639875932e+00,-1.623378480151e+03,-9.009686359988e+03
     249,2.422340039636e+00,-1.623261900102e+03,-8.759686275987e+03
     250,2.365940017632e+00,-1.623121740129e+03,-8.509687115996e+03
     251,2.299920015509e+00,-1.622969219759e+03,-8.259688122007e+03
     252,2.224019990542e+00,-1.622826980026e+03,-8.009689106007e+03
     253,2.136139955844e+00,-1.622685480113e+03,-7.759690506011e+03
     254,2.037560043397e+00,-1.622539739772e+03,-7.509692072015e+03
     255,2.550686199821e+02,-1.603271740004e+03,-7.384604346012e+03
     256,5.019467199503e+02,-1.544360660006e+03,-7.384533683986e+03
     257,7.363999600282e+02,-1.447152820065e+03,-7.384482866006e+03
     258,9.524839799329e+02,-1.314013339975e+03,-7.384464659995e+03
     259,1.144721941990e+03,-1.148292940005e+03,-7.384498008001e+03
     260,1.308288661999e+03,-9.542075601409e+02,-7.384605673984e+03
     261,1.439281445956e+03,-7.367893601120e+02,-7.384801103804e+03
     262,1.534728900112e+03,-5.015828440714e+02,-7.385080485797e+03
     263,1.592655400144e+03,-2.544444439546e+02,-7.385419040007e+03
     264,1.611883759913e+03,-1.347205979984e+00,-7.385768355967e+03
     265,1.591940660127e+03,2.516806160120e+02,-7.386059115966e+03
     266,1.532984280017e+03,4.985385320373e+02,-7.386208847971e+03
     267,1.436123259947e+03,7.331205000307e+02,-7.386145303977e+03
     268,1.303609619895e+03,9.495839280195e+02,-7.385836375984e+03
     269,1.138956439926e+03,1.142748653973e+03,-7.385325627989e+03
     270,9.464498799995e+02,1.308197469985e+03,-7.384726246006e+03
     271,7.308881198921e+02,1.442253036030e+03,-7.384190849994e+03
     272,4.973044600678e+02,1.541635260034e+03,-7.383846242015e+03
     273,2.511167639305e+02,1.603482919726e+03,-7.383753232067e+03
     274,-1.733103999865e+00,1.625634560194e+03,-7.383893660013e+03
     275,-2.548678860613e+02,1.607176699889e+03,-7.384187244030e+03
     276,-5.017829480397e+02,1.548440680014e+03,-7.384519470002e+03
     277,-7.361028599778e+02,1.450922799878e+03,-7.384776763998e+03
     278,-9.517167099754e+02,1.317041420075e+03,-7.384892407404e+03
     279,-1.142975478023e+03,1.150212099846e+03,-7.384884482204e+03
     280,-1.305203939951e+03,9.550034599730e+02,-7.384840550208e+03
     281,-1.435157079714e+03,7.369445600714e+02,-7.384855862598e+03
     282,-1.530437899743e+03,5.016500480173e+02,-7.384963030800e+03
     283,-1.589127380265e+03,2.546766219448e+02,-7.385140449802e+03
     284,-1.609517199984e+03,1.661534042788e+00,-7.385334948018e+03
     285,-1.590531420060e+03,-2.514471280584e+02,-7.385496676003e+03
     286,-1.532173680131e+03,-4.984579540082e+02,-7.385593887999e+03
     287,-1.435783560037e+03,-7.332489339976e+02,-7.385613078009e+03
     288,-1.303812500078e+03,-9.500519360214e+02,-7.385555408005e+03
     289,-1.139635920071e+03,-1.143614675401e+03,-7.385434581998e+03
     290,-9.473061199302e+02,-1.309241114027e+03,-7.385274110007e+03
     291,-7.315172201422e+02,-1.442886307951e+03,-7.385101432997e+03
     292,-4.974974800183e+02,-1.541170819943e+03,-7.384940066400e+03
     293,-2.509694000319e+02,-1.601574300129e+03,-7.384803101800e+03
     294,1.289066639381e+02,-1.617875759716e+03,-7.384646258002e+03
     295,3.796764400112e+02,-1.578715459984e+03,-7.384567068007e+03
     296,6.211056600269e+02,-1.500427480274e+03,-7.384505336018e+03
     297,8.470928779300e+02,-1.384896519892e+03,-7.384468536007e+03
     298,1.051899304026e+03,-1.234985559803e+03,-7.384472913987e+03
     299,1.230358878001e+03,-1.054490999983e+03,-7.384541264006e+03
     300,1.378074894026e+03,-8.480772799251e+02,-7.384692017991e+03
     301,1.491601039957e+03,-6.210470799825e+02,-7.384931523398e+03
     302,1.568472599977e+03,-3.791326940199e+02,-7.385245373994e+03
     303,1.607142959715e+03,-1.282658739890e+02,-7.385596272002e+03
     304,1.606811560218e+03,1.255545300026e+02,-7.385926111970e+03
     305,1.567297800286e+03,3.762643079471e+02,-7.386156740036e+03
     306,1.489196759718e+03,6.177426319455e+02,-7.386207398018e+03
     307,1.374138560211e+03,8.439619219737e+02,-7.386020822019e+03
     308,1.225049860167e+03,1.049368974005e+03,-7.385600749991e+03
     309,1.045880600019e+03,1.229177626028e+03,-7.385027405599e+03
     310,8.412412598866e+02,1.379372317994e+03,-7.384441858017e+03
     311,6.160213999802e+02,1.496477099932e+03,-7.383989411979e+03
     312,3.754285600234e+02,1.577411399996e+03,-7.383767243960e+03
     313,1.251341679543e+02,1.619605640176e+03,-7.383797290027e+03
     314,-1.286712040544e+02,1.621482299984e+03,-7.384028538004e+03
     315,-3.795068199770e+02,1.582777399528e+03,-7.384356064000e+03
     316,-6.209056640337e+02,1.504407700337e+03,-7.384663054004e+03
     317,-8.466166940072e+02,1.388351199864e+03,-7.384853271001e+03
     318,-1.050712818002e+03,1.237495719778e+03,-7.384899061604e+03
     319,-1.227954000005e+03,1.055811819993e+03,-7.384859685804e+03
     320,-1.374385080132e+03,8.484746601336e+02,-7.384836700408e+03
     321,-1.487262320075e+03,6.210998200523e+02,-7.384897440803e+03
     322,-1.564468459767e+03,3.792759139696e+02,-7.385046865198e+03
     323,-1.604192759719e+03,1.285618679483e+02,-7.385239622004e+03
     324,-1.604971659713e+03,-1.252652619385e+02,-7.385422476005e+03
     325,-1.566223679767e+03,-3.761034500576e+02,-7.385554496000e+03
     326,-1.488612860045e+03,-6.177520599859e+02,-7.385613477969e+03
     327,-1.374062199909e+03,-8.442397779893e+02,-7.385593279983e+03
     328,-1.225515139903e+03,-1.050040739998e+03,-7.385501627983e+03
     329,-1.046703860071e+03,-1.230189960006e+03,-7.385357555982e+03
     330,-8.420295400449e+02,-1.380299538002e+03,-7.385187489604e+03
     331,-6.164384401173e+02,-1.496635360014e+03,-7.385018162560e+03
     332,-3.754240199714e+02,-1.576234900060e+03,-7.384868171399e+03
     333,-1.249051599532e+02,-1.617014180106e+03,-7.384744929992e+03
     334,2.540917999714e+02,1.618128999233e+03,-9.383558186053e+03
     335,5.009684040028e+02,1.558277600085e+03,-9.383594180070e+03
     336,7.336515040013e+02,1.456240880535e+03,-9.383956205964e+03
     337,9.455911802130e+02,1.316075160098e+03,-9.384587497987e+03
     338,1.132168460125e+03,1.143704365398e+03,-9.385333454009e+03
     339,1.290704420349e+03,9.454718597468e+02,-9.385998613978e+03
     340,1.419709000503e+03,7.270752602424e+02,-9.386413655991e+03
     341,1.517315399939e+03,4.930289400267e+02,-9.386509058056e+03
     342,1.580871240566e+03,2.474609802730e+02,-9.386287355990e+03
     343,1.607457059734e+03,-4.927139962094e+00,-9.385858659987e+03
     344,1.594373719980e+03,-2.584679401034e+02,-9.385355685988e+03
     345,1.540211094067e+03,-5.065468799780e+02,-9.384908768004e+03
     346,1.445624159997e+03,-7.422024999912e+02,-9.384602831995e+03
     347,1.313336659910e+03,-9.589463802755e+02,-9.384456211990e+03
     348,1.147712340124e+03,-1.151385959773e+03,-9.384436512007e+03
     349,9.538245799255e+02,-1.315257660276e+03,-9.384482950006e+03
     350,7.369031799542e+02,-1.447082559926e+03,-9.384548525993e+03
     351,5.022816798641e+02,-1.543911299774e+03,-9.384604264012e+03
     352,2.555346200379e+02,-1.603399779977e+03,-9.384645800017e+03
     353,1.276995560127e+02,1.631738740130e+03,-9.383652576032e+03
     354,3.788391299394e+02,1.593614998931e+03,-9.383540343950e+03
     355,6.195247319893e+02,1.512329159956e+03,-9.383741239979e+03
     356,8.425431798698e+02,1.390582260508e+03,-9.384250252004e+03
     357,1.042246460007e+03,1.233518039898e+03,-9.384958024800e+03
     358,1.215051680428e+03,1.047441540019e+03,-9.385684183979e+03
     359,1.359002600954e+03,8.384942398427e+02,-9.386239403937e+03
     360,1.472612600261e+03,6.117724398037e+02,-9.386493304007e+03
     361,1.553527500439e+03,3.714008998440e+02,-9.386424127986e+03
     362,1.598967780469e+03,1.217877002435e+02,-9.386089419966e+03
     363,1.606003219954e+03,-1.319549802227e+02,-9.385607947986e+03
     364,1.572424535991e+03,-3.836270197143e+02,-9.385120797204e+03
     365,1.497850240044e+03,-6.263526602534e+02,-9.384738400002e+03
     366,1.383947019938e+03,-8.532976401059e+02,-9.384513397997e+03
     367,1.234386279920e+03,-1.058485980053e+03,-9.384435142017e+03
     368,1.053973099939e+03,-1.237126119758e+03,-9.384454224017e+03
     369,8.479208800147e+02,-1.385389360082e+03,-9.384515601994e+03
     370,6.214619399516e+02,-1.500037260190e+03,-9.384577622002e+03
     371,3.800679998903e+02,-1.578459200175e+03,-9.384625577984e+03
     372,1.294305398713e+02,-1.618545719998e+03,-9.384663716007e+03
     373,1.867450046126e+00,-1.622330399994e+03,-7.126804647995e+03
     374,1.743616012397e+00,-1.622183739971e+03,-6.868916188006e+03
     375,1.613619970164e+00,-1.622037799978e+03,-6.611028442007e+03
     376,1.479942002340e+00,-1.621892559931e+03,-6.353140875996e+03
     377,1.342987961840e+00,-1.621752379877e+03,-6.095252776004e+03
     378,1.207168024854e+00,-1.621605140106e+03,-5.837364925995e+03
     379,1.072376035160e+00,-1.621448819940e+03,-5.579476983999e+03
     380,9.411019709718e-01,-1.621285440058e+03,-5.321588905998e+03
     381,8.139840065327e-01,-1.621112840082e+03,-5.063691195996e+03
     382,6.919659790641e-01,-1.620927439951e+03,-4.805804090009e+03
     383,5.749679985515e-01,-1.620736279881e+03,-4.547917722003e+03
     384,4.645619992574e-01,-1.620542840108e+03,-4.290032106004e+03
     385,3.606440077478e-01,-1.620343060065e+03,-4.032147958002e+03
     386,2.639820013486e-01,-1.620148119989e+03,-3.774264651992e+03
     387,1.755710036436e-01,-1.619963659912e+03,-3.516382235996e+03
     388,9.737759683632e-02,-1.619783119975e+03,-3.258500644001e+03
     389,2.776680049138e-02,-1.619604199957e+03,-3.000619336006e+03
     390,-3.325599890885e-02,-1.619428793936e+03,-2.742738645994e+03
     391,-8.609919859153e-02,-1.619254950063e+03,-2.484858231995e+03
     392,-1.309060007712e-01,-1.619082144032e+03,-2.226978555997e+03
     393,-1.665117997560e-01,-1.618900329929e+03,-1.969099193993e+03
     394,-1.909083948645e-01,-1.618716945966e+03,-1.711221115595e+03
     395,-2.047199995955e-01,-1.618529880004e+03,-1.453344314400e+03
     396,-2.078520083101e-01,-1.618345273971e+03,-1.195458540407e+03
     397,-1.998244078946e-01,-1.618174124021e+03,-9.375880742035e+02
     398,-1.833622081845e-01,-1.618018427987e+03,-6.797144110021e+02
     399,-1.599640017899e-01,-1.617882920007e+03,-4.218403630011e+02
     400,-1.322044045024e-01,-1.617768071999e+03,-1.639668532027e+02
     401,-1.023482036486e-01,-1.617675209807e+03,9.390563659702e+01
     402,-7.273200025664e-02,-1.617608526001e+03,3.517790574003e+02
     403,-4.519520188622e-02,-1.617564921001e+03,6.096517537998e+02
     404,1.926964032470e+00,-1.622399980268e+03,-7.255743641985e+03
     405,1.806291984400e+00,-1.622257439892e+03,-6.997855471997e+03
     406,1.678945991449e+00,-1.622108700110e+03,-6.739967498006e+03
     407,1.546819985384e+00,-1.621962040088e+03,-6.482079500004e+03
     408,1.411488046875e+00,-1.621821940069e+03,-6.224191844008e+03
     409,1.275085960521e+00,-1.621680120013e+03,-5.966303922003e+03
     410,1.139399973914e+00,-1.621527620016e+03,-5.708415920000e+03
     411,1.006317979778e+00,-1.621368200001e+03,-5.450527930001e+03
     412,8.768779662263e-01,-1.621200359957e+03,-5.192639986005e+03
     413,7.522600208235e-01,-1.621021080071e+03,-4.934752476001e+03
     414,6.327500159445e-01,-1.620831959888e+03,-4.676865806007e+03
     415,5.189899820893e-01,-1.620640039917e+03,-4.418979713996e+03
     416,4.116940181179e-01,-1.620442639985e+03,-4.161094911995e+03
     417,3.114759965742e-01,-1.620243880032e+03,-3.903211118005e+03
     418,2.187320024008e-01,-1.620054960083e+03,-3.645328232000e+03
     419,1.355414042395e-01,-1.619872279996e+03,-3.387446476005e+03
     420,6.132119779651e-02,-1.619692539978e+03,-3.129554986002e+03
     421,-3.614420046312e-03,-1.619515880018e+03,-2.871673880005e+03
     422,-6.060120085166e-02,-1.619340563928e+03,-2.613793483996e+03
     423,-1.096891992289e-01,-1.619168079931e+03,-2.355913364001e+03
     424,-1.500203961710e-01,-1.618991131989e+03,-2.098033841998e+03
     425,-1.802324004471e-01,-1.618808643987e+03,-1.840154941799e+03
     426,-1.992338002252e-01,-1.618622578033e+03,-1.582277567805e+03
     427,-2.076539931237e-01,-1.618437169971e+03,-1.324401209007e+03
     428,-2.049159957038e-01,-1.618257841990e+03,-1.066526197406e+03
     429,-1.925395918020e-01,-1.618094017984e+03,-8.086511208033e+02
     430,-1.722287925018e-01,-1.617947446000e+03,-5.507768266021e+02
     431,-1.464962042461e-01,-1.617823575987e+03,-2.929040967969e+02
     432,-1.173005966790e-01,-1.617718248006e+03,-3.503080919921e+01
     433,-8.733920366793e-02,-1.617639026197e+03,2.228417932015e+02
     434,-5.866239916357e-02,-1.617583813202e+03,4.807153388022e+02
     435,-3.273499941641e-02,-1.617551100401e+03,7.385892182011e+02
     436,2.754458400144e+02,1.596085660034e+03,-2.974393310009e+02
     437,2.755576400144e+02,1.596232740024e+03,-7.250335349995e+01
     438,2.542002001938e+02,1.598223504005e+03,1.453263376004e+02
     439,1.053390619603e+02,1.614004615998e+03,2.939953182003e+02
     440,-1.054283177998e+02,1.613867563996e+03,2.940180949860e+02
     441,-2.542706799941e+02,1.597752304004e+03,1.454039201982e+02
     442,-2.757165579882e+02,1.595500906018e+03,-2.973211987986e+02
     443,-2.755938340109e+02,1.595255215992e+03,-7.239529959748e+01
     444,-2.545464279829e+02,1.598157306033e+03,-5.151110579944e+02
     445,-1.057588679981e+02,1.614148380199e+03,-6.637778399932e+02
     446,1.050036520180e+02,1.613958932398e+03,-6.638599351974e+02
     447,2.539342621967e+02,1.598018463990e+03,-5.152654163969e+02
     448,-1.612612092599e+03,1.269473339902e+02,-2.010311798477e+01
     449,-1.588770230005e+03,3.051189439819e+02,1.583128099964e+02
     450,-1.588213300015e+03,3.048061110397e+02,4.113805063969e+02
     451,-1.612417109400e+03,1.264868063681e+02,5.897632663989e+02
     452,-1.612601417601e+03,-1.264438917989e+02,5.897808556604e+02
     453,-1.588050517998e+03,-3.045459039924e+02,4.114007155980e+02
     454,-1.587291547980e+03,-3.042622640089e+02,1.583090880061e+02
     455,-1.611674136011e+03,-1.259916039975e+02,-2.010411800845e+01
     456,2.532822001725e+02,1.526850601998e+03,-5.698069621989e+03
     457,2.504706001841e+02,1.517873201859e+03,-5.471984982000e+03
     458,-2.712558402127e+02,1.649262399331e+03,-5.254848463003e+03
     459,-1.128046999150e+02,1.624840199588e+03,-5.106096554802e+03
     460,9.837733977539e+01,1.605766500219e+03,-5.105635708016e+03
     461,2.407271595585e+02,1.561827200383e+03,-5.254006133994e+03
     462,-3.056244008243e+02,1.695364602250e+03,-5.695276759992e+03
     463,-3.086662004702e+02,1.704448201102e+03,-5.472113752007e+03
     464,2.456826402486e+02,1.576890400064e+03,-5.915472629799e+03
     465,1.019844399928e+02,1.613342615969e+03,-6.063266681982e+03
     466,-1.092567599269e+02,1.621257100127e+03,-6.062287274059e+03
     467,-2.662635600573e+02,1.636045199737e+03,-5.913058900046e+03
     468,1.606142604016e+03,2.052087699705e+02,-2.771997622801e+03
     469,1.584633124012e+03,3.322681900082e+02,-2.946843661995e+03
     470,1.587467359941e+03,3.333533600144e+02,-3.163813238016e+03
     471,1.609995499914e+03,2.069991239698e+02,-3.338608116004e+03
     472,1.603162842023e+03,-2.044041619736e+02,-3.338408895992e+03
     473,1.580119299915e+03,-3.310832860135e+02,-3.163511703397e+03
     474,1.583286128016e+03,-3.322370680166e+02,-2.946556477401e+03
     475,1.607629380035e+03,-2.062346440145e+02,-2.771842599202e+03
     476,1.616416800027e+03,1.078563479946e+02,-2.722200306580e+03
     477,1.593909606034e+03,2.823691860199e+02,-2.849305940003e+03
     478,1.582121419953e+03,3.499328516014e+02,-3.055317472004e+03
     479,1.598197200236e+03,2.840803979730e+02,-3.261332616018e+03
     480,1.618401960079e+03,1.094892659795e+02,-3.388351939996e+03
     481,1.614561082026e+03,-1.072025839792e+02,-3.388245998015e+03
     482,1.590055479918e+03,-2.813651380662e+02,-3.261067355995e+03
     483,1.577544352068e+03,-3.487111419614e+02,-3.055035579601e+03
     484,1.594782699993e+03,-2.831358571980e+02,-2.849076849201e+03
     485,1.617324040055e+03,-1.088612740033e+02,-2.722117366400e+03
     486,-1.610334541960e+03,-1.521233578801e+02,1.054238338600e+03
     487,-1.610315305320e+03,1.521314821402e+02,1.054238549720e+03
     488,-1.571698592982e+03,-3.821682736800e+02,1.070397343800e+03
     489,-1.500779386000e+03,-6.031806985994e+02,1.074467633000e+03
     490,-1.429017721000e+03,-7.576152717995e+02,1.074887118199e+03
     491,-1.301076893400e+03,-9.608525541989e+02,1.074965119399e+03
     492,-1.136336181999e+03,-1.151055262999e+03,1.074989550259e+03
     493,-9.425834144080e+02,-1.314484792380e+03,1.075003787000e+03
     494,-7.254136698999e+02,-1.445765647598e+03,1.075013688100e+03
     495,-4.903317271795e+02,-1.541453760600e+03,1.075017881880e+03
     496,-2.431627578202e+02,-1.599160397399e+03,1.075016853440e+03
     497,9.993176060036e+00,-1.617486037560e+03,1.075012191940e+03
     498,2.628988561001e+02,-1.595982518140e+03,1.075006033620e+03
     499,5.093283831001e+02,-1.535188152800e+03,1.075000523044e+03
     500,7.432184567402e+02,-1.436615600799e+03,1.074997393440e+03
     501,9.588122842400e+02,-1.302662862020e+03,1.074997427140e+03
     502,1.150797649500e+03,-1.136645030260e+03,1.075000312648e+03
     503,1.314460718401e+03,-9.426400591998e+02,1.075004772300e+03
     504,1.445751398599e+03,-7.254179236802e+02,1.075009039340e+03
     505,1.541425576600e+03,-4.903273859195e+02,1.075011413280e+03
     506,1.599151252800e+03,-2.431607881798e+02,1.075010801760e+03
     507,1.617488160720e+03,9.992642760276e+00,1.075006873480e+03
     508,1.595988417746e+03,2.628968083398e+02,1.075000098426e+03
     509,1.535186828001e+03,5.093221976403e+02,1.074991722280e+03
     510,1.436602403599e+03,7.432041938004e+02,1.074983790260e+03
     511,1.302643279599e+03,9.587896755998e+02,1.074978804001e+03
     512,1.136627176201e+03,1.150770141999e+03,1.074978704600e+03
     513,9.426258018801e+02,1.314429269140e+03,1.074983360919e+03
     514,7.254037530599e+02,1.445712090540e+03,1.074989860280e+03
     515,4.903130987140e+02,1.541380327260e+03,1.074994556100e+03
     516,2.431500204920e+02,1.599114431060e+03,1.074996932640e+03
     517,-9.999888598001e+00,1.617472194060e+03,1.075000869186e+03
     518,-2.629059525740e+02,1.595993614780e+03,1.075009467940e+03
     519,-5.093437137997e+02,1.535219440220e+03,1.075020497200e+03
     520,-7.432500019995e+02,1.436668238801e+03,1.075028749000e+03
     521,-9.588566569992e+02,1.302722856600e+03,1.075030839601e+03
     522,-1.150836898599e+03,1.136690237001e+03,1.075026471600e+03
     523,-1.314444363400e+03,9.426982306010e+02,1.074976658120e+03
     524,-1.445962434460e+03,7.249412617800e+02,1.074503127600e+03
     525,-1.544725056260e+03,4.796979568201e+02,1.071510523260e+03
     526,-1.604771665201e+03,-2.026745911599e+02,9.608560143800e+02
     527,-1.615707824340e+03,-7.614330482007e+01,1.064610250980e+03
     528,-1.604749871737e+03,-2.026788637128e+02,1.168372824320e+03
     529,-1.615698307781e+03,7.615242602022e+01,1.064610002020e+03
     530,-1.604721888201e+03,2.026860241401e+02,9.608571946005e+02
     531,-1.604745678480e+03,2.026817416800e+02,1.168374031100e+03
     532,-1.520398973000e+03,-5.518056652002e+02,9.709514725990e+02
     533,-1.520439309200e+03,-5.518329709602e+02,1.178484945320e+03
     534,-1.556126217960e+03,-4.413180404220e+02,1.176447281440e+03
     535,-1.556118934420e+03,-4.413044198601e+02,9.689192043999e+02
     536,-1.541569571210e+03,4.897756730980e+02,1.177005923400e+03
     537,-1.443594507340e+03,7.296358643400e+02,1.178501744028e+03
     538,-1.500362619440e+03,6.043392530999e+02,1.073006021240e+03
     539,-1.443606300820e+03,7.296533235602e+02,9.710072195401e+02
     540,-1.541549846400e+03,4.897786287801e+02,9.694974116004e+02
     541,-1.311510620400e+03,9.467179200798e+02,1.178738439980e+03
     542,-1.384493286400e+03,8.364092509801e+02,1.074740229199e+03
     543,-1.311561444998e+03,9.467637879986e+02,9.712555521991e+02
     544,-1.147294193020e+03,1.140209354480e+03,1.178763315580e+03
     545,-1.236452480201e+03,1.042913044200e+03,1.075002286799e+03
     546,-1.147365136398e+03,1.140279826405e+03,9.712900342014e+02
     547,-9.547958276599e+02,1.305650589520e+03,1.178765305940e+03
     548,-1.058116327000e+03,1.223483584000e+03,1.075029537200e+03
     549,-9.548584397979e+02,1.305722067199e+03,9.712967826021e+02
     550,-7.387883974400e+02,1.438937681820e+03,1.178763963620e+03
     551,-8.536856103994e+02,1.373927171801e+03,1.075030780000e+03
     552,-7.388247912013e+02,1.438980883600e+03,9.712940721988e+02
     553,-5.045896923779e+02,1.536783476940e+03,1.178759748600e+03
     554,-2.579689984200e+02,1.596801800020e+03,1.178754531680e+03
     555,-3.873172437600e+02,1.570444619500e+03,1.075014969440e+03
     556,-2.579743342999e+02,1.596798998702e+03,9.712642972203e+02
     557,-5.046034273800e+02,1.536791839001e+03,9.712816272008e+02
     558,-6.282318962204e+02,1.490537922200e+03,1.075025307199e+03
     559,-4.998987590001e+00,1.617490871468e+03,1.178750502934e+03
     560,-1.368741075796e+02,1.611704063620e+03,1.075004627520e+03
     561,-5.002568659877e+00,1.617486906880e+03,9.712508725000e+02
     562,2.480932975480e+02,1.598358467130e+03,1.178748444690e+03
     563,1.169357749060e+02,1.613268884974e+03,1.074998393372e+03
     564,2.480892446600e+02,1.598347126999e+03,9.712453342200e+02
     565,4.950771314342e+02,1.539866795940e+03,1.178747131780e+03
     566,7.298710965920e+02,1.443466712960e+03,1.178744912520e+03
     567,6.097380306660e+02,1.498160782300e+03,1.074992586180e+03
     568,7.298670788799e+02,1.443461931680e+03,9.712343624005e+02
     569,4.950729640800e+02,1.539856072320e+03,9.712419770602e+02
     570,3.678653749140e+02,1.575101160040e+03,1.074995825580e+03
     571,9.466910110179e+02,1.311516061280e+03,1.178741847380e+03
     572,8.365948782800e+02,1.384331699060e+03,1.074986639800e+03
     573,9.466775326204e+02,1.311504250280e+03,9.712240938006e+02
     574,1.042845257780e+03,1.236415033520e+03,1.074980517459e+03
     575,1.140156920201e+03,1.147243688399e+03,9.712172916010e+02
     576,1.140193491480e+03,1.147274395840e+03,1.178739541320e+03
     577,1.373850873602e+03,8.536275131989e+02,1.074980680020e+03
     578,1.438861787402e+03,7.387389167979e+02,9.712259491993e+02
     579,1.305571828602e+03,9.547345680020e+02,9.712180261999e+02
     580,1.305629589020e+03,9.547766224401e+02,1.178739487120e+03
     581,1.438919534800e+03,7.387756144197e+02,1.178741895680e+03
     582,1.223409309799e+03,1.058046489401e+03,1.074977997199e+03
     583,1.570427373679e+03,3.873035070198e+02,1.074995993880e+03
     584,1.596800123082e+03,2.579542287002e+02,9.712504881460e+02
     585,1.536739733400e+03,5.045612515994e+02,9.712380055805e+02
     586,1.536773631580e+03,5.045843139800e+02,1.178745848500e+03
     587,1.596799538050e+03,2.579673057999e+02,1.178750062466e+03
     588,1.490488286800e+03,6.281991723998e+02,1.074987493080e+03
     589,1.617494846340e+03,4.997289780108e+00,1.178753483640e+03
     590,1.611708847560e+03,1.368667231801e+02,1.075003796260e+03
     591,1.617526519400e+03,4.986252400245e+00,9.712604927597e+02
     592,1.598368316280e+03,-2.480963527400e+02,1.178755474800e+03
     593,1.613295623399e+03,-1.169443742600e+02,1.075009273860e+03
     594,1.598420314401e+03,-2.481110527002e+02,9.712661814603e+02
     595,1.539879482020e+03,-4.950806845799e+02,1.178755797380e+03
     596,1.575144474599e+03,-3.678782842997e+02,1.075011562040e+03
     597,1.539937637402e+03,-4.950998133990e+02,9.712668887198e+02
     598,1.498204302600e+03,-6.097526417399e+02,1.075010584720e+03
     599,1.443528507198e+03,-7.298928026003e+02,9.712631857405e+02
     600,1.443478582400e+03,-7.298740310400e+02,1.178754607760e+03
     601,1.311526111820e+03,-9.466939560100e+02,1.178752448860e+03
     602,1.147283097180e+03,-1.140197790940e+03,1.178750161479e+03
     603,1.236444171520e+03,-1.042860965352e+03,1.075002473280e+03
     604,1.147291270300e+03,-1.140189344960e+03,9.712503021140e+02
     605,1.311557105999e+03,-9.467035747199e+02,9.712568146198e+02
     606,1.384366623600e+03,-8.366086762199e+02,1.075007079260e+03
     607,9.547836235840e+02,-1.305634699760e+03,1.178748649246e+03
     608,1.058071939896e+03,-1.223428704180e+03,1.074998569774e+03
     609,9.547740247800e+02,-1.305605795600e+03,9.712462681400e+02
     610,7.387802413320e+02,-1.438923205920e+03,1.178748573858e+03
     611,8.536462531400e+02,-1.373868332801e+03,1.074996986740e+03
     612,7.387629679795e+02,-1.438881499199e+03,9.712465520399e+02
     613,5.045866986340e+02,-1.536774376120e+03,1.178750115829e+03
     614,6.282090691403e+02,-1.490495600999e+03,1.074998569088e+03
     615,5.045707392799e+02,-1.536736288598e+03,9.712514872499e+02
     616,2.579683448780e+02,-1.596798486040e+03,1.178752897620e+03
     617,4.997583620046e+00,-1.617494734300e+03,1.178756057940e+03
     618,1.368678582198e+02,-1.611703502860e+03,1.075009164640e+03
     619,4.986509220054e+00,-1.617519364001e+03,9.712688141598e+02
     620,2.579567933798e+02,-1.596783922560e+03,9.712597643203e+02
     621,3.873071793599e+02,-1.570424044260e+03,1.075003048420e+03
     622,-2.480968710800e+02,-1.598370950060e+03,1.178758484860e+03
     623,-1.169449724199e+02,-1.613298843799e+03,1.075014902680e+03
     624,-2.481150729999e+02,-1.598436625602e+03,9.712754286010e+02
     625,-4.950820733399e+02,-1.539884248120e+03,1.178759045200e+03
     626,-7.298712737199e+02,-1.443481900640e+03,1.178756873960e+03
     627,-6.097535744204e+02,-1.498232488599e+03,1.075016598920e+03
     628,-7.298981235999e+02,-1.443558573197e+03,9.712700459999e+02
     629,-4.951102042009e+02,-1.539972790400e+03,9.712765320000e+02
     630,-3.678810099402e+02,-1.575159044802e+03,1.075018016460e+03
     631,-9.466676691900e+02,-1.311543488080e+03,1.178751711348e+03
     632,-8.365791917396e+02,-1.384392408600e+03,1.075009518780e+03
     633,-9.466656505200e+02,-1.311571238401e+03,9.712553437998e+02
     634,-1.140051513700e+03,-1.147412461640e+03,1.178744378240e+03
     635,-1.042663949240e+03,-1.236574707980e+03,1.074997039800e+03
     636,-1.139993501599e+03,-1.147377609798e+03,9.712332918203e+02
     637,-1.304854408020e+03,-9.558138107401e+02,1.178727234320e+03
     638,-1.222409453800e+03,-1.059160660198e+03,1.074971843260e+03
     639,-1.304748408598e+03,-9.557432764030e+02,9.712064478005e+02
     640,-1.435173950040e+03,-7.460047482799e+02,1.178693592680e+03
     641,-1.368823385402e+03,-8.616078403987e+02,1.074919702999e+03
     642,-1.435077034801e+03,-7.459462596021e+02,9.711597126009e+02
     643,-1.466927479400e+03,-6.813419638009e+02,1.074676544201e+03
     644,-1.595175216820e+03,-2.678448769399e+02,1.062313092400e+03
     645,-1.585998063240e+03,3.176120084601e+02,1.062877117581e+03
     646,-1.772558020137e+02,1.618559779883e+03,-8.113841533966e+03
     647,7.553665596762e+01,1.625598139549e+03,-7.920903171981e+03
     648,-2.799075719632e+02,1.603471360184e+03,-7.870088086014e+03
     649,-5.967370197103e+01,1.625931320158e+03,-7.678539095967e+03
     650,-6.225090300193e+02,1.502043839751e+03,-8.008101671983e+03
     651,-5.185084820560e+02,1.542225079921e+03,-7.788437853986e+03
     652,-7.559817399946e+02,1.438723840121e+03,-7.883330111807e+03
     653,-5.286460780653e+02,1.539088399939e+03,-7.597304905989e+03
     654,-8.694982459849e+02,1.370810559964e+03,-8.126654682802e+03
     655,-1.012875364018e+03,1.267619279744e+03,-7.866249853000e+03
     656,-7.558314199904e+02,1.439784079724e+03,-7.616522381608e+03
     657,2.287439340188e+02,1.611232920149e+03,-8.093746234030e+03
     658,2.814968399736e+02,1.600557059805e+03,-7.795098678031e+03
     659,2.339672779465e+02,1.607565580151e+03,-7.607075512054e+03
     660,1.334678999717e+03,8.919065198854e+02,-8.644192529994e+03
     661,1.352642479630e+03,8.668519198863e+02,-8.389996670021e+03
     662,1.217252500174e+03,1.053249189949e+03,-8.389196578036e+03
     663,1.579492459568e+03,2.862415600224e+02,-8.621917320047e+03
     664,1.607464039754e+03,7.016847988416e+01,-8.385983369966e+03
     665,1.580048300254e+03,2.905186600034e+02,-8.397007969928e+03
     666,1.605406299732e+03,-1.431986000512e+02,-8.629741038006e+03
     667,1.604867960173e+03,-1.511218999475e+02,-8.393267997998e+03
     668,1.606097619810e+03,7.984473996025e+01,-8.629113248032e+03
     669,9.559190999948e+02,-1.312521599782e+03,-8.048025555993e+03
     670,1.195394959944e+03,-1.097019920226e+03,-8.127758722017e+03
     671,1.060361479959e+03,-1.229834360272e+03,-8.434923355995e+03
     672,1.279379480037e+03,-9.983067802862e+02,-8.516836125995e+03
     673,1.091737699871e+03,1.187623871880e+03,-8.131863181396e+03
     674,1.044296540048e+03,1.231074458022e+03,-8.394459886001e+03
     675,-9.578884000824e+02,-1.301270363972e+03,-8.702947617997e+03
     676,-1.159069820033e+03,-1.121437905967e+03,-8.602301711984e+03
     677,-1.026161500048e+03,-1.246949997999e+03,-8.395386937995e+03
     678,-1.159146859857e+03,-1.122095162000e+03,-8.241661056016e+03
     679,-1.070300811944e+03,1.217599920084e+03,-8.102352786400e+03
     680,-1.205086187982e+03,1.082042079801e+03,-7.859752334200e+03
     681,-9.781440359961e+02,1.296133979853e+03,-7.624080974196e+03
     682,-1.250355719872e+03,1.027778419881e+03,-8.092929362599e+03
     683,-1.359451999942e+03,8.742637800119e+02,-7.857202454797e+03
     684,-1.172438658068e+03,1.118715280248e+03,-7.622458448599e+03
     685,-1.395474100145e+03,8.145204200440e+02,-8.089543859199e+03
     686,-1.478480620034e+03,6.454220201124e+02,-7.856852457798e+03
     687,-1.332028599961e+03,9.163002200762e+02,-7.621287748999e+03
     688,5.757601639948e+02,1.518019199830e+03,-8.137148780008e+03
     689,7.437950400368e+02,1.438026379887e+03,-7.843275072001e+03
     690,5.502321200700e+02,1.525413320179e+03,-7.778469510011e+03
     691,6.506072001189e+02,1.482530999908e+03,-7.587146397996e+03
     692,-1.504703060279e+03,5.814486798929e+02,-8.088193323401e+03
     693,-1.561086559889e+03,3.972716599922e+02,-7.856310407800e+03
     694,-1.457285199987e+03,6.919473599724e+02,-7.621361646802e+03
     695,-1.576333200148e+03,3.321694399512e+02,-8.084668597079e+03
     696,-1.603723319807e+03,1.368792799334e+02,-7.850502356995e+03
     697,-1.546792419927e+03,4.490944599812e+02,-7.621526006999e+03
     698,8.767244399318e+02,1.359718179864e+03,-8.138705932008e+03
     699,9.607146200142e+02,1.298754770010e+03,-7.871488706003e+03
     700,8.543811398891e+02,1.372022057993e+03,-7.608595760004e+03
     701,-1.607816360172e+03,7.498718005230e+01,-8.073245388005e+03
     702,-1.597764840137e+03,1.937991340022e+02,-7.619123766396e+03
     703,-1.599500279898e+03,-1.756438600408e+02,-8.050374544017e+03
     704,-1.604663020217e+03,-1.223793400306e+02,-7.836767461990e+03
     705,-1.608119559722e+03,-6.538217600139e+01,-7.612165560009e+03
     706,1.158319339733e+03,1.121499314006e+03,-7.874759810008e+03
     707,1.053384159989e+03,1.222677882005e+03,-7.622691886800e+03
     708,-1.569205099802e+03,-3.570226799921e+02,-8.022480787997e+03
     709,-1.558561079866e+03,-4.031614420421e+02,-7.831609115989e+03
     710,-1.579580240212e+03,-3.119777919387e+02,-7.596161723999e+03
     711,1.261897940098e+03,9.994562579968e+02,-8.129509190007e+03
     712,1.319541420022e+03,9.227263879403e+02,-7.875937360015e+03
     713,1.232406580042e+03,1.039308071944e+03,-7.627668265989e+03
     714,-1.385265899987e+03,-8.226387400578e+02,-8.024758836001e+03
     715,-1.450208379840e+03,-7.019837100470e+02,-7.766158611971e+03
     716,-1.343664640263e+03,-8.906864319684e+02,-7.817094198001e+03
     717,-1.435669220167e+03,-7.325701199482e+02,-7.581105812030e+03
     718,1.394198620161e+03,8.004834000174e+02,-8.140520046020e+03
     719,1.446003080090e+03,7.057340199934e+02,-7.885162342045e+03
     720,1.380588020138e+03,8.304488940365e+02,-7.629989076025e+03
     721,-1.273399600084e+03,-9.886697439826e+02,-8.107677081998e+03
     722,-1.177020640226e+03,-1.103770411984e+03,-7.874512289983e+03
     723,-1.171781600130e+03,-1.109908533998e+03,-7.605112710017e+03
     724,1.503542899595e+03,5.658437600546e+02,-8.209928513989e+03
     725,1.539942160028e+03,4.657802799371e+02,-7.896379851941e+03
     726,1.493475700253e+03,6.029515380484e+02,-7.633492752048e+03
     727,-1.685374998851e+02,-1.614529379971e+03,-9.240326782007e+03
     728,-2.133958201110e+02,-1.608733520146e+03,-9.007310376006e+03
     729,6.019198400265e+02,-1.508476419937e+03,-7.784136380016e+03
     730,5.709126399487e+02,-1.520387800090e+03,-7.594054966006e+03
     731,7.720025999943e+02,-1.428612199827e+03,-7.595903239990e+03
     732,1.731077999647e+02,-1.613981499780e+03,-7.529033059997e+03
     733,2.180561799567e+02,-1.608774299851e+03,-7.762054115990e+03
     734,-6.355896399573e+02,-1.490214439868e+03,-8.994065425801e+03
     735,-6.709979801007e+02,-1.474627100088e+03,-9.193161015380e+03
     736,-8.244726801239e+02,-1.392354380117e+03,-9.182667498203e+03
     737,6.490391800642e+02,-1.488560440079e+03,-9.165829216016e+03
     738,5.567784199652e+02,-1.525512839856e+03,-8.959436630001e+03
     739,4.635060400324e+02,-1.556478060126e+03,-7.781229774005e+03
     740,-7.009863399332e+02,-1.458474399928e+03,-7.862426214599e+03
     741,-6.388926798787e+02,-1.487140179996e+03,-7.648080738601e+03
     742,-4.812139000687e+02,-1.546749019868e+03,-7.781020108600e+03
     743,-4.209008800547e+02,-1.566234419999e+03,-8.997633457201e+03
     744,1.430995106002e+03,-7.595449398732e+02,-8.373182728002e+03
     745,1.520150288035e+03,-5.545173401059e+02,-8.533446542601e+03
     746,1.399557939950e+03,-8.190202002088e+02,-8.606107021990e+03
     747,1.539663389953e+03,-4.936329800009e+02,-8.398338805960e+03
     748,-1.846435600048e+02,-1.612144160072e+03,-8.760504771991e+03
     749,-7.530991399349e+02,-1.432171459933e+03,-8.357915124799e+03
     750,-5.920020800462e+02,-1.507809980063e+03,-8.534911236802e+03
     751,-7.612975199353e+02,-1.428027839948e+03,-8.613301891200e+03
     752,-1.123662880211e+03,-1.157313957986e+03,-8.869293151991e+03
     753,-1.283593600275e+03,-9.720052000700e+02,-8.893731337978e+03
     754,-1.215814039775e+03,-1.056760032019e+03,-9.135196544007e+03
     755,1.609719400222e+03,3.368787997982e+01,-8.147218745999e+03
     756,-1.517346980046e+03,5.527445401227e+02,-8.745049983404e+03
     757,-1.479129079923e+03,6.485822599628e+02,-8.532711827605e+03
     758,-1.560597279806e+03,4.071492800892e+02,-8.530778180204e+03
     759,4.452252800079e+02,-1.561702660223e+03,-8.756493528013e+03
     760,7.454015198641e+02,-1.443035959868e+03,-8.879297574004e+03
     761,-8.664972600118e+02,-1.365595520022e+03,-8.985322833803e+03
     762,7.713812600075e+02,-1.429241920131e+03,-7.990247253993e+03
     763,5.983483800455e+02,-1.509942399762e+03,-7.967775848001e+03
     764,-1.533789700054e+03,4.992438199627e+02,-8.312012657800e+03
     765,-4.863903999371e+02,-1.545245339958e+03,-7.941823878397e+03
     766,-7.868485199167e+02,-1.413241176057e+03,-8.044238024400e+03
     767,-7.936495998634e+02,-1.410051300013e+03,-8.759586179001e+03
     768,-6.085583999920e+02,-1.501422020121e+03,-8.781522556001e+03
     769,3.642050020169e+02,1.589264119527e+03,-8.685867566009e+03
     770,2.279851429992e+02,1.616323459841e+03,-8.863423464046e+03
     771,3.560455262003e+02,1.593135880300e+03,-8.959181697943e+03
     772,1.166332601974e+03,-1.126673379921e+03,-7.616231503986e+03
     773,1.327571243397e+03,-9.276742400538e+02,-7.619557747992e+03
     774,1.346201105196e+03,-9.010590399565e+02,-7.856659846011e+03
     775,6.488077339637e+02,1.490870420049e+03,-8.662938687977e+03
     776,5.447022879916e+02,1.535659760546e+03,-8.864306420004e+03
     777,5.488517419394e+02,1.530952239544e+03,-8.464674610057e+03
     778,7.917226799523e+02,1.417480639766e+03,-8.895909267966e+03
     779,1.015572720260e+03,1.256262759994e+03,-8.651790675398e+03
     780,9.958417198224e+02,1.273273399874e+03,-8.900653252006e+03
     781,-1.360393900008e+03,8.741515600682e+02,-8.533873528401e+03
     782,-1.413341820047e+03,7.850183600199e+02,-8.745325259601e+03
     783,1.192383560196e+03,1.081024661931e+03,-8.648130141991e+03
     784,1.175785920224e+03,1.098831265996e+03,-8.900450269995e+03
     785,1.458578899950e+03,6.655145799128e+02,-8.626208704044e+03
     786,1.440886979611e+03,6.985049000912e+02,-8.907163571951e+03
     787,1.436339980096e+03,7.166963598744e+02,-8.406251406016e+03
     788,-1.438039139863e+03,7.357824599061e+02,-8.313446821407e+03
     789,1.545769960079e+03,4.277751000719e+02,-8.616958063981e+03
     790,1.522226199427e+03,5.080949799585e+02,-8.444464742001e+03
     791,1.573959119910e+03,-3.638472398643e+02,-8.608287065598e+03
     792,1.606240660035e+03,-1.299416598918e+02,-8.882003551965e+03
     793,1.575830620126e+03,-3.529478601040e+02,-8.399527682009e+03
     794,1.485985688004e+03,-6.452567597383e+02,-8.720237679994e+03
     795,1.561854816026e+03,-4.188592200915e+02,-8.876983861402e+03
     796,1.378548915994e+03,-8.510962201414e+02,-8.097351212003e+03
     797,1.368583420057e+03,-8.715957197816e+02,-8.741657510008e+03
     798,1.427195220019e+03,-7.711394602330e+02,-8.914517175993e+03
     799,1.305845774000e+03,-9.621038798035e+02,-8.353354291991e+03
     800,1.270931240108e+03,-1.010138859980e+03,-8.726991389998e+03
     801,1.290828180114e+03,-9.853391601776e+02,-8.943201172010e+03
     802,-1.602941500207e+03,1.572998000342e+02,-8.524453606404e+03
     803,-1.583018240282e+03,3.070958400723e+02,-8.742478584600e+03
     804,1.111074220041e+03,-1.184661339757e+03,-8.734054181994e+03
     805,1.148625480040e+03,-1.148707500031e+03,-8.964330643987e+03
     806,1.162334880041e+03,-1.135469940128e+03,-9.175611563996e+03
     807,9.999835799339e+02,-1.280233060250e+03,-9.020639012000e+03
     808,-1.591406239931e+03,2.497630000697e+02,-8.305409325199e+03
     809,-1.273523859993e+03,9.980027001025e+02,-8.746860651599e+03
     810,-1.207443359995e+03,1.078054939882e+03,-8.537478656199e+03
     811,-1.305542340110e+03,9.551467399121e+02,-8.316617507396e+03
     812,1.483356749965e+03,-6.454340598807e+02,-8.058624897601e+03
     813,1.514440153957e+03,-5.678493198685e+02,-8.259063891400e+03
     814,1.610666759844e+03,-4.314641997149e+01,-7.903670511972e+03
     815,1.595966120063e+03,2.094999599794e+02,-7.897447425996e+03
     816,7.854774600083e+02,-1.421397339743e+03,-7.801217577988e+03
     817,9.750293880550e+02,-1.297612819805e+03,-7.607003146014e+03
     818,1.180534316053e+03,-1.112306179742e+03,-7.853321968007e+03
     819,1.463003271947e+03,-6.900425999852e+02,-7.849008757996e+03
     820,-1.025499655994e+03,1.254418620036e+03,-8.544049839940e+03
     821,-1.102629980015e+03,1.185541060086e+03,-8.749912681160e+03
     822,1.547868280036e+03,-4.622712999111e+02,-8.004571751801e+03
     823,1.525322600026e+03,-5.332713601002e+02,-7.855724815880e+03
     824,-1.140167881957e+03,1.150476040196e+03,-8.324266575800e+03
     825,1.600930299930e+03,-1.930049801065e+02,-8.169645376011e+03
     826,1.589782820108e+03,-2.744479399643e+02,-7.946962735994e+03
     827,-1.609104279868e+03,5.657548012937e+01,-8.737144108794e+03
     828,-1.606300400029e+03,-9.261773998064e+01,-8.508586824017e+03
     829,1.584709479724e+03,2.727857799959e+02,-8.158177293975e+03
     830,8.327399400127e+02,1.389581600165e+03,-8.407217358008e+03
     831,4.068037300178e+02,1.572903060074e+03,-7.943472340021e+03
     832,-1.609390000023e+03,-2.916310083464e+00,-8.289454509999e+03
     833,1.566430580080e+03,-3.932227599014e+02,-8.204763266395e+03
     834,-4.771266079758e+02,1.555437699973e+03,-7.961250006015e+03
     835,-9.061267800679e+02,1.343440539746e+03,-8.755713504560e+03
     836,-8.219744899891e+02,1.398401379834e+03,-8.553856673998e+03
     837,-9.495825859700e+02,1.314620260272e+03,-8.337609786201e+03
     838,-6.043283700044e+02,1.507773339770e+03,-8.569516183993e+03
     839,-6.930936819483e+02,1.467123440238e+03,-8.769031143799e+03
     840,-1.588967740141e+03,-2.516619999633e+02,-8.257527758010e+03
     841,-1.483227419828e+03,-6.270395580403e+02,-7.950233632021e+03
     842,-7.431072359838e+02,1.443682379791e+03,-8.351481007797e+03
     843,-1.571709300096e+03,-3.407289998685e+02,-8.479705761987e+03
     844,-1.596712999900e+03,-1.922506199138e+02,-8.724588477986e+03
     845,-1.041138919922e+03,-1.234415594005e+03,-8.068952009996e+03
     846,-1.006074939984e+03,-1.263815340000e+03,-7.746585592009e+03
     847,1.306318219961e+03,-9.658743600762e+02,-9.165856619993e+03
     848,-3.810291639978e+02,1.581677439812e+03,-8.606200418016e+03
     849,-4.765401679756e+02,1.553903719833e+03,-8.803612088011e+03
     850,-5.221200797949e+02,1.539753099980e+03,-8.362107083985e+03
     851,1.607391979957e+03,1.080726900288e+02,-7.639833108025e+03
     852,-1.053409519817e+03,-1.223125012000e+03,-9.090735673990e+03
     853,-1.342266340235e+03,-8.886152999815e+02,-8.655314945993e+03
     854,1.893301399279e+02,-1.612394780141e+03,-8.008867129986e+03
     855,-1.463237119936e+03,-6.668550400081e+02,-8.684562703996e+03
     856,-1.416127780131e+03,-7.613206201304e+02,-8.915533272034e+03
     857,-4.110206659691e+02,1.572805960278e+03,-9.151920276013e+03
     858,-1.547472720237e+03,-4.351744001147e+02,-8.706124851974e+03
     859,-1.515327040270e+03,-5.343911199133e+02,-8.931241698016e+03
     860,-1.498061159939e+03,-5.858891998677e+02,-8.450528615989e+03
     861,-1.580118920159e+03,-2.945461001269e+02,-8.942722923993e+03
     862,-1.608612180177e+03,-4.591059993067e+01,-8.950191908000e+03
     863,-1.598780720048e+03,2.060845998676e+02,-8.954074181400e+03
     864,1.582941320143e+03,-3.250179802455e+02,-9.151024763993e+03
     865,1.523724068012e+03,-5.513827997427e+02,-9.166244416601e+03
     866,1.511286129999e+03,-5.838985402676e+02,-8.997061494599e+03
     867,-1.549328899976e+03,4.547670999306e+02,-8.955691593599e+03
     868,-1.460617940005e+03,6.929346000622e+02,-8.956396371994e+03
     869,-8.755769199048e+02,-1.359251035944e+03,-8.522924081200e+03
     870,-1.334831920035e+03,9.138731399409e+02,-8.957191729597e+03
     871,-1.361072240024e+03,-8.559059601012e+02,-9.149177493971e+03
     872,-1.175858040073e+03,1.111784520105e+03,-8.958867660600e+03
     873,-1.475843060520e+03,-6.334523398773e+02,-9.157578340029e+03
     874,-9.890669401388e+02,1.281817939894e+03,-8.962438175999e+03
     875,-7.807541599481e+02,1.420358960067e+03,-8.968232207601e+03
     876,-5.479528519629e+02,1.528636719754e+03,-8.960719546014e+03
     877,5.398713220332e+01,1.631855339677e+03,-9.078237565987e+03
     878,1.605138839750e+03,-1.511566219398e+02,-7.652801117998e+03
     879,-1.556591920259e+03,-3.957908199763e+02,-9.163221915976e+03
     880,1.569742119748e+03,3.601440440566e+02,-7.637582666026e+03
     881,-1.601262979903e+03,-1.478461199107e+02,-9.166754411985e+03
     882,-1.607812559955e+03,1.049557800499e+02,-9.168602131196e+03
     883,-1.574701780118e+03,3.563373400914e+02,-9.169392933802e+03
     884,1.452981263979e+03,-7.100588199128e+02,-7.630025511994e+03
     885,-1.501649659996e+03,5.994811799620e+02,-9.169770576003e+03
     886,-1.318338919804e+03,-9.289519639661e+02,-7.599395716007e+03
     887,-1.390181800006e+03,8.276587000974e+02,-9.170196800595e+03
     888,-1.243646140050e+03,1.034860380044e+03,-9.171053094199e+03
     889,-1.066892220004e+03,1.216200140115e+03,-9.172566759600e+03
     890,-1.325213040217e+03,-9.164138819762e+02,-8.236510599977e+03
     891,-1.271557379930e+03,-9.901004259344e+02,-8.369323500015e+03
     892,-8.656223798630e+02,1.367948660114e+03,-9.173678507640e+03
     893,-6.506680000353e+02,1.485093260176e+03,-9.174004892599e+03
     894,-1.521261540032e+03,-5.299241100495e+02,-7.578568561971e+03
     895,-1.512488840279e+03,-5.537187119683e+02,-7.720677379999e+03
     896,-4.177329880208e+02,1.571215060137e+03,-9.014028991991e+03
     897,-4.549375420018e+01,1.630448420115e+03,-8.897082372016e+03
     898,-1.409482239798e+03,-7.786685459436e+02,-8.219758188014e+03
     899,-1.389516739974e+03,-8.129051799799e+02,-8.426057884028e+03
     900,1.644972639869e+02,1.622216440109e+03,-8.562998882035e+03
     901,1.432139460074e+03,-7.641275201717e+02,-9.165237511996e+03
     902,2.828021239653e+02,1.604043679741e+03,-8.367171316051e+03
     903,1.602763760361e+03,1.127497198735e+02,-8.873667945992e+03
     904,1.608354539904e+03,-7.683783996838e+01,-9.135972780020e+03
     905,1.570808880496e+03,3.222407799415e+02,-8.837646453937e+03
     906,1.594666700308e+03,1.770376999424e+02,-9.124394549976e+03
     907,8.246667400506e+02,-1.399346940063e+03,-8.560295267988e+03
     908,9.834613200138e+02,-1.291549419748e+03,-7.829411939988e+03
     909,-2.571958699943e+02,1.607990839980e+03,-8.902259443992e+03
     910,1.503995419493e+03,5.490481798036e+02,-8.909025597965e+03
     911,1.535399600512e+03,4.517563397629e+02,-9.078923198056e+03
     912,-1.612009660120e+02,1.621377579534e+03,-8.669043163989e+03
     913,1.433486040251e+03,7.092967600772e+02,-9.138011063928e+03
     914,1.325122180077e+03,9.037647799501e+02,-8.898322419982e+03
     915,1.310211560336e+03,9.230062000173e+02,-9.144643559965e+03
     916,1.155923159473e+03,1.119831792002e+03,-9.144446691983e+03
     917,3.564827100310e+02,1.587501360434e+03,-8.208550699930e+03
     918,9.724036802539e+02,1.293114479850e+03,-9.142985055994e+03
     919,5.388625454049e+02,1.540282999729e+03,-9.139623795996e+03
     920,3.111138159961e+02,1.604211599794e+03,-9.134708217998e+03
     921,3.991133199868e+02,-1.573970759993e+03,-9.005208434013e+03
     922,2.026625399745e+02,-1.610932640177e+03,-8.832518990015e+03
     923,4.519650000040e+02,1.557450759924e+03,-7.578575814023e+03
     924,4.277673200590e+02,1.565529800029e+03,-7.716822918036e+03
     925,7.181408800260e+01,1.627402519711e+03,-8.261460784005e+03
     926,-3.118271700554e+02,1.597421499524e+03,-7.602461175981e+03
     927,-3.658595319624e+02,1.585917260134e+03,-7.750046936016e+03
     928,-6.762590140037e+02,1.477650519951e+03,-8.152424496006e+03
     929,-4.704419440243e+02,1.557224819804e+03,-8.149811322018e+03
     930,-2.881231400056e+02,1.602247400148e+03,-8.392136705989e+03
     931,-5.494717800004e+01,1.628685619459e+03,-8.464588740014e+03
     932,1.525542400342e+03,4.904412400587e+02,-8.755871902062e+03
     933,1.554006639957e+03,-4.379867599960e+02,-7.696376026001e+03
     934,-8.588721600351e+02,-1.369709961979e+03,-7.660004120403e+03
     935,-8.242162400385e+02,-1.391245679954e+03,-7.811909458796e+03
     936,-9.046146999407e+02,-1.339527535977e+03,-8.216931531991e+03
     937,-9.941016799774e+02,-1.273148450023e+03,-8.843806982001e+03
     938,8.651789999309e+02,-1.374463419713e+03,-8.229404865984e+03
     939,7.506518599347e+02,-1.440306739954e+03,-8.123377298016e+03
     940,8.383482799978e+02,-1.391159260041e+03,-9.102497592005e+03
     941,7.626327200107e+02,1.436176159954e+03,-9.138724586006e+03
     942,-3.742055801203e+02,-1.577800720046e+03,-8.609592013193e+03
     943,-1.566879400145e+02,-1.615025100224e+03,-8.562339816009e+03
     944,-1.979812199866e+02,-1.609696519880e+03,-7.936890981991e+03
     945,-1.445547999828e+02,-1.615878780080e+03,-8.208843368004e+03
     946,-3.615349399849e+02,-1.580243859869e+03,-8.157384995994e+03
     947,4.160136200599e+02,-1.569809320017e+03,-8.178778491992e+03
     948,1.613803200400e+02,-1.615409959964e+03,-8.207037438017e+03
     949,1.492434599567e+02,-1.616640119986e+03,-8.560544993990e+03
     950,3.568650000612e+02,-1.584164139785e+03,-8.597226013993e+03
     951,4.034720199567e+02,-1.572760560161e+03,-9.195010423987e+03
     952,3.923783799990e+02,-1.575750420115e+03,-7.639162390007e+03
     953,3.876660799495e+02,-1.576987639915e+03,-7.939255338010e+03
     954,-3.963357600480e+02,-1.571080760130e+03,-7.571981114196e+03
     955,-3.822266000479e+02,-1.574824059927e+03,-7.755364324997e+03
     956,-4.487880999426e+02,-1.558698319869e+03,-9.200655852796e+03
     957,-4.000813399544e+02,-1.571516920013e+03,-8.783988223205e+03
     958,4.220217399730e+01,1.630722900060e+03,-8.756396899953e+03
     959,-1.522648019928e+03,-5.208436799811e+02,-8.175704378022e+03
     960,8.155950199036e+02,1.401658760200e+03,-8.655214716012e+03
     961,4.531383799508e+02,-1.559520159877e+03,-8.427320441985e+03
     962,6.290189400887e+02,-1.497387699972e+03,-8.662369981989e+03
     963,-4.538958399963e+02,-1.555770699922e+03,-8.303756346998e+03
     964,-6.296241200267e+02,-1.491647379974e+03,-8.172236250100e+03
     965,-2.239283779851e+02,1.613640499481e+03,-9.141898252027e+03
     966,7.020131199901e+02,-1.464682540271e+03,-8.344768814005e+03
     967,1.526064999931e+02,-1.616409160093e+03,-9.131950165995e+03
     968,-1.480086999951e+02,-1.615103279951e+03,-7.637459008002e+03
     969,6.192451800540e+02,-1.501520140217e+03,-8.151579808014e+03
     970,-9.181536798921e+02,-1.330048706005e+03,-7.913711405996e+03
     971,-2.505530199274e+02,-1.602525840185e+03,-8.396757183999e+03
     972,2.553004399529e+02,-1.603506780134e+03,-8.372640265993e+03
     973,9.277666398963e+02,-1.333320800068e+03,-8.794553942011e+03
     974,-1.051940399988e+03,-1.225454976398e+03,-7.599386298009e+03
     975,1.045729120083e+03,-1.243446019886e+03,-9.178900110012e+03
     976,-5.101736001494e+01,1.627296900019e+03,-8.017352919982e+03
     977,7.941293946834e+00,1.627120220163e+03,-7.799721606000e+03
     978,-1.702093079864e+02,1.618681659469e+03,-7.774309179976e+03
     979,-2.286925959645e+02,1.611780160377e+03,-7.991965908005e+03
     980,-1.909831599752e+02,-1.611768559896e+03,-9.123813427994e+03
     981,-1.057210999891e+02,-1.619657240149e+03,-8.945990737993e+03
     982,-8.314312005385e+01,-1.621254779868e+03,-9.187504893999e+03
     983,1.956026999525e+02,-1.611543679837e+03,-7.645548129990e+03
     984,1.103533400049e+02,-1.619396399979e+03,-7.823376284017e+03
     985,8.771279993087e+01,-1.620575160025e+03,-7.581861848015e+03
     986,1.605147380245e+03,-1.471590200676e+02,-8.511504638001e+03
     987,1.609916439785e+03,-4.051975986287e+01,-8.389635910012e+03
     988,1.606794379905e+03,7.500981995563e+01,-8.507548625976e+03
     989,1.609575120256e+03,-3.168782001098e+01,-8.629437809989e+03
     990,-7.488667199717e+02,-1.435607660058e+03,-9.187906547002e+03
     991,-8.455774601116e+02,-1.379113980032e+03,-9.083989367003e+03
     992,-7.536201400787e+02,-1.432683000108e+03,-8.989682997798e+03
     993,-6.533311599226e+02,-1.482506399885e+03,-9.093607668600e+03
     994,-8.303805199826e+02,-1.388321659973e+03,-8.872448409401e+03
     995,-7.025835399704e+02,-1.458741660042e+03,-8.770554783200e+03
     996,-6.221006799040e+02,-1.495883780057e+03,-8.887798397399e+03
     997,5.971503659780e+02,1.514211019520e+03,-8.763614068005e+03
     998,5.992026539891e+02,1.511795819696e+03,-8.563795275969e+03
     999,4.574264659734e+02,1.563043000310e+03,-8.575248909968e+03
    1000,4.553097599847e+02,1.565265400574e+03,-8.775069655962e+03
    1001,6.730445799567e+02,-1.477978159737e+03,-7.594982444007e+03
    1002,7.787500799986e+02,-1.425029119935e+03,-7.698565328008e+03
    1003,6.950808199449e+02,-1.467844379758e+03,-7.792675806009e+03
    1004,5.864488800612e+02,-1.514516200266e+03,-7.689095624007e+03
    1005,1.292905569983e+03,-9.784793198813e+02,-8.112535242016e+03
    1006,1.187985901974e+03,-1.104677900061e+03,-7.990535451987e+03
    1007,1.267805719984e+03,-1.010169700055e+03,-7.854971770005e+03
    1008,1.362601544000e+03,-8.762196999942e+02,-7.977004754008e+03
    1009,1.499409522002e+03,-6.068405198854e+02,-8.158841956200e+03
    1010,1.475850470003e+03,-6.650679400492e+02,-8.316112139996e+03
    1011,1.405512991992e+03,-8.057342799895e+02,-8.235264347984e+03
    1012,1.434667830015e+03,-7.501600199121e+02,-8.077975211991e+03
    1013,1.603056040288e+03,-1.720766401044e+02,-8.281451088011e+03
    1014,1.609259919911e+03,-7.980961996519e+01,-8.158430940000e+03
    1015,1.608727859884e+03,5.193654000898e+01,-8.266606131979e+03
    1016,1.608191339885e+03,8.346229993968e+01,-7.900571916005e+03
    1017,1.590704540063e+03,2.412024599333e+02,-8.027813642009e+03
    1018,1.601594380068e+03,1.536953999557e+02,-8.152708896017e+03
    1019,1.610711100227e+03,-4.723670012120e+00,-8.025439217967e+03
    1020,1.497672459922e+03,5.876013599354e+02,-7.890806980051e+03
    1021,1.420855379832e+03,7.535054801359e+02,-8.012854863954e+03
    1022,1.453419720020e+03,6.852918998562e+02,-8.175266346024e+03
    1023,1.522614140102e+03,5.161083999151e+02,-8.053160961975e+03
    1024,1.386908040198e+03,8.166397599524e+02,-7.880581887981e+03
    1025,1.291225300059e+03,9.614526979739e+02,-8.002728756026e+03
    1026,1.331614040142e+03,9.023379599980e+02,-8.135035907976e+03
    1027,1.063094899924e+03,1.214112151801e+03,-7.873130348799e+03
    1028,9.191470800029e+02,1.329821706065e+03,-8.005101824013e+03
    1029,9.878551797942e+02,1.278199797994e+03,-8.135275845994e+03
    1030,1.125432439846e+03,1.154959819995e+03,-8.003313917991e+03
    1031,8.550247801108e+02,1.372692620056e+03,-7.857367110012e+03
    1032,6.608745800001e+02,1.480374540136e+03,-7.990196561983e+03
    1033,7.304528399794e+02,1.446871259829e+03,-8.137876738026e+03
    1034,6.484670401139e+02,1.484924559906e+03,-7.810851268000e+03
    1035,4.790690920144e+02,1.550857799997e+03,-7.860958321966e+03
    1036,4.920747140166e+02,1.547843059917e+03,-8.040293359978e+03
    1037,1.523226820278e+02,1.620235679443e+03,-8.007320842053e+03
    1038,3.183214300064e+02,1.594684999911e+03,-8.018591908037e+03
    1039,3.444384559494e+02,1.587985080135e+03,-7.869282443991e+03
    1040,1.789234920525e+02,1.616519320159e+03,-7.857981388041e+03
    1041,-6.899688320109e+02,1.471900760130e+03,-7.945721756008e+03
    1042,-5.504656659719e+02,1.530514980174e+03,-7.984680531992e+03
    1043,-4.978580299644e+02,1.548953619768e+03,-7.874844168015e+03
    1044,-6.393538419942e+02,1.495329280148e+03,-7.835899443997e+03
    1045,-8.885608483936e+02,1.359374659719e+03,-7.874821868599e+03
    1046,-1.041863461980e+03,1.242938819817e+03,-7.984303033799e+03
    1047,-9.729059060089e+02,1.298138780137e+03,-8.114525775801e+03
    1048,-8.134378177973e+02,1.405952520261e+03,-8.004996908796e+03
    1049,-1.112864575983e+03,1.178846719728e+03,-7.863007386200e+03
    1050,-1.227985980003e+03,1.055141280072e+03,-7.976342431198e+03
    1051,-1.164198431997e+03,1.126357319959e+03,-8.097654427799e+03
    1052,-1.286440379855e+03,9.812541799747e+02,-7.858470072204e+03
    1053,-1.377756539947e+03,8.445693600791e+02,-7.973379268601e+03
    1054,-1.327186820030e+03,9.240572199857e+02,-8.091231982603e+03
    1055,-1.423486019778e+03,7.621947399441e+02,-7.857020449603e+03
    1056,-1.491916279794e+03,6.135682200008e+02,-7.972522983204e+03
    1057,-1.454704579998e+03,7.001499201214e+02,-8.088855065395e+03
    1058,-1.524700480114e+03,5.229843999402e+02,-7.856572113204e+03
    1059,-1.569050599756e+03,3.647986400443e+02,-7.970488595399e+03
    1060,-1.545449659745e+03,4.582288198941e+02,-8.086411173600e+03
    1061,-1.587608700022e+03,2.679272600108e+02,-7.853392917202e+03
    1062,-1.606086199797e+03,1.059524000282e+02,-7.961867521800e+03
    1063,-1.597141940143e+03,2.041994600371e+02,-8.078949141204e+03
    1064,-1.602315420244e+03,-1.490352800657e+02,-7.943565219984e+03
    1065,-1.608442080185e+03,-5.048778004796e+01,-8.061812660017e+03
    1066,-1.609307360278e+03,7.267970062005e+00,-7.843636447994e+03
    1067,-1.564034180279e+03,-3.801322399981e+02,-7.927051089989e+03
    1068,-1.586896940198e+03,-2.667610600518e+02,-8.036438136000e+03
    1069,-1.587756020043e+03,-2.637806360073e+02,-7.834204833988e+03
    1070,-1.364906180025e+03,-8.569305639475e+02,-7.920927662018e+03
    1071,-1.437535439761e+03,-7.264814859576e+02,-7.987501587990e+03
    1072,-1.467198339922e+03,-6.647257320584e+02,-7.858198053981e+03
    1073,-1.400084260287e+03,-7.981111399808e+02,-7.791640286020e+03
    1074,-1.226575300245e+03,-1.047364772030e+03,-7.991096150004e+03
    1075,-1.331882999885e+03,-9.073637059826e+02,-8.066220635990e+03
    1076,-1.264775019913e+03,-1.000685924005e+03,-7.845818916003e+03
    1077,-1.110948320074e+03,-1.171030202800e+03,-7.971741506014e+03
    1078,-1.101580879917e+03,-1.179759253597e+03,-8.155306781990e+03
    1079,-1.218055079910e+03,-1.056896268012e+03,-8.174669131983e+03
    1080,1.237313639967e+03,-1.053200659830e+03,-9.170724077985e+03
    1081,1.309715000013e+03,-9.623251797450e+02,-9.275165135988e+03
    1082,1.155016939876e+03,-1.143406739800e+03,-9.280030907995e+03
    1083,6.001360400527e+02,-1.509213219832e+03,-7.875961028006e+03
    1084,7.784416399292e+02,-1.425345280155e+03,-7.895732351999e+03
    1085,6.860650999973e+02,-1.472161239836e+03,-7.979016005992e+03
    1086,-1.207111780142e+03,-1.067668702055e+03,-8.881524406000e+03
    1087,-1.313550979891e+03,-9.307376200289e+02,-8.774526675991e+03
    1088,-1.255962600135e+03,-1.009197480043e+03,-8.628822078002e+03
    1089,-1.141490560130e+03,-1.139488728009e+03,-8.735793449985e+03
    1090,-6.778224199967e+02,-1.470401040014e+03,-8.574103040240e+03
    1091,-8.191475600859e+02,-1.394829240040e+03,-8.568116901195e+03
    1092,-8.151580599340e+02,-1.397088680042e+03,-8.440417823996e+03
    1093,-6.735933998677e+02,-1.472211179949e+03,-8.446405558780e+03
    1094,-1.422615820030e+03,-7.468233599014e+02,-9.153391401971e+03
    1095,-1.330730059816e+03,-9.023442799523e+02,-9.267424729973e+03
    1096,-1.453366900442e+03,-6.821388600736e+02,-9.271677419988e+03
    1097,-1.406999840094e+03,-7.800527199379e+02,-8.669955341964e+03
    1098,-1.353832360230e+03,-8.691614598715e+02,-8.904646962022e+03
    1099,-1.440419339770e+03,-7.144476798677e+02,-8.800052384003e+03
    1100,-1.509651839735e+03,-5.525793800390e+02,-8.695365626011e+03
    1101,-1.469937980481e+03,-6.496973800736e+02,-8.923405614019e+03
    1102,-1.532187639764e+03,-4.850326799480e+02,-8.818691575988e+03
    1103,1.595918760244e+03,-2.337998200346e+02,-8.058297084018e+03
    1104,1.604323419931e+03,-1.591653600468e+02,-7.925312616005e+03
    1105,-1.576630079992e+03,-3.146336599493e+02,-8.715373651993e+03
    1106,-1.552174239774e+03,-4.156732398668e+02,-8.937002852032e+03
    1107,-1.589257280002e+03,-2.435336800741e+02,-8.833661827999e+03
    1108,-1.607624720153e+03,-6.807369988755e+01,-8.730868126004e+03
    1109,-1.599063200031e+03,-1.707688400419e+02,-8.946459126012e+03
    1110,-1.609713560035e+03,5.324849945794e+00,-8.843666544001e+03
    1111,-1.600937059810e+03,1.823436399132e+02,-8.739796704398e+03
    1112,-1.608590719745e+03,8.027865994454e+01,-8.952122522198e+03
    1113,-1.591728840147e+03,2.567140201455e+02,-8.848272999660e+03
    1114,-1.555074239891e+03,4.312292601235e+02,-8.743747299402e+03
    1115,-1.579009200169e+03,3.314123799958e+02,-8.954867333598e+03
    1116,-1.534135579950e+03,5.040080800503e+02,-8.850367022602e+03
    1117,1.518367719933e+03,-5.548248801121e+02,-8.031585692999e+03
    1118,1.473348974059e+03,-6.678127999370e+02,-7.953820916394e+03
    1119,1.496217299998e+03,-6.124696200558e+02,-7.852360861196e+03
    1120,1.537017620091e+03,-4.979016399462e+02,-7.930146630801e+03
    1121,-1.470006959939e+03,6.709668800681e+02,-8.745166881806e+03
    1122,-1.509767340026e+03,5.756414200170e+02,-8.956030887199e+03
    1123,-1.437701599910e+03,7.393418200356e+02,-8.850858549401e+03
    1124,-1.347680199994e+03,8.943009199480e+02,-8.746086659200e+03
    1125,-1.402160480040e+03,8.059302198850e+02,-8.956782587997e+03
    1126,-1.304817080041e+03,9.564036399903e+02,-8.852026716799e+03
    1127,-1.191748720145e+03,1.095123359906e+03,-8.748393674201e+03
    1128,-1.259244500063e+03,1.015958899967e+03,-8.958031074199e+03
    1129,-1.139791140102e+03,1.149214720102e+03,-8.854393544800e+03
    1130,-1.007404080071e+03,1.268251439882e+03,-8.752835879001e+03
    1131,-1.085721060088e+03,1.200382880090e+03,-8.960667347401e+03
    1132,-9.480571800551e+02,1.313265339970e+03,-8.859085725601e+03
    1133,-1.248299780007e+03,-1.022058459972e+03,-7.602255762010e+03
    1134,-1.311124579770e+03,-9.395360319955e+02,-7.492480439988e+03
    1135,-1.155835260004e+03,-1.126874889999e+03,-7.495273348002e+03
    1136,-1.217132039719e+03,-1.057610026014e+03,-8.305495359984e+03
    1137,-1.298892640130e+03,-9.536216779321e+02,-8.302924169992e+03
    1138,-1.299810099903e+03,-9.529045020240e+02,-8.172094898021e+03
    1139,-8.019081520157e+02,1.409239660190e+03,-8.762392778200e+03
    1140,-8.875066200949e+02,1.354989200046e+03,-8.965351783920e+03
    1141,-7.372733139878e+02,1.444413140099e+03,-8.868635753599e+03
    1142,-5.863474819881e+02,1.514325340232e+03,-8.786341334003e+03
    1143,-6.664396719785e+02,1.478981880012e+03,-8.964496366002e+03
    1144,-5.123989579897e+02,1.541705400022e+03,-8.882162223983e+03
    1145,1.550870660459e+03,4.211764800293e+02,-8.184092371979e+03
    1146,1.573074439749e+03,3.387611399519e+02,-7.896937747929e+03
    1147,1.194245499937e+03,-1.100374780031e+03,-8.730513767992e+03
    1148,1.280941960128e+03,-9.977913200575e+02,-8.835090344006e+03
    1149,1.222509499861e+03,-1.069448720140e+03,-8.953752203989e+03
    1150,1.129990239994e+03,-1.166827259807e+03,-8.849191910004e+03
    1151,1.321612900060e+03,-9.421784597389e+02,-8.734316989982e+03
    1152,1.398820860002e+03,-8.219031997782e+02,-8.828088726013e+03
    1153,1.363343080142e+03,-8.809999198206e+02,-8.928841163987e+03
    1154,1.538820741989e+03,-5.020772001114e+02,-8.937014201001e+03
    1155,1.472316384052e+03,-6.788964200722e+02,-8.955780838013e+03
    1156,1.457997921927e+03,-7.088654998420e+02,-8.817375649993e+03
    1157,1.528274501995e+03,-5.335051198864e+02,-8.798594938801e+03
    1158,1.605834540136e+03,-1.365693000643e+02,-8.755872157997e+03
    1159,1.590710919961e+03,-2.754258999163e+02,-8.879484008000e+03
    1160,1.568124139942e+03,-3.914003601376e+02,-8.742640144599e+03
    1161,1.593545299898e+03,-2.540727201045e+02,-8.619013176011e+03
    1162,4.174711519879e+02,1.573429479488e+03,-8.415880143971e+03
    1163,2.238161499828e+02,1.614325559488e+03,-8.465077059983e+03
    1164,2.649004560062e+02,1.609013820492e+03,-8.624412947966e+03
    1165,-4.832823140268e+02,1.551267460045e+03,-8.987373280002e+03
    1166,-3.379416039941e+02,1.591684560311e+03,-8.958145247994e+03
    1167,-3.677978199894e+02,1.584701120054e+03,-8.852940673980e+03
    1168,1.400884640019e+03,7.810348999763e+02,-8.635245415998e+03
    1169,1.329889840574e+03,8.978243200190e+02,-8.771253620006e+03
    1170,1.386495740461e+03,8.031000799284e+02,-8.902771078072e+03
    1171,1.449782680414e+03,6.820320601183e+02,-8.766694904033e+03
    1172,1.107277140182e+03,1.171969895983e+03,-8.649966107998e+03
    1173,1.005719319768e+03,1.264782020074e+03,-8.776221833208e+03
    1174,1.089124420258e+03,1.189461846012e+03,-8.900560287402e+03
    1175,1.184095539502e+03,1.089928305996e+03,-8.774296389991e+03
    1176,7.335517400458e+02,1.448788939820e+03,-8.659063998025e+03
    1177,6.708506219487e+02,1.482079500214e+03,-8.880060322015e+03
    1178,8.036919601012e+02,1.409614200232e+03,-8.775561024032e+03
    1179,2.922717530006e+02,1.606085879539e+03,-8.911287686056e+03
    1180,4.512951719960e+02,1.567477580346e+03,-8.911712778069e+03
    1181,2.963943399936e+02,1.604409640038e+03,-8.774638675953e+03
    1182,-8.236101800424e+02,1.394855019912e+03,-9.070960160039e+03
    1183,-7.602651200953e+02,1.430399779879e+03,-9.173863755198e+03
    1184,-5.997140039686e+02,1.507830099928e+03,-9.067366344001e+03
    1185,-1.028477779943e+03,1.249615600039e+03,-9.067501708199e+03
    1186,-9.691056998596e+02,1.295841800108e+03,-9.173143281598e+03
    1187,-1.210307800105e+03,1.073826780129e+03,-9.064967140600e+03
    1188,-1.158774899890e+03,1.128946579925e+03,-9.171819530950e+03
    1189,1.513148659478e+03,5.370629401354e+02,-8.327199368048e+03
    1190,1.554808999813e+03,4.002813398866e+02,-8.420765130011e+03
    1191,1.582417180000e+03,2.816629399248e+02,-8.277593352017e+03
    1192,-1.363123240100e+03,8.711610000563e+02,-9.063687961999e+03
    1193,-1.321045979955e+03,9.341808198749e+02,-9.170620005198e+03
    1194,-1.481819199978e+03,6.465032799624e+02,-9.063079934009e+03
    1195,-1.450547420038e+03,7.158358199273e+02,-9.169962414001e+03
    1196,-1.562777600137e+03,4.057409799738e+02,-9.062543276598e+03
    1197,-1.543118560028e+03,4.793962598918e+02,-9.169562529808e+03
    1198,-1.604126700222e+03,1.555875999708e+02,-9.061330602200e+03
    1199,-1.596272760144e+03,2.313098599873e+02,-9.168984852560e+03
    1200,-1.605816959750e+03,-9.694305988750e+01,-9.058468192007e+03
    1201,-1.609431360265e+03,-2.157067987945e+01,-9.167673109996e+03
    1202,-1.569233059801e+03,-3.453697199556e+02,-9.052980097992e+03
    1203,-1.583597700497e+03,-2.726599399856e+02,-9.164995346007e+03
    1204,-1.496439920276e+03,-5.842537601129e+02,-9.044414439967e+03
    1205,-1.520631379429e+03,-5.161227799534e+02,-9.160419176023e+03
    1206,-1.389394500179e+03,-8.090672198994e+02,-9.032364930003e+03
    1207,1.504794900221e+02,1.621361260490e+03,-8.177585902038e+03
    1208,1.777142440228e+02,1.619294020207e+03,-8.314295971950e+03
    1209,3.197400719794e+02,1.596233659984e+03,-8.287857247994e+03
    1210,2.928650099679e+02,1.600682340173e+03,-8.151135193998e+03
    1211,-1.250387720039e+03,-1.014916838070e+03,-9.014466932011e+03
    1212,-1.292221139871e+03,-9.590708799820e+02,-9.142203929968e+03
    1213,-1.089006019785e+03,-1.190712822000e+03,-8.980009923999e+03
    1214,-1.137608460264e+03,-1.142876268008e+03,-9.112969457995e+03
    1215,4.894096400319e+02,1.546710680118e+03,-7.747642616025e+03
    1216,3.550438399660e+02,1.584791340022e+03,-7.755949201976e+03
    1217,-1.516923679996e+03,-5.418409279771e+02,-7.649628162015e+03
    1218,-1.537341200111e+03,-4.790012619681e+02,-7.776149314014e+03
    1219,-1.569742319945e+03,-3.577257140132e+02,-7.713890066001e+03
    1220,-1.554221719910e+03,-4.219708920441e+02,-7.587374252011e+03
    1221,-1.606653139847e+03,-9.389776993357e+01,-7.724460337988e+03
    1222,-1.598559900068e+03,-1.892261359950e+02,-7.604166476009e+03
    1223,-1.600994259834e+03,1.653643799863e+02,-7.734811889002e+03
    1224,-1.608057259780e+03,6.441249402209e+01,-7.615650847992e+03
    1225,-1.554145519816e+03,4.232399600036e+02,-7.738917740000e+03
    1226,-1.577281259914e+03,3.224452600049e+02,-7.620322315800e+03
    1227,-1.468053419796e+03,6.687626000697e+02,-7.739112815203e+03
    1228,-1.506774019717e+03,5.722637799668e+02,-7.621430787197e+03
    1229,-1.345886140065e+03,8.953797201384e+02,-7.739241497599e+03
    1230,-1.399058380036e+03,8.065784200685e+02,-7.621308428797e+03
    1231,-3.230009439837e+02,1.595259219785e+03,-7.810068211981e+03
    1232,-4.427333040667e+02,1.565992060036e+03,-7.769244977984e+03
    1233,-3.792931459643e+02,1.582649540330e+03,-7.915669044014e+03
    1234,-1.188886862045e+03,1.100491920040e+03,-7.741106774595e+03
    1235,-1.256293659993e+03,1.020702919754e+03,-7.621871561398e+03
    1236,-9.956030709988e+02,1.281985760138e+03,-7.745165779801e+03
    1237,-1.078976455990e+03,1.211448820104e+03,-7.623286915398e+03
    1238,-7.559113259867e+02,1.439260779823e+03,-7.749930532008e+03
    1239,-8.699875439896e+02,1.372602360053e+03,-7.620321220001e+03
    1240,-5.235805999883e+02,1.540672300178e+03,-7.692870858010e+03
    1241,-6.441817480414e+02,1.493879980244e+03,-7.606933272002e+03
    1242,-3.389012760585e+02,1.591932580239e+03,-7.676249522024e+03
    1243,-1.863170820349e+02,1.616685459766e+03,-7.640492982034e+03
    1244,-4.737860620217e+02,1.556337900180e+03,-8.055530410013e+03
    1245,-3.252981820150e+02,1.594820920362e+03,-8.131826878010e+03
    1246,2.577601540530e+02,1.604222919739e+03,-7.701081424054e+03
    1247,8.756869995625e+01,1.623632159720e+03,-7.642774860006e+03
    1248,4.398808600552e+02,1.561543000020e+03,-7.647699007943e+03
    1249,6.007634799608e+02,1.504803160006e+03,-7.682806874032e+03
    1250,5.525174000209e+02,1.523244239946e+03,-7.582838468032e+03
    1251,7.996866599975e+02,1.406030319980e+03,-7.725925122034e+03
    1252,7.544614998951e+02,1.430891680017e+03,-7.597850621972e+03
    1253,1.007663480227e+03,1.261457626200e+03,-7.747095755002e+03
    1254,9.567110400655e+02,1.301114823995e+03,-7.615630319996e+03
    1255,1.195985140028e+03,1.080948602035e+03,-7.751219257989e+03
    1256,1.146472860050e+03,1.134477781970e+03,-7.625191279992e+03
    1257,1.470644800244e+03,6.547429200175e+02,-7.759336415929e+03
    1258,1.441473539841e+03,7.189051579811e+02,-7.631769347971e+03
    1259,1.350804900143e+03,8.770606360462e+02,-7.752966664024e+03
    1260,1.555798299765e+03,4.132174000387e+02,-7.766992242004e+03
    1261,1.536359919928e+03,4.830405899454e+02,-7.635572518053e+03
    1262,1.602555919844e+03,1.588796860557e+02,-7.768646262034e+03
    1263,1.593482460088e+03,2.348443939675e+02,-7.638732281964e+03
    1264,1.554466839552e+03,3.873559600214e+02,-8.958291591948e+03
    1265,1.550285400549e+03,4.069191000811e+02,-8.796775465958e+03
    1266,1.515041900475e+03,5.198377199377e+02,-8.832445942041e+03
    1267,1.520393599738e+03,5.006401001876e+02,-8.993982666045e+03
    1268,1.608858960257e+03,-9.719949393411e+01,-7.778238756035e+03
    1269,1.611382479943e+03,-2.158520194483e+01,-7.646324619981e+03
    1270,1.574060020066e+03,-3.566829400455e+02,-7.821657884000e+03
    1271,1.585939940145e+03,-2.957061740098e+02,-7.674589139991e+03
    1272,1.458023696012e+03,-7.000623199234e+02,-7.739511640003e+03
    1273,1.509597040030e+03,-5.762850201259e+02,-7.663180300999e+03
    1274,1.540370440131e+03,-4.858426599897e+02,-7.776049552399e+03
    1275,1.336942237620e+03,-9.144077600165e+02,-7.738113749999e+03
    1276,1.173449844063e+03,-1.119508680289e+03,-7.734776679990e+03
    1277,1.250933750003e+03,-1.030405080143e+03,-7.617883281989e+03
    1278,-1.483188419720e+03,-6.286229460367e+02,-7.743422829985e+03
    1279,-1.524982580160e+03,-5.164711839436e+02,-7.890931325969e+03
    1280,-6.002898001223e+02,-1.504637560057e+03,-8.658221407800e+03
    1281,-7.775272998756e+02,-1.419136980068e+03,-8.686443830600e+03
    1282,1.517558829996e+03,-5.676612202634e+02,-9.081652122194e+03
    1283,1.573123280005e+03,-3.720925199075e+02,-9.014000761598e+03
    1284,1.557591564035e+03,-4.393194402181e+02,-9.158619587000e+03
    1285,1.607559980132e+03,-1.033955201266e+02,-9.008993082028e+03
    1286,1.600519760175e+03,-2.014321998821e+02,-9.143500078012e+03
    1287,1.609025199806e+03,-8.529770023302e+00,-8.877844516035e+03
    1288,1.599123540011e+03,1.449430799623e+02,-8.999033395992e+03
    1289,1.606424459418e+03,5.036288000159e+01,-9.130192638002e+03
    1290,8.868762600303e+02,-1.360140980148e+03,-7.815311550000e+03
    1291,8.759974200455e+02,-1.366961700199e+03,-7.601449198010e+03
    1292,9.792522140564e+02,-1.294590420158e+03,-7.718202615997e+03
    1293,1.590089699481e+03,2.180076199382e+02,-8.855670198028e+03
    1294,1.570680220558e+03,3.156236599677e+02,-9.101698968071e+03
    1295,1.317781140347e+03,9.134608800723e+02,-9.021485414032e+03
    1296,1.375575400237e+03,8.182958998467e+02,-9.141366243995e+03
    1297,1.437301399554e+03,7.039563799414e+02,-9.022594823997e+03
    1298,1.165921359572e+03,1.109384391981e+03,-9.022454832007e+03
    1299,1.236636879599e+03,1.024214140040e+03,-9.144569789979e+03
    1300,1.253954760306e+03,1.003979080034e+03,-8.899415157979e+03
    1301,5.417379340104e+02,1.537838939665e+03,-9.001961586072e+03
    1302,6.528687700196e+02,1.492811560337e+03,-9.139132135967e+03
    1303,7.771749398834e+02,1.426804299862e+03,-9.017315054009e+03
    1304,3.336093495962e+02,1.598791400377e+03,-9.046936462018e+03
    1305,4.262614990025e+02,1.576779000306e+03,-9.137128082013e+03
    1306,1.411924519993e+02,1.626665220378e+03,-8.970809104021e+03
    1307,1.831523779979e+02,1.623476840421e+03,-9.106433486026e+03
    1308,1.242779219886e+03,1.025233445961e+03,-7.875374644034e+03
    1309,1.180414039851e+03,1.096790701989e+03,-8.130694994009e+03
    1310,1.134097939835e+03,1.145393148017e+03,-8.391831590007e+03
    1311,1.239814659835e+03,1.026535905950e+03,-8.259350464003e+03
    1312,1.068184800118e+03,1.209533883983e+03,-8.263157465199e+03
    1313,8.085878799470e+02,-1.408561579845e+03,-8.176386450000e+03
    1314,7.610378200176e+02,-1.434811799793e+03,-8.056812069986e+03
    1315,8.656380599508e+02,-1.374025439997e+03,-8.019129479993e+03
    1316,9.110863999588e+02,-1.344284859743e+03,-8.138714256001e+03
    1317,1.575243580301e+03,3.042611001328e+02,-8.729787843999e+03
    1318,1.564152399599e+03,3.573726200592e+02,-8.619448193986e+03
    1319,1.535963379764e+03,4.592041000744e+02,-8.686412696008e+03
    1320,1.266826160552e+03,9.889420200560e+02,-8.646179298006e+03
    1321,1.288143439924e+03,9.623651600572e+02,-8.389618287974e+03
    1322,1.204874219797e+03,1.067185271962e+03,-8.518659256011e+03
    1323,1.343712619667e+03,8.794081600013e+02,-8.517095136028e+03
    1324,3.248849599428e+02,-1.590953840141e+03,-8.794507040015e+03
    1325,5.013309000566e+02,-1.544623040243e+03,-8.857965459994e+03
    1326,4.785601599614e+02,-1.551745840004e+03,-8.982323420001e+03
    1327,3.014605201450e+02,-1.595498439988e+03,-8.918863640000e+03
    1328,3.032903999715e+02,-1.595158979954e+03,-7.850653424003e+03
    1329,2.890520799427e+02,-1.597795659789e+03,-7.974060802006e+03
    1330,9.590908001168e+01,-1.620312599753e+03,-7.946781506008e+03
    1331,2.535834999356e+02,-1.603785039725e+03,-8.578885292006e+03
    1332,4.012042800316e+02,-1.573552739967e+03,-8.676859750012e+03
    1333,1.759793999402e+02,-1.614018460208e+03,-8.696531737999e+03
    1334,-3.436700799633e+02,-1.584115440077e+03,-7.939355967807e+03
    1335,-4.838016801139e+02,-1.545997000013e+03,-7.861426945995e+03
    1336,-4.319450999934e+02,-1.561583280016e+03,-7.768191389003e+03
    1337,-2.906105199947e+02,-1.594948700113e+03,-7.846124497402e+03
    1338,1.604523499807e+03,9.630734010913e+01,-8.751386678001e+03
    1339,1.596037739839e+03,1.834626000630e+02,-8.625535193968e+03
    1340,1.129881619992e+03,-1.165486159945e+03,-8.281332974007e+03
    1341,1.252438805988e+03,-1.031038020099e+03,-8.240552253988e+03
    1342,1.292740623951e+03,-9.803029997469e+02,-8.435088989997e+03
    1343,1.175639559939e+03,-1.119522799899e+03,-8.475869985989e+03
    1344,-1.548090800002e+03,-4.395439399376e+02,-8.099092049993e+03
    1345,-1.561486159857e+03,-3.876575599870e+02,-8.216628160004e+03
    1346,-1.594715139983e+03,-2.137182600010e+02,-8.153945334015e+03
    1347,1.574896460030e+03,-3.583965799383e+02,-8.503902325991e+03
    1348,1.593538339878e+03,-2.524941400778e+02,-8.396394533999e+03
    1349,1.492377680515e+03,5.875882401146e+02,-8.535353608046e+03
    1350,1.471803899712e+03,6.420746599569e+02,-8.308106606011e+03
    1351,1.447692320176e+03,6.912128198900e+02,-8.516231893956e+03
    1352,1.373787479504e+03,8.338849400238e+02,-8.265262641995e+03
    1353,1.396403379989e+03,7.928368598621e+02,-8.398146543973e+03
    1354,9.183874999491e+02,1.332815420081e+03,-8.653487289983e+03
    1355,1.029992239742e+03,1.243723767941e+03,-8.523125841399e+03
    1356,9.417523999106e+02,1.314639600131e+03,-8.400829672017e+03
    1357,8.241790200795e+02,1.395622839829e+03,-8.531220964032e+03
    1358,5.419748998967e+02,-1.530996060034e+03,-8.544845656002e+03
    1359,5.380883799483e+02,-1.532302400062e+03,-8.709432759992e+03
    1360,4.051911999664e+02,-1.572578839853e+03,-8.512273754004e+03
    1361,7.452904201141e+02,-1.442952260287e+03,-9.134164329985e+03
    1362,6.031919200680e+02,-1.507742199925e+03,-9.062638655988e+03
    1363,6.523982400714e+02,-1.487261780150e+03,-8.919373279998e+03
    1364,7.922940199271e+02,-1.417854220193e+03,-8.990897928012e+03
    1365,-5.426923398910e+02,-1.526276339992e+03,-8.237993087598e+03
    1366,-5.586484799565e+02,-1.520153199948e+03,-8.057033172202e+03
    1367,-4.243126398956e+02,-1.564002419967e+03,-8.049602662798e+03
    1368,-4.078978999088e+02,-1.568698499928e+03,-8.230565013008e+03
    1369,1.474183140332e+03,6.245079402426e+02,-8.908117322069e+03
    1370,1.494425860107e+03,5.788998199043e+02,-8.691067588002e+03
    1371,8.548227001328e+02,1.374774520015e+03,-8.272961254016e+03
    1372,1.534476340204e+03,4.680856399336e+02,-8.530715849983e+03
    1373,5.623150979393e+02,1.524499039762e+03,-8.300906349970e+03
    1374,6.943301199320e+02,1.467378079745e+03,-8.435894014015e+03
    1375,-2.536541599913e+02,-1.601780819908e+03,-8.183105390006e+03
    1376,-1.712911599346e+02,-1.613008660028e+03,-8.072866459998e+03
    1377,-1.094420959754e+03,-1.186114629600e+03,-8.498844700011e+03
    1378,-1.217015399711e+03,-1.057219224014e+03,-8.485823803987e+03
    1379,-1.094379279810e+03,-1.186361510400e+03,-8.318522068006e+03
    1380,1.310593539900e+03,9.377814639673e+02,-7.628856132035e+03
    1381,8.966228599441e+02,1.349406979917e+03,-8.898262127992e+03
    1382,9.841378200505e+02,1.283205540047e+03,-9.021818742008e+03
    1383,8.704199599936e+02,1.368920039912e+03,-9.140831102015e+03
    1384,1.067486520059e+03,1.210001460004e+03,-9.143716595200e+03
    1385,-1.603899800137e+03,-1.276772400166e+02,-8.273496292013e+03
    1386,-1.609100379917e+03,3.604347994444e+01,-8.181343461997e+03
    1387,-1.605282460242e+03,1.237710198560e+02,-8.297421291603e+03
    1388,-1.584413480002e+03,2.910627799567e+02,-8.195037174440e+03
    1389,1.353160739910e+02,1.626300700560e+03,-8.809892103975e+03
    1390,1.034257700171e+02,1.627768180452e+03,-8.659689514039e+03
    1391,-1.567503399919e+03,3.756383000244e+02,-8.308696802601e+03
    1392,-1.519782600085e+03,5.405347599115e+02,-8.200106885801e+03
    1393,-1.417264840076e+03,7.754264401138e+02,-8.201495527800e+03
    1394,-1.376166039877e+03,8.481059799137e+02,-8.315028880401e+03
    1395,-1.278424060138e+03,9.918272200940e+02,-8.204779953804e+03
    1396,1.503749668003e+03,-6.001478799177e+02,-8.626844284001e+03
    1397,1.550056251961e+03,-4.600251199159e+02,-8.570856672401e+03
    1398,-1.490581840164e+03,6.194062399877e+02,-8.312719493794e+03
    1399,1.479213758793e+03,-6.585998200120e+02,-8.453295879999e+03
    1400,1.445449264035e+03,-7.334658200205e+02,-8.663161867984e+03
    1401,1.415592170012e+03,-7.894549997857e+02,-8.489643038017e+03
    1402,-1.226735340018e+03,1.056102419974e+03,-8.320450902198e+03
    1403,-1.105705825962e+03,1.184543320135e+03,-8.213317425400e+03
    1404,1.530195093999e+03,-5.241684401206e+02,-8.465896862200e+03
    1405,1.559349719924e+03,-4.237014200990e+02,-8.398929003801e+03
    1406,-1.048065156012e+03,1.236252540027e+03,-8.330952783560e+03
    1407,-9.099557719748e+02,1.343320619880e+03,-8.232135344401e+03
    1408,-1.503863419787e+03,-5.742916200027e+02,-8.062973164031e+03
    1409,1.489556320159e+03,5.825396602874e+02,-9.108520278006e+03
    1410,-1.366389819916e+03,-8.510661600302e+02,-8.540694453996e+03
    1411,-1.333431459717e+03,-9.034300020557e+02,-8.397699876026e+03
    1412,-1.448134880202e+03,-7.014783600073e+02,-8.438314827987e+03
    1413,-1.481196739998e+03,-6.266016001130e+02,-8.567547832012e+03
    1414,-5.325277639525e+02,1.533550259808e+03,-9.162975479987e+03
    1415,-4.143799579812e+02,1.572021159843e+03,-9.082974838002e+03
    1416,1.753628199914e+02,-1.613962440193e+03,-8.107952557996e+03
    1417,4.018577999614e+02,-1.573468860100e+03,-8.059016726008e+03
    1418,2.896132999880e+02,-1.597725080193e+03,-8.192907627982e+03
    1419,-1.706720799667e+02,-1.613643299812e+03,-8.661422287997e+03
    1420,-2.930607800086e+02,-1.595533679777e+03,-8.772242051997e+03
    1421,-3.871565799451e+02,-1.574719679902e+03,-8.696785002393e+03
    1422,-2.660892999925e+02,-1.600165320015e+03,-8.585967234003e+03
    1423,2.788981201424e+02,-1.599532079838e+03,-9.163481046015e+03
    1424,1.776559800464e+02,-1.613852140173e+03,-8.982234944004e+03
    1425,4.012945799068e+02,-1.573375419718e+03,-9.100109750015e+03
    1426,1.027472598730e+02,-1.620241020105e+03,-8.858596617987e+03
    1427,7.762916008702e+01,-1.621678879837e+03,-9.133323052007e+03
    1428,-2.730341799350e+02,-1.597969779964e+03,-7.604715989592e+03
    1429,-1.730138600078e+02,-1.612583739944e+03,-7.787175246008e+03
    1430,-3.892845200420e+02,-1.572974219958e+03,-7.663672729801e+03
    1431,-9.810409995447e+01,-1.619354999971e+03,-7.910793502006e+03
    1432,-7.304779996972e+01,-1.620609039909e+03,-7.636069051993e+03
    1433,6.932776799749e+02,-1.468463040063e+03,-9.275189790012e+03
    1434,8.968431801040e+02,-1.354356039895e+03,-9.243491579987e+03
    1435,5.795364799673e+02,-1.517248359770e+03,-8.386050213982e+03
    1436,7.640372000621e+02,-1.433318340235e+03,-8.452537653996e+03
    1437,7.285075398789e+02,-1.451682820098e+03,-8.611332992006e+03
    1438,7.589371996560e+01,-1.621589319756e+03,-8.597620627985e+03
    1439,8.191505998293e+01,-1.621130600194e+03,-8.170856787990e+03
    1440,-7.122601998831e+01,-1.621065159770e+03,-8.171760018001e+03
    1441,-1.990269399028e+02,-1.610500880249e+03,-8.883907212001e+03
    1442,-9.128649999379e+01,-1.620390240041e+03,-8.697588996002e+03
    1443,2.141563200510e+02,-1.609149460135e+03,-7.456818762013e+03
    1444,3.240261600003e+02,-1.591008999870e+03,-7.511887013990e+03
    1445,3.056735800269e+02,-1.594668060044e+03,-7.700607971982e+03
    1446,5.279343599275e+02,-1.535553439847e+03,-9.180417304013e+03
    1447,5.332613799567e+02,-1.534055100141e+03,-7.782682654004e+03
    1448,4.280534399436e+02,-1.566523979970e+03,-7.710195822000e+03
    1449,4.824543399804e+02,-1.550674260177e+03,-7.616608074011e+03
    1450,4.531100798725e+02,-1.559145340147e+03,-9.289802514002e+03
    1451,5.365674000586e+02,-1.532768820013e+03,-7.489299048000e+03
    1452,7.542585999351e+02,-1.437999300123e+03,-7.490193063984e+03
    1453,-5.608296599671e+02,-1.519003959866e+03,-7.714553616399e+03
    1454,-5.192894800852e+02,-1.533949520117e+03,-7.610032252998e+03
    1455,-4.471595600370e+02,-1.556954420119e+03,-7.478464752203e+03
    1456,-6.855478401283e+02,-1.465731591998e+03,-7.516591245200e+03
    1457,-5.296091999430e+02,-1.532078380071e+03,-8.995843454002e+03
    1458,-4.348521400983e+02,-1.562502600177e+03,-9.099139419594e+03
    1459,-5.614736798592e+02,-1.520849519720e+03,-9.196900775401e+03
    1460,-3.099200200636e+02,-1.592932799818e+03,-9.220482570009e+03
    1461,-3.178549400128e+02,-1.590934819994e+03,-9.002466892000e+03
    1462,-7.012184199772e+02,-1.460420879892e+03,-9.289093627620e+03
    1463,-4.730716201194e+02,-1.551641620020e+03,-9.292756378996e+03
    1464,2.041743999521e+02,-1.610746939900e+03,-9.258303058003e+03
    1465,-5.952467399011e+02,-1.505722620002e+03,-7.902116506799e+03
    1466,-6.700917800009e+02,-1.473135779982e+03,-7.755248006599e+03
    1467,4.941615799288e+02,-1.547094140220e+03,-7.953519995995e+03
    1468,4.257117799508e+02,-1.567197300287e+03,-7.860242601992e+03
    1469,-5.055322001393e+02,-1.540072320004e+03,-8.782754973601e+03
    1470,-4.104997801126e+02,-1.568910200270e+03,-8.890810308403e+03
    1471,-1.995947199989e+02,-1.609167199990e+03,-7.511124829994e+03
    1472,-2.096080598656e+02,-1.609787059867e+03,-9.312537115995e+03
    1473,-8.537591800839e+01,1.628998459903e+03,-9.110049958019e+03
    1474,-2.379882300302e+02,1.611513860010e+03,-9.263051820018e+03
    1475,2.732224198782e+01,1.633239939919e+03,-9.231015295971e+03
    1476,6.877468600439e+02,-1.471362760040e+03,-8.770839353997e+03
    1477,-1.510720079865e+03,-5.535017600395e+02,-8.313117455977e+03
    1478,-1.539641379730e+03,-4.647394200348e+02,-8.465137999990e+03
    1479,-1.580995739767e+03,-2.963204200830e+02,-8.368616652005e+03
    1480,-1.593708419974e+03,-2.173309199320e+02,-8.494149771985e+03
    1481,-1.560318979998e+03,-3.881350399624e+02,-8.592916589969e+03
    1482,-1.602317660037e+03,-1.425119199371e+02,-8.616587004005e+03
    1483,-8.301246800757e+02,-1.387922353945e+03,-8.287417390201e+03
    1484,-8.465357400220e+02,-1.377670169982e+03,-8.130588178994e+03
    1485,-7.093015399654e+02,-1.454577239947e+03,-8.108240399399e+03
    1486,-6.920026401435e+02,-1.463236500008e+03,-8.265068888201e+03
    1487,-7.442621999201e+02,-1.436512239933e+03,-7.953326242799e+03
    1488,-7.511505400474e+02,-1.432670339940e+03,-7.654045317204e+03
    1489,-7.633301599489e+02,-1.426200263930e+03,-7.837167117603e+03
    1490,-8.416095000821e+02,-1.380582392047e+03,-7.735957019192e+03
    1491,-1.609388060195e+03,3.240438003670e+01,-8.516517823999e+03
    1492,-1.597866919721e+03,2.036139599944e+02,-8.414929118001e+03
    1493,-1.608506360042e+03,-4.779126011433e+01,-8.399014238001e+03
    1494,-1.586660840174e+03,2.830530200236e+02,-8.527603336641e+03
    1495,-1.606844279721e+03,1.069842599855e+02,-8.630796456601e+03
    1496,-1.572625439786e+03,3.573004798921e+02,-8.636620181199e+03
    1497,9.637907900660e+02,-1.305863259751e+03,-7.495733890017e+03
    1498,-1.524658940070e+03,5.294844800300e+02,-8.531723282403e+03
    1499,-1.459203340052e+03,6.924724999552e+02,-8.423078358796e+03
    1500,-1.547878540280e+03,4.533911201357e+02,-8.421393180399e+03
    1501,-8.862589198726e+02,-1.352916320029e+03,-9.283951318592e+03
    1502,-1.424255840059e+03,7.637342998917e+02,-8.533280524794e+03
    1503,-1.498997919934e+03,6.009614798871e+02,-8.638878433407e+03
    1504,-1.387546640057e+03,8.299889598956e+02,-8.639593951191e+03
    1505,1.571587339913e+03,-3.689777599859e+02,-7.975758425994e+03
    1506,-1.287959699941e+03,9.791387200284e+02,-8.535670148199e+03
    1507,-1.174316460064e+03,1.114751320105e+03,-8.430880185199e+03
    1508,-1.333543880092e+03,9.150367199134e+02,-8.425241363201e+03
    1509,-1.119905860032e+03,1.169783280033e+03,-8.540775772960e+03
    1510,-1.241076999957e+03,1.038530439932e+03,-8.642171657002e+03
    1511,-1.064577239977e+03,1.220566719864e+03,-8.646985026320e+03
    1512,-9.264751660329e+02,1.330278680125e+03,-8.548972270220e+03
    1513,-7.828564039881e+02,1.421601519798e+03,-8.452676396603e+03
    1514,-8.487589039860e+02,1.383009799887e+03,-8.344563751201e+03
    1515,-9.879691239601e+02,1.285070420180e+03,-8.440828141610e+03
    1516,2.826123400073e+02,1.611089459937e+03,-9.259140745956e+03
    1517,-7.151782720082e+02,1.457112080011e+03,-8.561704697195e+03
    1518,-8.644582159951e+02,1.371560880146e+03,-8.654793989800e+03
    1519,-6.490170059814e+02,1.488130739847e+03,-8.669281293991e+03
    1520,-6.909285000610e+02,1.465204259867e+03,-9.279457219403e+03
    1521,-4.545222839584e+02,1.559483640274e+03,-9.268265684001e+03
    1522,-5.634528792013e+02,1.524355680212e+03,-8.465812904007e+03
    1523,-6.343921806030e+02,1.495800399886e+03,-8.356814825997e+03
    1524,-9.063986400630e+02,1.339823680012e+03,-9.279371610600e+03
    1525,-1.103939179952e+03,1.181892939858e+03,-9.278787560600e+03
    1526,-4.940089420000e+02,1.548733280141e+03,-8.587874106001e+03
    1527,-4.290114879925e+02,1.568571099921e+03,-8.704912126001e+03
    1528,-1.275585480119e+03,9.953221200673e+02,-9.277967516197e+03
    1529,-1.415834931969e+03,7.837977399824e+02,-9.277487293007e+03
    1530,-1.520031016030e+03,5.522690798745e+02,-9.277285132007e+03
    1531,-1.585056259883e+03,3.068702999307e+02,-9.277176957598e+03
    1532,-1.609791159849e+03,5.437005997505e+01,-9.276916619797e+03
    1533,1.527510786032e+03,-5.308948399675e+02,-8.328699630002e+03
    1534,-1.594890959473e+03,-1.985565800600e+02,-9.276130916017e+03
    1535,-1.542072059611e+03,-4.458501400558e+02,-9.274471042002e+03
    1536,1.542901859941e+03,-4.812722799733e+02,-8.231902191200e+03
    1537,1.557551700125e+03,-4.278516399149e+02,-8.104665701796e+03
    1538,-1.177036780121e+03,-1.100592217984e+03,-9.260339809986e+03
    1539,-1.000635620039e+03,-1.267934683989e+03,-9.237991043987e+03
    1540,-9.665005600520e+02,-1.294703267990e+03,-8.306153013997e+03
    1541,-9.742602800773e+02,-1.288770863969e+03,-8.142943022003e+03
    1542,-1.585354099989e+03,-2.817674339734e+02,-7.490823656014e+03
    1543,-1.526808839756e+03,-5.142219280093e+02,-7.482086219983e+03
    1544,-1.609174559760e+03,-3.186868798431e+01,-7.498749036018e+03
    1545,-1.593737519991e+03,2.242790300448e+02,-7.502135950398e+03
    1546,-1.538835980234e+03,4.754422639711e+02,-7.503244372200e+03
    1547,-1.446395120015e+03,7.145295398967e+02,-7.503109415802e+03
    1548,-1.318748660032e+03,9.357440000462e+02,-7.503060968798e+03
    1549,-1.157795824035e+03,1.134548799945e+03,-7.503677721600e+03
    1550,-9.649810280303e+02,1.306652259876e+03,-7.504486875601e+03
    1551,-7.459886520123e+02,1.445392019863e+03,-7.500648534005e+03
    1552,-5.152406059394e+02,1.543844299693e+03,-7.490916510004e+03
    1553,-3.070868797244e+01,1.626086140117e+03,-7.531215489996e+03
    1554,-2.833993320208e+02,1.602590740518e+03,-7.493323564009e+03
    1555,2.425470099594e+02,1.605548759868e+03,-7.495414377954e+03
    1556,6.910026800072e+02,1.462913637984e+03,-7.485659854031e+03
    1557,4.746886000259e+02,1.549714859926e+03,-7.481204717983e+03
    1558,9.009031399525e+02,1.340821872003e+03,-7.496653444005e+03
    1559,1.096805039888e+03,1.183388919974e+03,-7.504011523992e+03
    1560,1.268741440011e+03,9.950093360146e+02,-7.506760194009e+03
    1561,1.409193079993e+03,7.822420700284e+02,-7.508076630010e+03
    1562,1.514175340268e+03,5.510866459509e+02,-7.509853792067e+03
    1563,1.597468440076e+03,1.808056798558e+02,-8.391510940000e+03
    1564,1.610634379716e+03,5.340159407245e+01,-7.512804617974e+03
    1565,1.581840080216e+03,3.061072000506e+02,-7.511824142003e+03
    1566,1.599760999716e+03,-2.029014260329e+02,-7.519111452010e+03
    1567,1.544700999939e+03,-4.698770359714e+02,-7.540725982799e+03
    1568,1.446180586041e+03,-7.234488399648e+02,-7.507408167992e+03
    1569,-5.747129179992e+02,1.520960139919e+03,-8.151123115989e+03
    1570,-7.098868764020e+02,1.461077500051e+03,-8.251948937191e+03
    1571,-4.963680579844e+02,1.548738560272e+03,-8.255954306011e+03
    1572,1.155566916004e+03,-1.137524880107e+03,-7.500365039992e+03
    1573,1.317990262009e+03,-9.409828400977e+02,-7.502081720010e+03
    1574,1.074121340032e+03,-1.215989620223e+03,-7.611609409995e+03
    1575,-7.747026526004e+02,1.427530160038e+03,-8.139548880601e+03
    1576,-6.495009920083e+02,1.490107119720e+03,-8.080258509993e+03
    1577,1.085942260134e+03,-1.207498999831e+03,-8.584488345989e+03
    1578,1.275174219968e+03,-1.004239879834e+03,-8.621918286005e+03
    1579,1.481919840051e+03,-6.594736000321e+02,-9.165717419993e+03
    1580,1.429597120032e+03,-7.675982198294e+02,-9.039876082016e+03
    1581,1.532006671974e+03,-5.289888398925e+02,-9.275573993596e+03
    1582,1.438763759862e+03,-7.531068400728e+02,-9.274924281984e+03
    1583,1.589005559957e+03,-2.918131802489e+02,-9.268184761994e+03
    1584,1.608502719828e+03,-4.089200003821e+01,-9.260912541974e+03
    1585,1.588559119508e+03,2.123694800214e+02,-9.255328988036e+03
    1586,5.198310859866e+02,1.548989519637e+03,-9.261617450044e+03
    1587,1.527099080400e+03,4.726359001241e+02,-9.232702086005e+03
    1588,7.480080320089e+02,1.445945280145e+03,-9.261342420012e+03
    1589,1.579769579594e+03,2.883832199027e+02,-8.509468083946e+03
    1590,9.589317401486e+02,1.304527120072e+03,-9.263784326017e+03
    1591,1.144140219878e+03,1.131883567999e+03,-9.264883080002e+03
    1592,1.427032740575e+03,7.184200997095e+02,-9.262207054002e+03
    1593,1.300756680207e+03,9.344716600058e+02,-9.265319483967e+03
    1594,-9.035763199251e+02,-1.340191952004e+03,-7.522645528005e+03
    1595,-5.234991000982e+02,-1.533359700075e+03,-8.419331689998e+03
    1596,1.342518338067e+03,-9.107021999550e+02,-8.561466179996e+03
    1597,1.372223439995e+03,-8.631687002785e+02,-8.363255073995e+03
    1598,-1.081489939881e+02,1.626009819724e+03,-8.566817474021e+03
    1599,-5.964418199331e+01,1.629305880500e+03,-8.712715941972e+03
    1600,5.489329601338e+01,1.629276079440e+03,-8.513778251971e+03
    1601,-1.655856008188e+00,1.631246500481e+03,-8.826737078013e+03
    1602,4.237665439917e+00,1.631865019819e+03,-8.987656044023e+03
    1603,-1.481913419742e+03,-6.327055319806e+02,-7.579845968026e+03
    1604,-1.443022279987e+03,-7.173206239936e+02,-7.673637609995e+03
    1605,-1.435733499877e+03,-7.329135000096e+02,-7.483364520035e+03
    1606,1.384330839971e+03,-8.454655799715e+02,-8.673880868015e+03
    1607,3.438439980607e+02,1.586336620095e+03,-7.592795708068e+03
    1608,-9.808108400774e+02,-1.283732434014e+03,-7.991330878000e+03
    1609,-8.534932598604e+02,-1.373208725941e+03,-7.978969780000e+03
    1610,-1.369048279887e+03,-8.485804539832e+02,-8.228139962031e+03
    1611,-1.399604820214e+03,-7.958461199448e+02,-8.322913878031e+03
    1612,-4.212715179299e+02,1.572104440403e+03,-7.599892932011e+03
    1613,-3.347454560071e+02,1.592719340454e+03,-8.499172736036e+03
    1614,-4.062964979920e+02,1.575383619920e+03,-8.377128810003e+03
    1615,-7.727675996757e+01,-1.620995319770e+03,-8.473517810002e+03
    1616,-2.093165862021e+02,1.615489960119e+03,-8.785648627966e+03
    1617,-2.718024340012e+02,1.605320940065e+03,-8.637626905999e+03
    1618,-3.126223000467e+02,-1.591371419944e+03,-8.503168591995e+03
    1619,-1.245155000314e+02,-1.617796940065e+03,-8.390723065994e+03
    1620,3.549112599906e+02,-1.584628779746e+03,-8.399980300001e+03
    1621,2.084291799880e+02,-1.610158879733e+03,-8.289838246009e+03
    1622,4.346086000688e+02,-1.564781860199e+03,-8.303049537983e+03
    1623,-1.720190919699e+02,1.619737640462e+03,-8.428361557974e+03
    1624,1.292022599618e+02,-1.618267060059e+03,-8.378657328008e+03
    1625,-1.976647200640e+02,-1.610077639841e+03,-8.302799981998e+03
    1626,-3.529848201093e+02,-1.582463740056e+03,-8.350252415808e+03
    1627,2.023802600447e+02,-1.610946680218e+03,-8.466593006013e+03
    1628,1.408574925984e+03,-7.977486199399e+02,-7.852826496009e+03
    1629,1.394524707974e+03,-8.213161600706e+02,-7.624784337999e+03
    1630,-1.397553819967e+03,-8.007548059398e+02,-8.122254155966e+03
    1631,-9.524882600998e+02,-1.305270111965e+03,-8.459155944000e+03
    1632,-9.171987798967e+02,-1.330925870002e+03,-8.612934762007e+03
    1633,-1.062214520268e+03,-1.215532279600e+03,-8.652628022017e+03
    1634,-1.094447779925e+03,-1.186896028601e+03,-7.810550647990e+03
    1635,-9.626661800930e+02,-1.297658319990e+03,-7.830154376001e+03
    1636,1.022165199966e+03,-1.262374740172e+03,-8.764299893988e+03
    1637,8.768333400845e+02,-1.367293839722e+03,-8.677424990006e+03
    1638,9.463725400845e+02,-1.319952599746e+03,-8.497603827993e+03
    1639,9.654833399322e+02,-1.305808800277e+03,-8.332157240013e+03
    1640,1.081087700033e+03,-1.210792220119e+03,-8.087876736005e+03
    1641,8.383948201285e+02,-1.391187360246e+03,-8.836930240013e+03
    1642,9.642342200008e+02,-1.307267819787e+03,-8.907596353987e+03
    1643,9.208531801057e+02,-1.338153840102e+03,-9.061562212009e+03
    1644,-3.180767980269e+02,1.595993760113e+03,-9.146906773971e+03
    1645,8.436559977911e+00,1.629397679880e+03,-8.363017419986e+03
    1646,-5.288225403510e+01,1.627814999880e+03,-8.187637174013e+03
    1647,-2.328560559725e+02,1.611481159557e+03,-8.252991598022e+03
    1648,5.187666400333e+02,-1.539054700254e+03,-8.165184204008e+03
    1649,6.608864400341e+02,-1.483681100137e+03,-8.248174431990e+03
    1650,-2.405760639835e+02,1.610858199713e+03,-9.022074027980e+03
    1651,-1.517243606797e+02,1.622793939770e+03,-8.899657878002e+03
    1652,6.856389599292e+02,-1.472393560069e+03,-8.137473215993e+03
    1653,6.088129199741e+02,-1.505769380025e+03,-8.059677898002e+03
    1654,-9.625952399377e+02,-1.297823282070e+03,-9.038027867999e+03
    1655,-8.717208401299e+02,-1.361465267981e+03,-7.862809679598e+03
    1656,-9.339613600605e+02,-1.318827157987e+03,-7.703299459994e+03
    1657,1.076345100145e+03,-1.216781899997e+03,-8.992481139993e+03
    1658,7.849107599301e+02,-1.421954939743e+03,-8.287085531996e+03
    1659,-4.843581999684e+02,-1.546715340103e+03,-8.572241126001e+03
    1660,-9.761003798628e+02,-1.287343930024e+03,-8.773377130006e+03
    1661,-1.060452579924e+03,-1.216985171999e+03,-8.856545329986e+03
    1662,1.571275079948e+03,-3.731160201286e+02,-8.302139720395e+03
    1663,1.586805980096e+03,-2.936532399420e+02,-8.187200678013e+03
    1664,-1.174411259914e+03,-1.106841384003e+03,-7.739812516007e+03
    1665,-1.113345419874e+03,-1.169217708798e+03,-7.602251184013e+03
    1666,-1.029183660060e+03,-1.244832637997e+03,-7.672986716006e+03
    1667,-1.000502720025e+03,-1.268444419995e+03,-7.492329466017e+03
    1668,1.155468099945e+03,-1.142079740269e+03,-9.069971057989e+03
    1669,1.105374200059e+03,-1.190901400074e+03,-9.177258548006e+03
    1670,1.023005699975e+03,-1.262025599877e+03,-9.099764464017e+03
    1671,1.000451380019e+03,-1.280214900248e+03,-9.281691658011e+03
    1672,-9.314232998552e+02,-1.320920186002e+03,-8.914564498002e+03
    1673,-8.774390801332e+02,-1.358183319935e+03,-8.731260158004e+03
    1674,9.697510400070e+02,-1.302114279914e+03,-7.938712958003e+03
    1675,1.085741354069e+03,-1.206037700186e+03,-7.841353144013e+03
    1676,-1.380473500133e+03,-8.328324599808e+02,-7.590259256025e+03
    1677,-1.331142700082e+03,-9.099176459899e+02,-7.708245005989e+03
    1678,1.373070040123e+03,-8.673957200347e+02,-9.165525318013e+03
    1679,1.298562839934e+03,-9.755997997326e+02,-9.054523470012e+03
    1680,-1.471631900159e+03,-6.521949000239e+02,-8.197750476012e+03
    1681,4.673883479860e+02,1.556791840062e+03,-8.172824251997e+03
    1682,1.004498545971e+03,-1.266368207991e+03,-1.261268521600e+03
    1683,1.182076017988e+03,-1.103002270024e+03,-1.207165090820e+03
    1684,1.094242345985e+03,-1.189715133978e+03,-1.370752020940e+03
    1685,1.044164577992e+03,-1.234075377972e+03,-1.113260829520e+03
    1686,1.566030999984e+03,-3.946382499298e+02,-3.613668883993e+03
    1687,1.549446739987e+03,-4.520385560555e+02,-3.404324368007e+03
    1688,2.705375600487e+02,1.595003019995e+03,-6.454033439974e+03
    1689,4.662767199192e+02,1.546167272035e+03,-6.404507757974e+03
    1690,1.608975199861e+03,1.079827419936e+02,-6.987672356021e+03
    1691,1.582446699962e+03,3.102490859636e+02,-7.188173554009e+03
    1692,1.604485180038e+03,1.579740819754e+02,-7.188987165966e+03
    1693,1.581946859869e+03,3.159970999648e+02,-7.021486133978e+03
    1694,-6.567168519983e+01,1.615932722000e+03,4.572172654999e+02
    1695,1.485449350002e+02,1.610495616800e+03,4.589553919003e+02
    1696,8.016078760105e+01,1.615407449798e+03,6.613107176401e+02
    1697,-9.110144900019e+02,1.336843459397e+03,6.775333762036e+02
    1698,-7.159076114006e+02,1.450589499402e+03,6.871385042042e+02
    1699,-6.821904666042e+02,1.466786908799e+03,5.059453688041e+02
    1700,4.830482759951e+02,-1.550079619754e+03,-6.996426997999e+03
    1701,6.029735200493e+02,-1.507646900194e+03,-7.190022756000e+03
    1702,3.918316199601e+02,-1.575668499713e+03,-7.228378810014e+03
    1703,-4.794267988870e+02,1.624947197799e+03,-5.460658254032e+03
    1704,-6.705563003316e+02,1.505507799915e+03,-5.344007589984e+03
    1705,-5.982619802394e+02,1.559057200651e+03,-5.516069302034e+03
    1706,-7.422106599563e+02,1.462841599492e+03,-5.582074041989e+03
    1707,-3.457044069996e+02,1.580026450199e+03,6.144557928022e+02
    1708,-5.084644419984e+02,1.535497679799e+03,5.437044162000e+02
    1709,-2.844735946007e+02,1.592111102192e+03,4.643543069986e+02
    1710,-5.779495941991e+02,1.510763096800e+03,6.865383469961e+02
    1711,-2.090098500018e+02,-1.606800979903e+03,-4.631764249204e+03
    1712,-4.452588059781e+02,-1.557239000008e+03,-4.410163386998e+03
    1713,-1.591574940146e+02,-1.612522540007e+03,-4.394770446000e+03
    1714,-4.613926159664e+02,-1.552464019975e+03,-4.635146417402e+03
    1715,1.602976499857e+03,2.519386940199e+02,-3.549303254017e+03
    1716,1.564879460004e+03,4.307457140000e+02,-3.505922546012e+03
    1717,1.592098720053e+03,3.114478299915e+02,-3.738904376000e+03
    1718,1.544316359805e+03,4.982222759332e+02,-3.677325137993e+03
    1719,-1.267048345959e+02,-1.614931939931e+03,-3.404297134002e+03
    1720,-1.866037280078e+02,-1.609196720054e+03,-3.649116782998e+03
    1721,-4.172368568074e+02,-1.564967919987e+03,-3.422161110996e+03
    1722,4.894528119909e+02,-1.541588544799e+03,-1.744055777592e+03
    1723,8.473322220012e+02,-1.376401655988e+03,-1.692143892203e+03
    1724,7.260589199822e+02,-1.444511887998e+03,-1.923791934605e+03
    1725,6.754909760147e+02,-1.468854433987e+03,-1.548593178003e+03
    1726,-1.572975660109e+03,3.420034999887e+02,-6.550229327998e+03
    1727,-1.532013800010e+03,4.937892019680e+02,-6.703749844398e+03
    1728,-1.517298300153e+03,5.383676320236e+02,-6.394524574199e+03
    1729,-2.241773460410e+02,-1.605285460085e+03,-6.548631831603e+03
    1730,-2.003977820544e+02,-1.608443559959e+03,-6.239464168001e+03
    1731,-1.466251519999e+03,6.660739500041e+02,-6.561247240400e+03
    1732,-1.507128160175e+03,5.689168840171e+02,-4.757087833992e+03
    1733,-1.531214220175e+03,5.001177079896e+02,-4.517103608009e+03
    1734,-1.583597060169e+03,2.976465540143e+02,-4.748647803999e+03
    1735,-7.238517575998e+02,-1.446970011999e+03,3.572104854021e+02
    1736,-4.271082858001e+02,-1.560622467989e+03,1.758378088029e+02
    1737,-6.235252145938e+02,-1.493158560000e+03,8.638643540124e+01
    1738,-1.585337139783e+03,2.872046260082e+02,-4.539447851991e+03
    1739,1.617825600029e+03,-3.479099240680e+01,-5.255305527981e+02
    1740,1.598339820006e+03,2.503013640073e+02,-4.780210827800e+02
    1741,1.612416837999e+03,1.352567140079e+02,-6.272353046000e+02
    1742,1.298485548002e+03,-9.619850980028e+02,-2.275707269999e+03
    1743,1.369160361972e+03,-8.588401059818e+02,-2.446729389598e+03
    1744,1.242627959943e+03,-1.032483967999e+03,-2.383637635660e+03
    1745,1.617557657597e+03,-1.223893620128e+01,6.559697133993e+02
    1746,1.606021522998e+03,1.930499156011e+02,4.403046983797e+02
    1747,1.369432300055e+03,-8.550594359820e+02,-3.460557788799e+03
    1748,1.355395839959e+03,-8.775725999711e+02,-3.319055040401e+03
    1749,1.471737239936e+03,-6.620443339341e+02,-3.437742575600e+03
    1750,1.445354800145e+03,-7.186688579663e+02,-3.219744629199e+03
    1751,-6.693950280019e+02,-1.474203967983e+03,-1.739279264002e+03
    1752,-4.941607499994e+02,-1.541886141969e+03,-1.637759337599e+03
    1753,-4.350378399911e+02,-1.559689167998e+03,-1.890537431604e+03
    1754,-2.828040000017e+02,-1.594199566015e+03,-1.722922847805e+03
    1755,1.603322844199e+03,2.139317764022e+02,6.477254235602e+02
    1756,6.490734288043e+02,1.481884986008e+03,-3.150024511976e+02
    1757,8.648119499837e+02,1.366368664003e+03,-2.090711527966e+02
    1758,6.514784513991e+02,1.480991128009e+03,-8.798105640021e+01
    1759,3.481855799654e+02,1.577718345987e+03,-6.173835826017e+03
    1760,1.665707801211e+02,1.609955113997e+03,-6.267457122007e+03
    1761,5.719685739990e+02,-1.513747776028e+03,-2.855251973996e+03
    1762,6.913695460149e+02,-1.462791637969e+03,-3.052886388007e+03
    1763,3.974862584002e+02,-1.569326464012e+03,-2.970229494001e+03
    1764,7.358838339981e+02,-1.440268502201e+03,-2.720679548006e+03
    1765,-4.751511938009e+02,-1.546407061998e+03,6.516592475981e+02
    1766,-7.108568412005e+02,-1.453213384005e+03,6.371385726011e+02
    1767,-1.610136560257e+03,7.423157596784e+01,-4.536926741984e+03
    1768,-1.608781360076e+03,-1.090154759888e+02,-4.674054132003e+03
    1769,-1.611132360046e+03,5.247952996857e+01,-4.757562093997e+03
    1770,-1.608808860155e+03,-1.063373639763e+02,-4.902953094018e+03
    1771,-1.308932867973e+03,-9.492349066084e+02,-2.739814679753e+01
    1772,-1.439009254018e+03,-7.362033259925e+02,1.136553660035e+02
    1773,-1.342095421969e+03,-9.016115699955e+02,1.572229562004e+02
    1774,-1.609716340254e+03,7.984276597778e+01,-4.345711661987e+03
    1775,-1.587660760120e+03,2.733732420162e+02,-4.336011695995e+03
    1776,-4.154475040477e+02,-1.565504119972e+03,-6.090398481602e+03
    1777,-3.752485880622e+02,-1.575888459865e+03,-6.321391432602e+03
    1778,-6.075573179337e+02,-1.500257685960e+03,-6.154225939601e+03
    1779,-5.791558619283e+02,-1.511588360052e+03,-6.432644710200e+03
    1780,-1.234668828006e+03,-1.044473247100e+03,3.126019579580e+01
    1781,-1.245328305998e+03,-1.031632571900e+03,-1.793420875956e+02
    1782,-1.160593218005e+03,-1.126560720398e+03,-4.214580659966e+01
    1783,-1.402548895975e+03,-8.035990000076e+02,-1.029279962089e+02
    1784,4.676134119999e+02,1.549800952059e+03,-2.757229371979e+02
    1785,1.429052470040e+03,-7.536515900149e+02,-2.914150247396e+03
    1786,1.271403420054e+03,-9.963766099831e+02,-2.916766345820e+03
    1787,1.355496906060e+03,-8.790628780726e+02,-2.761872994400e+03
    1788,4.662523060091e+02,1.550383308062e+03,-1.288910182007e+02
    1789,-2.052474920517e+02,-1.607726080019e+03,-5.983059605997e+03
    1790,1.440472793200e+03,-7.361013747983e+02,5.751103715992e+02
    1791,1.246378144001e+03,-1.030978383599e+03,4.430116538203e+02
    1792,1.283776630801e+03,-9.840671425430e+02,6.403228024600e+02
    1793,3.431597860727e+02,-1.586446900233e+03,-6.624152915982e+03
    1794,4.119279739396e+02,-1.570283499823e+03,-6.846494103994e+03
    1795,1.928837219960e+02,-1.611402539843e+03,-6.816178217989e+03
    1796,7.091187829984e+02,-1.453596865597e+03,6.443310491601e+02
    1797,7.127167897980e+02,-1.451720600003e+03,3.676769029152e+02
    1798,4.463565868028e+02,-1.554502445992e+03,4.323955179400e+02
    1799,9.396288266007e+02,-1.316370617999e+03,4.538282189598e+02
    1800,-1.224755740131e+03,1.057638260074e+03,-6.534169885983e+03
    1801,-1.208588819968e+03,1.074310699904e+03,-6.189972641983e+03
    1802,-1.297583960224e+03,9.606038599390e+02,-6.316074154004e+03
    1803,-1.610227419879e+03,-9.026440202702e+01,-2.713091365992e+03
    1804,-1.612557619980e+03,4.027043800344e+01,-2.515648161991e+03
    1805,-1.603700619896e+03,-1.757808980104e+02,-2.351413968016e+03
    1806,-1.598391179925e+03,2.188273479685e+02,-2.646934387985e+03
    1807,4.802574400385e+02,1.539228699903e+03,-3.699998913998e+03
    1808,7.315433399737e+02,1.434140199819e+03,-3.793389265985e+03
    1809,6.655767000110e+02,1.467606139914e+03,-3.517161087987e+03
    1810,-4.208600360555e+02,-1.564090060029e+03,-6.592452737597e+03
    1811,1.249624910021e+03,1.023987931990e+03,-1.523653661995e+03
    1812,1.346833985972e+03,8.927735559558e+02,-1.636686903802e+03
    1813,1.365737460017e+03,8.634492980324e+02,-1.905469376606e+03
    1814,-1.496495200005e+03,-6.064887145997e+02,-3.988716583997e+03
    1815,-1.570519359920e+03,-3.703167600152e+02,-4.164540155986e+03
    1816,-1.561597739916e+03,-4.070940220013e+02,-3.961282633992e+03
    1817,6.707190001027e+02,1.463195319934e+03,-3.920781175996e+03
    1818,-1.431752679885e+03,7.420313799355e+02,-7.095606613003e+03
    1819,-1.548906820101e+03,4.375907340563e+02,-6.981894271202e+03
    1820,-1.533015279958e+03,4.919864279881e+02,-7.164831541918e+03
    1821,-1.488094280081e+03,6.158028839977e+02,-6.876459743400e+03
    1822,-6.607527439938e+02,1.476728478009e+03,2.810239425995e+02
    1823,-8.404647940062e+02,1.382433201992e+03,3.521047105977e+02
    1824,-7.967537580000e+02,1.408229884015e+03,1.282012559911e+02
    1825,-4.220029000028e+02,1.574689959640e+03,-4.597435703972e+03
    1826,-4.843931202715e+02,1.558960220582e+03,-4.800010748034e+03
    1827,-2.336119600065e+02,1.608886740110e+03,-4.712524700001e+03
    1828,1.617660576805e+03,-5.726421798586e+00,4.379399458004e+02
    1829,-1.160620953998e+03,-1.126534369996e+03,-3.432196381980e+02
    1830,-1.280219659986e+03,-9.876847613999e+02,-4.616354745972e+02
    1831,-1.346332590026e+03,-8.949797680082e+02,-2.901352108082e+02
    1832,1.564951933983e+03,4.120347340011e+02,-2.040802495399e+03
    1833,1.500101606399e+03,6.041960060330e+02,-2.081162527802e+03
    1834,1.543349094020e+03,4.856587660034e+02,-2.268315336402e+03
    1835,1.477974998002e+03,6.556651220151e+02,-2.216859053002e+03
    1836,1.602258593999e+03,-2.232468150021e+02,4.310118488010e+02
    1837,1.473898979872e+03,6.767718180217e+02,-4.768954894011e+03
    1838,1.376953780070e+03,8.573207000396e+02,-4.948281263992e+03
    1839,1.452447640015e+03,7.199446940640e+02,-5.065529397995e+03
    1840,1.367341860091e+03,8.721140440206e+02,-4.643956510004e+03
    1841,-3.449340528042e+02,-1.582191768036e+03,-2.294365385198e+03
    1842,-2.309573160084e+02,-1.602678727948e+03,-2.085567522391e+03
    1843,-1.647704706026e+02,-1.610916505974e+03,-2.339907984608e+03
    1844,8.824221919864e+02,-1.359243739865e+03,-5.714053436014e+03
    1845,7.736253440175e+02,-1.425086580074e+03,-5.893551962008e+03
    1846,6.511505399735e+02,-1.485193460018e+03,-5.641166497988e+03
    1847,1.027598083192e+03,-1.252197559974e+03,-5.964669644014e+03
    1848,-7.483128597134e+02,1.453248899579e+03,-5.134270206026e+03
    1849,-8.128781540601e+02,1.412483699997e+03,-5.424138752008e+03
    1850,-1.585545036013e+03,-3.123392460094e+02,-1.910651460006e+02
    1851,-1.529444351948e+03,-5.219099339943e+02,6.910449199854e+01
    1852,-1.099353121991e+03,1.193741060228e+03,-6.360387829985e+03
    1853,-9.843425520322e+02,1.294298100088e+03,-6.207614701998e+03
    1854,-3.163316801995e+02,1.597659999822e+03,-4.892067504005e+03
    1855,6.002498199860e+02,1.501345438014e+03,-9.280849605988e+02
    1856,6.380261379842e+02,1.485765675995e+03,-8.056914680031e+02
    1857,4.291693960015e+02,1.559064789982e+03,-8.825042461992e+02
    1858,-6.058064000623e+02,-1.500964799953e+03,-7.121742587999e+03
    1859,-6.856361801008e+02,-1.465571974044e+03,-6.924604279400e+03
    1860,-4.023305399367e+02,-1.569218499943e+03,-7.053327222997e+03
    1861,-7.901510575975e+02,-1.412983361938e+03,-1.801189589760e+03
    1862,-7.309723620018e+02,-1.444524857937e+03,-1.540140869000e+03
    1863,7.059675520500e+02,-1.461754559909e+03,-6.908318296013e+03
    1864,-9.166726396008e+02,-1.334015164042e+03,-1.677176973000e+03
    1865,-1.346372040075e+03,-8.909045560033e+02,-6.110927300015e+03
    1866,-1.464199259936e+03,-6.778406739888e+02,-6.080641145984e+03
    1867,-1.338877999886e+03,-9.025916543992e+02,-5.891489922009e+03
    1868,-1.352279779866e+03,-8.814256479857e+02,-6.336875474011e+03
    1869,-1.076750920052e+03,1.217464239992e+03,-4.126991098009e+03
    1870,-1.165332829991e+03,1.129215140201e+03,-4.176131362397e+03
    1871,-1.038032200125e+03,1.252142879727e+03,-4.287491333991e+03
    1872,-1.159374785968e+03,1.135140399720e+03,-4.304240914199e+03
    1873,8.329596380193e+02,-1.385279720018e+03,-1.315175463802e+03
    1874,8.755812100052e+02,-1.358842886022e+03,-1.047883843800e+03
    1875,5.911480999936e+02,-1.504940091984e+03,-1.213680403196e+03
    1876,9.968748979732e+02,-1.274009542024e+03,-4.283349610013e+03
    1877,1.067425273973e+03,-1.214481504801e+03,-3.986627925998e+03
    1878,1.190430177970e+03,-1.092820240014e+03,-4.179246377604e+03
    1879,-4.668689959939e+02,-1.550837419996e+03,-3.869892709802e+03
    1880,-5.137566260013e+02,-1.535809579993e+03,-4.149582789600e+03
    1881,-6.815462439789e+02,-1.468525148023e+03,-4.047143953801e+03
    1882,4.150444119699e+02,-1.567244040137e+03,-4.922333694004e+03
    1883,2.650048200149e+02,-1.599811860077e+03,-5.154845773992e+03
    1884,2.072970660286e+02,-1.608003399866e+03,-4.900301319988e+03
    1885,5.324832201439e+02,1.526143516398e+03,-6.899000418009e+03
    1886,3.465229199599e+02,1.580039578020e+03,-6.696899191969e+03
    1887,4.003861999168e+02,1.568361791977e+03,-6.990837792002e+03
    1888,3.166052997569e+02,1.575669340276e+03,-4.951978915999e+03
    1889,4.100218799096e+02,1.553685220158e+03,-4.807509768006e+03
    1890,2.075960197951e+02,1.598392339988e+03,-4.747161938209e+03
    1891,2.408698601513e+02,1.593407880036e+03,-4.622308555994e+03
    1892,1.083115356006e+03,1.200899493999e+03,3.154041708039e+02
    1893,1.030890420204e+03,1.246249323000e+03,5.004517760022e+02
    1894,8.793603110002e+02,1.357432916598e+03,2.910711632012e+02
    1895,-4.754994200120e+02,-1.548044160046e+03,-6.798210315400e+03
    1896,8.309731725997e+02,1.387725105600e+03,4.818318956015e+02
    1897,-1.116017818023e+03,1.172922298028e+03,-8.414860819937e+02
    1898,-1.033296200001e+03,1.245975177973e+03,-6.368191720061e+02
    1899,-1.273982659994e+03,9.987491439998e+02,-7.101612588016e+02
    1900,-9.542148651998e+02,-1.307129093989e+03,-1.230101614801e+03
    1901,-1.058053521404e+03,-1.224103068026e+03,-1.159638199598e+03
    1902,-8.440491871922e+02,-1.381116476005e+03,-1.138561847880e+03
    1903,-1.160827719987e+03,1.127825067979e+03,-4.863816679921e+02
    1904,1.119302066580e+03,-1.167625702002e+03,6.621807955420e+02
    1905,-4.494035200096e+02,1.564625920248e+03,-7.180395947982e+03
    1906,1.994419600073e+02,1.608800619860e+03,-6.922090989994e+03
    1907,1.357890800598e+02,1.614890139873e+03,-6.643991534027e+03
    1908,9.004035819953e+02,-1.344530626029e+03,-4.082419231984e+03
    1909,-1.418953360042e+03,-7.722583795984e+02,-3.937244851985e+03
    1910,-1.378535940061e+03,-8.426951880027e+02,-4.088531938000e+03
    1911,-1.314971108067e+03,-9.396393840014e+02,-4.004574555989e+03
    1912,6.237243993333e+01,1.616958722014e+03,-3.144186978009e+03
    1913,2.327100599587e+02,1.599610050033e+03,-3.195319341640e+03
    1914,1.678293539827e+02,1.608504388001e+03,-2.932679535600e+03
    1915,-4.675149610032e+02,-1.550414455934e+03,-2.435594343604e+03
    1916,-2.435638429984e+02,-1.601036782002e+03,-2.561125460803e+03
    1917,3.487494200484e+02,1.577466051932e+03,-3.036385572595e+03
    1918,-5.662570548087e+02,-1.517002245970e+03,-2.167510551198e+03
    1919,1.599112751400e+03,-2.442704799996e+02,6.490624976000e+02
    1920,7.659626419338e+02,1.421500240054e+03,-2.251194311991e+03
    1921,9.225651539887e+02,1.325283719950e+03,-2.041797652005e+03
    1922,7.486002440278e+02,1.431173536026e+03,-2.065870733996e+03
    1923,-1.164500080136e+03,1.114811202280e+03,-5.710458600001e+03
    1924,-9.567841999413e+02,1.308208640043e+03,-5.883197836000e+03
    1925,-1.015657879983e+03,1.254678266002e+03,-5.672700623986e+03
    1926,-8.741270600619e+02,1.366948819815e+03,-5.633199564014e+03
    1927,1.608470498198e+03,-1.699518580222e+02,-3.592558935997e+03
    1928,1.619753700085e+03,4.764299796539e+01,-3.574516605988e+03
    1929,-7.723739000693e+02,1.433427380161e+03,-6.969164929193e+03
    1930,-9.309257199529e+02,1.333986280571e+03,-6.974835275197e+03
    1931,-8.490031119764e+02,1.387810599731e+03,-7.162213217192e+03
    1932,-8.523609599310e+02,1.388146980137e+03,-6.734487846601e+03
    1933,-1.196863080055e+03,-1.084900062201e+03,-6.128064497987e+03
    1934,-1.198463240117e+03,-1.083422451998e+03,-5.911522762013e+03
    1935,-1.366009690004e+03,-8.650825579991e+02,3.739578991982e+02
    1936,-1.231729813984e+03,-1.047971200201e+03,1.728436495962e+02
    1937,-1.477528680102e+03,-6.514948732027e+02,-4.214646690011e+03
    1938,-1.227706730005e+03,-1.052599082597e+03,-5.961317973974e+02
    1939,-1.377218130008e+03,-8.462576019937e+02,-5.698097620056e+02
    1940,-3.859416035999e+02,-1.572631190014e+03,-2.123456244801e+03
    1941,-1.004657644360e+03,-1.268048299989e+03,6.328731164010e+01
    1942,-1.108575472198e+03,-1.177938783997e+03,1.290314895994e+02
    1943,-1.238068276006e+03,-1.040460677398e+03,3.846994961997e+02
    1944,-1.399275696007e+03,-8.105714790012e+02,6.130515195968e+02
    1945,-1.266747767994e+03,-1.005344786796e+03,6.233429304018e+02
    1946,1.495015079890e+03,-6.081033300152e+02,-3.632394429999e+03
    1947,1.398320960096e+03,-8.063952140153e+02,-3.647215313599e+03
    1948,1.270948692064e+03,9.964450999316e+02,-3.339663215409e+03
    1949,1.305305103989e+03,9.516299399308e+02,-3.135886677801e+03
    1950,1.148842620031e+03,1.132389439876e+03,-3.270421988004e+03
    1951,5.519970399554e+02,-1.526566340177e+03,-6.679414244006e+03
    1952,1.412018006012e+03,7.890939500081e+02,-3.181039787597e+03
    1953,7.358175400179e+02,1.437000480003e+03,-2.433001664001e+03
    1954,6.509052460541e+02,1.478150599948e+03,-2.253948337998e+03
    1955,5.997593319366e+02,1.499619762042e+03,-2.372873314000e+03
    1956,-1.332657436003e+03,9.206184599610e+02,-2.113708691998e+03
    1957,-1.354166049969e+03,8.881802000375e+02,-1.927302873802e+03
    1958,-1.436228028860e+03,7.458428539540e+02,-2.115183730201e+03
    1959,6.216288140199e+02,-1.498262939916e+03,-5.866820484009e+03
    1960,4.224489499399e+02,-1.566382299990e+03,-5.807642715996e+03
    1961,4.418328699754e+02,-1.560738880133e+03,-5.583633308004e+03
    1962,-1.447572658400e+03,7.234411519772e+02,-1.913506857199e+03
    1963,1.611261347986e+03,1.455624710038e+02,-1.974620354004e+02
    1964,1.596810450406e+03,2.588427795973e+02,-4.264765638008e+01
    1965,1.575374030400e+03,3.671387500044e+02,-3.078400294204e+02
    1966,1.081095448024e+03,-1.202682256004e+03,-4.473762135996e+03
    1967,-1.056017357999e+03,1.225699172000e+03,4.522931131997e+02
    1968,-9.671870680019e+02,1.297027833993e+03,2.343795706026e+02
    1969,-8.729707240014e+02,1.362075558003e+03,4.883321949984e+02
    1970,1.682291180007e+02,1.608560359004e+03,-9.724508732004e+02
    1971,-7.097899399444e+01,1.616222175996e+03,-1.038203609998e+03
    1972,9.468026599836e+01,1.614802385596e+03,-1.148712517203e+03
    1973,9.234332680090e+02,-1.329252071966e+03,-4.575138223995e+03
    1974,8.186412533996e+02,-1.396802038023e+03,-4.388705617999e+03
    1975,-1.430864733980e+03,-7.515539060132e+02,-4.075011740058e+02
    1976,-1.483107209944e+03,-6.419074139833e+02,-2.169812500036e+02
    1977,1.578013119955e+03,3.806691159764e+02,-3.381726682001e+03
    1978,1.550560720019e+03,4.768536160047e+02,-3.297837479999e+03
    1979,1.538574544199e+03,4.987748639988e+02,-1.306093836005e+02
    1980,1.277256959899e+03,9.978257299775e+02,-4.815580649202e+03
    1981,1.296182679905e+03,9.751315799685e+02,-5.127947774009e+03
    1982,1.148478560058e+03,1.141384823995e+03,-5.003303924398e+03
    1983,-1.569339959967e+03,-3.777393360349e+02,-1.950454944000e+03
    1984,-1.563512040129e+03,-4.008234919807e+02,-2.137051907997e+03
    1985,-1.595744520070e+03,-2.396873360146e+02,-2.153483187994e+03
    1986,-1.525530680082e+03,-5.290628040127e+02,-1.947155919983e+03
    1987,-1.599714280161e+03,1.887834420188e+02,-6.120641824016e+03
    1988,-1.603499879907e+03,1.491327879762e+02,-6.404094246000e+03
    1989,-1.610753699917e+03,-3.298405197221e+01,-6.268488671985e+03
    1990,1.616751458000e+03,5.781626879924e+01,5.575069239911e+01
    1991,1.614700270007e+03,-1.020871896007e+02,-3.633069140188e+01
    1992,1.607387279992e+03,-1.835267202003e+02,2.136550097999e+02
    1993,-6.851431800095e+02,-1.465839315977e+03,-6.667050242602e+03
    1994,1.575089012005e+03,-3.700051212037e+02,5.442768997870e+00
    1995,-1.008299071970e+03,1.274261919905e+03,-7.116021907199e+03
    1996,8.656794200507e+02,1.362346110056e+03,-6.963436137994e+03
    1997,8.838716799208e+02,1.351219418013e+03,-7.169724159996e+03
    1998,1.019400380053e+03,1.251337622000e+03,-7.180567896199e+03
    1999,1.617370383983e+03,4.557801999533e+01,-3.616123460021e+02
    2000,9.774101239755e+02,-1.287169558004e+03,-1.520987428599e+03
    2001,9.817217600007e+02,-1.283668080008e+03,-1.826264785601e+03
    2002,1.292445536017e+03,9.713357720095e+02,-2.529483486007e+02
    2003,1.391195948012e+03,8.239204920019e+02,-3.659408672045e+02
    2004,1.463324342003e+03,6.883298799881e+02,-2.390907131985e+02
    2005,-1.610827292003e+03,1.450447419988e+02,-2.359174439972e+02
    2006,-1.613307566019e+03,-1.019897400173e+02,-2.012951159932e+02
    2007,1.281818936069e+03,-9.845180319931e+02,-5.297440565998e+03
    2008,1.102228614008e+03,-1.184850823972e+03,-5.448432905998e+03
    2009,1.170952198021e+03,-1.115427912008e+03,-5.169958459997e+03
    2010,-1.622982840069e+02,1.609918870002e+03,-1.191062317992e+03
    2011,-1.200933804001e+03,1.087613499877e+03,-7.166987861593e+03
    2012,-8.992979080014e+02,1.352249600167e+03,-5.270861199799e+03
    2013,-6.606668200559e+02,1.490724540299e+03,-6.572221991598e+03
    2014,-9.739857398721e+02,1.303978659587e+03,-6.541811410004e+03
    2015,9.180719399519e+02,1.327366860016e+03,-6.156557375198e+03
    2016,1.107373877202e+03,1.178891643902e+03,-6.148586237999e+03
    2017,1.007459376006e+03,1.264182690011e+03,-6.071430443999e+03
    2018,7.628724200651e+02,1.420549219976e+03,-6.510064706025e+03
    2019,5.824293199522e+02,1.505274119957e+03,-6.598316138030e+03
    2020,7.127424200304e+02,1.448114260048e+03,-6.782160168036e+03
    2021,1.145560719997e+03,1.146208040028e+03,-5.961513022006e+03
    2022,6.520193235004e+02,1.480384419803e+03,2.763828954005e+02
    2023,3.768376864009e+02,1.572959769001e+03,4.604676218000e+02
    2024,4.245966353989e+02,1.561055843992e+03,2.611640633400e+02
    2025,-8.773318600457e+02,1.373709840101e+03,-5.033587483991e+03
    2026,-9.655096012933e+01,1.618914819977e+03,-6.374131540004e+03
    2027,-7.452438012681e+01,1.618865000091e+03,-6.257355007975e+03
    2028,-2.219108800308e+02,1.608967800247e+03,-6.422849367990e+03
    2029,-5.616554399936e+02,1.528768080426e+03,-6.901890613999e+03
    2030,-2.891477401353e+02,1.598949899835e+03,-6.180759175974e+03
    2031,4.890593439996e+02,-1.541500981596e+03,-1.427439782998e+03
    2032,-1.405426680112e+03,7.889160240048e+02,-4.880581932392e+03
    2033,-1.325200559847e+03,9.196508300338e+02,-4.938346021997e+03
    2034,-1.352134940006e+03,8.800043780200e+02,-4.687236459994e+03
    2035,-1.060505427959e+03,-1.221064212020e+03,-4.432968966007e+03
    2036,-9.426203139684e+02,-1.314950863951e+03,-4.282804855799e+03
    2037,-9.531388219580e+02,-1.307106252061e+03,-4.575864124008e+03
    2038,-8.226235800079e+02,-1.393652749967e+03,-4.443672161404e+03
    2039,4.108121236003e+02,-1.564225679996e+03,1.716623513996e+02
    2040,2.571600471996e+02,-1.596824549599e+03,-1.168887199877e+01
    2041,2.102324123981e+02,-1.603720612801e+03,2.673547353979e+02
    2042,8.943315740061e+02,-1.346189566021e+03,-1.945151421603e+03
    2043,1.499745459993e+03,-6.065234267981e+02,3.993187436004e+02
    2044,1.371488478397e+03,-8.577846225993e+02,3.384592243989e+02
    2045,-1.542958459977e+03,-4.740371440022e+02,-3.793184218001e+03
    2046,-1.501094280109e+03,-5.950032757926e+02,-3.854889693993e+03
    2047,4.875561595197e+02,1.509025001006e+03,-5.297781945992e+03
    2048,4.420424803557e+02,1.500878800048e+03,-5.545428779995e+03
    2049,6.473524000769e+02,1.459168980045e+03,-5.405230734800e+03
    2050,1.010077052034e+03,-1.261240531993e+03,-2.331262556798e+03
    2051,1.138879122025e+03,-1.145764414002e+03,-2.466802666200e+03
    2052,9.875702140264e+02,-1.279134187997e+03,-2.531776722598e+03
    2053,1.426541919900e+03,-7.551527539819e+02,-3.840115985200e+03
    2054,1.318023420087e+03,-9.328444060685e+02,-3.856007259201e+03
    2055,9.114848080014e+02,-1.335611984001e+03,-2.295098133852e+02
    2056,7.300560600089e+02,-1.442891110001e+03,7.891711779966e+00
    2057,1.005687533403e+03,-1.266434223992e+03,9.020217319739e+00
    2058,-1.430258859868e+03,7.433099560178e+02,-5.123483684404e+03
    2059,-1.532350279934e+03,4.985848420027e+02,-5.007415611999e+03
    2060,-1.559466199877e+03,4.049756879901e+02,-5.952923435995e+03
    2061,-1.554981740290e+03,4.185896039748e+02,-6.228433875999e+03
    2062,-1.492658000104e+03,6.065591900075e+02,-6.029913975603e+03
    2063,-1.574811499777e+03,3.382473679901e+02,-6.107084708003e+03
    2064,-1.300468319712e+03,9.543582119716e+02,-5.081056109804e+03
    2065,5.184811994807e+01,1.619023919948e+03,-6.324759675976e+03
    2066,-1.505913433199e+03,5.907160426088e+02,2.604733834003e+02
    2067,-1.548774268006e+03,4.675169019925e+02,1.755474305971e+02
    2068,4.994896003143e+01,1.620099000069e+03,-6.476931170018e+03
    2069,-8.974202320126e+02,1.347286206026e+03,-7.664704060162e+02
    2070,-9.372909120126e+02,1.319367516024e+03,-4.474514020025e+02
    2071,-9.833343678604e+02,1.291752859731e+03,-5.107490567401e+03
    2072,-1.055126116013e+03,1.233972679717e+03,-4.926345278400e+03
    2073,-1.111159600578e+02,1.620360299939e+03,-6.592852671968e+03
    2074,1.393851268004e+03,-8.208338940075e+02,-1.508878434120e+03
    2075,1.458052884036e+03,-7.016103943997e+02,-1.318004631040e+03
    2076,1.556175527978e+03,-4.459452659985e+02,-1.506937546602e+03
    2077,1.294552681991e+03,-9.690951199949e+02,-1.345250165660e+03
    2078,-1.257625860085e+03,1.014034299934e+03,-4.851608869407e+03
    2079,-1.185852440068e+03,1.098786439996e+03,-5.012916260198e+03
    2080,6.086318638999e+02,1.498664894800e+03,4.701318263992e+02
    2081,-1.144702268000e+03,1.148393940106e+03,-4.705822865399e+03
    2082,6.488265000543e+02,1.478132879920e+03,-2.658026358005e+03
    2083,6.619467999218e+02,1.471691140083e+03,-2.850981365999e+03
    2084,8.487826800505e+02,1.372271960139e+03,-2.670880074002e+03
    2085,4.703115800450e+02,1.545061366003e+03,-2.777945978403e+03
    2086,1.354429599946e+03,-8.800324680090e+02,-4.850673303600e+03
    2087,1.450536320010e+03,-7.091878080322e+02,-4.892618048599e+03
    2088,1.437814040105e+03,-7.349608280014e+02,-5.089656855600e+03
    2089,1.520547960144e+03,-5.422754019957e+02,-5.100721307994e+03
    2090,1.508947077999e+03,5.809468340058e+02,-6.382130844031e+03
    2091,1.357342264006e+03,8.812723379717e+02,-6.402908924021e+03
    2092,1.450230292009e+03,7.157129440014e+02,-6.559841718033e+03
    2093,1.278610482015e+03,9.897462300015e+02,-6.584426922011e+03
    2094,-9.423714830020e+02,-1.315500248024e+03,-7.008948335240e+02
    2095,-1.142944067985e+03,-1.144649247993e+03,-8.442979869987e+02
    2096,-1.081261865796e+03,-1.203332405994e+03,-5.804398562000e+02
    2097,1.201991660400e+03,-1.085611480091e+03,-6.838639948013e+03
    2098,1.280320604001e+03,-9.900149601137e+02,-6.747227670011e+03
    2099,1.316802010029e+03,-9.406339600265e+02,-6.943646990007e+03
    2100,6.613435839920e+02,-1.475295281986e+03,-9.370838122020e+02
    2101,7.988398319972e+02,-1.405506613969e+03,-7.889089386003e+02
    2102,7.798976660242e+02,-1.416108501985e+03,-2.169836363201e+03
    2103,9.387391219898e+02,-1.315456260024e+03,-2.092570522604e+03
    2104,-9.506721972000e+02,-1.309791847966e+03,-1.402817236599e+03
    2105,-1.110440026004e+03,-1.176575996003e+03,-1.389919575396e+03
    2106,8.598242399664e+02,1.359712420089e+03,-4.180646264000e+03
    2107,7.525683202659e+02,1.421944280129e+03,-4.028041782004e+03
    2108,9.930538398743e+02,1.268064880258e+03,-4.030392361992e+03
    2109,1.617569107994e+03,2.311089499861e+01,2.224243421992e+02
    2110,7.907376598866e+02,1.404930799861e+03,-6.260910187994e+03
    2111,8.093370599316e+02,1.395640520134e+03,-6.014104509995e+03
    2112,6.684078400774e+02,1.467331179943e+03,-6.122005420030e+03
    2113,-1.307931184016e+03,-9.504075345989e+02,-7.641624867975e+02
    2114,-1.440289645997e+03,-7.330211620178e+02,-6.480321020035e+02
    2115,7.029001140057e+02,1.455509553994e+03,-1.300899570197e+03
    2116,5.285046420355e+02,1.527887133996e+03,-1.282359930203e+03
    2117,5.212146519824e+02,1.530265727996e+03,-1.460275887802e+03
    2118,3.851020520103e+02,1.570418273985e+03,-1.441038199199e+03
    2119,1.272417599941e+03,1.001817675995e+03,-4.521967004197e+03
    2120,1.074178268046e+03,1.203846119907e+03,-4.514214308160e+03
    2121,1.174416148025e+03,1.112060598023e+03,-4.668801191820e+03
    2122,1.193794688001e+03,1.089920527970e+03,-4.381197595200e+03
    2123,1.055771376021e+03,1.221359859904e+03,-4.804708865797e+03
    2124,1.845588954072e+02,-1.606956067199e+03,-2.481670151962e+02
    2125,3.854880475974e+02,-1.570607417994e+03,-2.632991050020e+02
    2126,-1.170465427983e+03,1.117246421995e+03,-1.541781296076e+02
    2127,-1.352391484008e+03,8.885414099876e+02,-1.547500744043e+02
    2128,-1.263334380001e+03,1.011366752018e+03,-3.154793885991e+02
    2129,-1.269342663993e+03,1.003311991998e+03,1.425168020137e+01
    2130,-8.220653797897e+02,1.410553740578e+03,-4.585759246013e+03
    2131,-6.477185000325e+02,1.498617260140e+03,-4.515185722026e+03
    2132,-7.593487801306e+02,1.443884300407e+03,-4.388406985987e+03
    2133,-1.137918179947e+03,1.158221260061e+03,-3.961771989999e+03
    2134,-1.340498724054e+03,9.054819200384e+02,-3.883605981003e+03
    2135,-1.265123504000e+03,1.011079459925e+03,-4.090071121401e+03
    2136,-1.492003674015e+03,-6.236061768019e+02,5.678486346016e+02
    2137,-8.687555601758e+02,1.379960199716e+03,-4.423027578027e+03
    2138,3.841036601484e+02,1.553676919532e+03,-5.089563738010e+03
    2139,5.490555798177e+02,1.507282840323e+03,-4.991440871984e+03
    2140,6.730185001774e+02,1.456716040307e+03,-5.154406286403e+03
    2141,-7.817082201933e+02,1.435003719578e+03,-4.715133562011e+03
    2142,-1.488743463936e+03,-6.283487779834e+02,-5.501797879922e+02
    2143,-1.540161893986e+03,-4.887195079828e+02,-3.885688079926e+02
    2144,-1.991226063927e+02,-1.606804661950e+03,-1.867944510199e+03
    2145,2.600952099934e+02,-1.596782786017e+03,-1.354431454206e+03
    2146,4.018085420080e+02,-1.566874059599e+03,-1.564503752405e+03
    2147,2.005892139931e+02,-1.605657842032e+03,-1.546133313007e+03
    2148,1.516091339977e+03,-5.543005499548e+02,-3.838644755208e+03
    2149,1.445107160044e+03,-7.191183140564e+02,-4.035207397999e+03
    2150,1.529833660099e+03,-5.157321839961e+02,-4.053618017994e+03
    2151,-1.100830581997e+03,-1.185019121940e+03,6.313059748002e+02
    2152,-5.408676720070e+02,-1.525206306032e+03,-1.389391133973e+02
    2153,-3.779993603960e+02,-1.573329145999e+03,-5.358973998169e+00
    2154,-4.596211680082e+02,-1.551759736032e+03,-3.566404026024e+02
    2155,-1.092586063995e+03,1.201015980026e+03,-6.689283448000e+03
    2156,-1.140736882017e+03,1.153111860089e+03,-6.982132050406e+03
    2157,-9.992059580602e+02,1.282659239990e+03,-6.848858957800e+03
    2158,-1.168494078010e+03,1.123578199954e+03,-6.799731722004e+03
    2159,-2.575214938078e+02,-1.597649694009e+03,-4.299421947960e+02
    2160,-2.077198300045e+02,-1.604700876000e+03,-2.382614169995e+02
    2161,-5.397049819887e+02,1.526088685964e+03,-2.027383319977e+02
    2162,-5.290802239989e+02,1.529255339992e+03,7.029228680389e+01
    2163,8.007700519824e+02,1.404839248004e+03,-4.846179933990e+02
    2164,9.611153900107e+02,1.300050900005e+03,-3.728283250073e+02
    2165,-9.022294843971e+02,-1.342984553982e+03,1.680834071997e+02
    2166,-8.110949211934e+02,-1.400147245969e+03,-3.835281380115e+01
    2167,1.334226999987e+03,9.111453071913e+02,-6.863371181983e+03
    2168,1.154015119898e+03,1.129734989990e+03,-6.773346367988e+03
    2169,1.026262216008e+03,1.249330103993e+03,-1.156352512029e+02
    2170,-1.611162979930e+03,4.898683598943e+01,-5.030630435991e+03
    2171,-1.606404279729e+03,1.318808539885e+02,-4.913882808016e+03
    2172,2.929654300019e+02,-1.591293928016e+03,-1.738839369998e+03
    2173,3.740847619941e+02,-1.574172192009e+03,-1.989930323997e+03
    2174,1.578933710066e+02,-1.610811045983e+03,-1.897058732002e+03
    2175,5.729754440119e+02,-1.512482473599e+03,-2.044624958003e+03
    2176,1.543801041956e+03,4.784799660052e+02,-6.250847282000e+03
    2177,1.569834779930e+03,3.789867107980e+02,-6.547254038035e+03
    2178,1.429986076025e+03,7.583954120224e+02,-6.167543697989e+03
    2179,-1.586106120120e+03,2.852553439651e+02,-4.941163306002e+03
    2180,-1.601330580138e+03,1.784339099956e+02,-3.958557567998e+03
    2181,-1.593045059795e+03,2.402694300066e+02,-4.149745435990e+03
    2182,-1.557728879789e+03,4.124609819659e+02,-3.877449462002e+03
    2183,-2.080121520664e+02,-1.607763940101e+03,-7.022962533999e+03
    2184,-1.627466839347e+02,-1.613351260037e+03,-7.234115466000e+03
    2185,-1.666641860122e+02,-1.612691780028e+03,-6.780847260000e+03
    2186,5.682491200546e+02,1.510146099944e+03,-6.211786392017e+03
    2187,-1.546369180109e+03,4.522963780148e+02,-4.087534574007e+03
    2188,-1.261094339900e+03,1.012977519931e+03,-6.765956095997e+03
    2189,-1.341024299716e+03,8.977441000506e+02,-6.557832772007e+03
    2190,-1.389211060042e+03,8.193470999787e+02,-6.738646024996e+03
    2191,-1.283974320069e+03,9.833260600881e+02,-6.955095853994e+03
    2192,-1.207122359945e+03,-1.073048540198e+03,-6.350022660014e+03
    2193,-1.034500879873e+03,-1.241606629992e+03,-6.368703073982e+03
    2194,-1.215274920127e+03,-1.063392992198e+03,-6.565909912001e+03
    2195,-1.050210239874e+03,-1.227988773994e+03,-6.583060061997e+03
    2196,7.156905687963e+02,-1.452585297935e+03,-4.183852180000e+03
    2197,1.106308577995e+03,1.178823408004e+03,-2.672052392026e+02
    2198,5.798177580127e+02,-1.512674519957e+03,-4.271904984001e+03
    2199,-7.512445600462e+02,-1.432572104036e+03,-6.796583290196e+03
    2200,-8.679833801287e+02,-1.364202991991e+03,-6.607296673998e+03
    2201,-8.353628399819e+02,-1.384773404003e+03,-6.391863639007e+03
    2202,5.619227119918e+02,-1.516309361992e+03,-1.246455474003e+02
    2203,1.184293848002e+03,-1.098842149945e+03,-2.351159481800e+03
    2204,-8.496599999150e+02,1.391874639969e+03,-6.389620840001e+03
    2205,-7.322541799172e+02,1.458034040114e+03,-6.245477195595e+03
    2206,1.176576180007e+03,1.104454160003e+03,-3.723125960406e+03
    2207,1.280427078001e+03,9.873068020489e+02,-3.906065625401e+03
    2208,1.341347039971e+03,9.040882459645e+02,-3.664606928201e+03
    2209,-8.556108599297e+02,1.385709599558e+03,-6.076414782011e+03
    2210,7.817016440034e+02,-1.416342416012e+03,-3.196239736003e+03
    2211,8.474100240300e+02,-1.377289889201e+03,-2.930074990004e+03
    2212,4.999296463996e+02,-1.539679923931e+03,-3.197257745982e+03
    2213,-4.812310880049e+02,-1.545602734004e+03,-9.206214315969e+02
    2214,-5.619698859968e+02,-1.517979907981e+03,-7.005108194029e+02
    2215,-3.895092619958e+02,-1.570938312019e+03,-5.751808993968e+02
    2216,-2.528879000030e+02,-1.598641019991e+03,-8.123659681994e+02
    2217,2.236550701987e+02,-1.601895761801e+03,5.069148111992e+02
    2218,4.671009568001e+02,-1.548452712800e+03,6.573918437997e+02
    2219,-1.387806459902e+03,8.200780279813e+02,-6.429097699404e+03
    2220,-1.441948379983e+03,7.182131979798e+02,-6.252532388000e+03
    2221,9.306879480157e+02,-1.322976790013e+03,-3.600922867997e+03
    2222,8.436358379906e+02,-1.380413558008e+03,-3.438734115999e+03
    2223,1.086054298028e+03,-1.197386119996e+03,-3.513211935595e+03
    2224,1.550640319982e+02,-1.613042019859e+03,-4.136911195983e+03
    2225,1.940061459989e+02,-1.608585899976e+03,-3.934608398013e+03
    2226,9.331824000953e+02,1.313751600109e+03,-4.916532450600e+03
    2227,8.286752801170e+02,1.377381100263e+03,-4.783463356002e+03
    2228,8.122551000109e+02,1.388834080036e+03,-5.029670347401e+03
    2229,6.992495201143e+02,1.445312639488e+03,-4.887170141995e+03
    2230,1.004246115991e+03,1.265178520104e+03,-5.022634591999e+03
    2231,7.493219560083e+02,-1.434417467969e+03,-3.544920217985e+03
    2232,5.980018576009e+02,-1.504653205939e+03,-3.701317190012e+03
    2233,6.253113401982e+02,-1.493119985998e+03,-3.506365290012e+03
    2234,7.719313660031e+02,-1.422474611971e+03,-3.679584069983e+03
    2235,4.112239088035e+02,-1.566572539971e+03,-3.697482059993e+03
    2236,1.441578100075e+03,7.407189459989e+02,-3.778591406009e+03
    2237,-6.925411700147e+02,1.462858077983e+03,-3.927663459993e+02
    2238,-4.613042320134e+02,1.551649045999e+03,-3.823186140028e+02
    2239,-7.456488659989e+02,1.436223211966e+03,-1.013883960062e+02
    2240,-1.104714388191e+03,1.181861176008e+03,6.588753763988e+02
    2241,1.812924956007e+02,-1.609259300058e+03,-3.063247461997e+03
    2242,1.781431815000e+02,-1.609486316002e+03,-2.901517178001e+03
    2243,7.014769600080e+02,-1.458303404015e+03,-3.328581012014e+03
    2244,2.601919711969e+02,-1.598526819947e+03,-3.360945750008e+03
    2245,2.978438383993e+02,-1.591696391970e+03,-3.177432814017e+03
    2246,4.149007013988e+02,-1.565272910070e+03,-3.448100317990e+03
    2247,1.092014700130e+03,1.198380929956e+03,-5.239389614002e+03
    2248,9.433474559984e+02,1.311444980017e+03,-5.148194201991e+03
    2249,-9.671236619954e+02,1.297272526015e+03,-1.517597540015e+02
    2250,-1.062123595993e+03,1.220891754000e+03,-3.094224519990e+02
    2251,-8.358455939974e+02,1.385713194002e+03,-2.723433959931e+02
    2252,9.112576399310e+02,1.330663859956e+03,-6.409622942591e+03
    2253,1.028173219982e+03,1.245096010052e+03,-6.291548537400e+03
    2254,-1.547284140216e+03,-4.521356139993e+02,-6.812704635983e+03
    2255,-1.554105819789e+03,-4.288608540332e+02,-6.528078236008e+03
    2256,-1.484151280108e+03,-6.311048080238e+02,-6.720333112001e+03
    2257,-1.537635439813e+03,-4.836037540141e+02,-6.977514311991e+03
    2258,-1.583860220012e+03,-2.950199999804e+02,-7.012617194018e+03
    2259,1.558401879913e+02,-1.611164643995e+03,-2.075867449993e+03
    2260,1.545479726009e+03,-4.778805056006e+02,6.335512465993e+02
    2261,1.556379822006e+03,-4.414104521989e+02,4.164462954008e+02
    2262,1.205487181969e+03,-1.079534441977e+03,-6.065842008006e+03
    2263,1.130486785799e+03,-1.159518939961e+03,-6.269668813982e+03
    2264,1.019833250015e+03,-1.259113879930e+03,-6.177841169993e+03
    2265,9.950185500193e+02,-1.279813500127e+03,-6.492405016018e+03
    2266,-2.795522399631e+02,1.602716859874e+03,-6.755884950010e+03
    2267,-1.550053738000e+03,4.642707440006e+02,-7.417863801913e+00
    2268,-1.458623669986e+03,7.004092680032e+02,9.387690399481e-01
    2269,-1.363032037994e+03,8.714989479989e+02,1.937674084017e+02
    2270,-8.854274800242e+02,-1.352699200025e+03,-6.791808902009e+03
    2271,1.058545583973e+03,-1.228765959873e+03,-7.180151500017e+03
    2272,9.231678780306e+02,-1.334464020265e+03,-7.090115508008e+03
    2273,1.074548336006e+03,-1.214084819955e+03,-6.970165556003e+03
    2274,9.254064819486e+02,-1.332604480253e+03,-6.940907939997e+03
    2275,5.714285619385e+02,-1.519123499714e+03,-6.469219457990e+03
    2276,5.953455399676e+02,-1.509392940051e+03,-6.141247288009e+03
    2277,7.114206620023e+02,-1.458286819896e+03,-6.376598546015e+03
    2278,5.338640199864e+02,1.519605039796e+03,-3.942991587987e+03
    2279,5.964775201162e+02,1.494436620180e+03,-4.113712438011e+03
    2280,4.444986240540e+02,-1.560945420186e+03,-6.372450399982e+03
    2281,2.337518180674e+02,-1.605648919876e+03,-6.217731492018e+03
    2282,8.232291419828e+02,-1.397018239879e+03,-6.055356734014e+03
    2283,-1.442427819950e+03,-7.225782359914e+02,-6.541224272000e+03
    2284,-1.483284540060e+03,-6.340229740171e+02,-6.346460460013e+03
    2285,1.182893658008e+03,-1.107714419960e+03,-7.176550271998e+03
    2286,1.665766012004e+02,-1.608883783520e+03,6.943411507997e+02
    2287,-7.832025310007e+02,-1.416896083963e+03,-1.961174307460e+03
    2288,-6.149180929982e+02,-1.497856701954e+03,-1.941069342401e+03
    2289,1.199070973601e+03,-1.089302739938e+03,-6.978875862014e+03
    2290,-1.280942199992e+03,9.818645279581e+02,-6.086768155999e+03
    2291,-1.354260699884e+03,8.752279179595e+02,-6.149064033404e+03
    2292,-2.535819899845e+02,-1.600022019876e+03,-3.868324481205e+03
    2293,-4.233504579987e+02,-1.563350020063e+03,-3.635417697402e+03
    2294,8.030159580100e+02,1.403292096005e+03,-7.500056936078e+02
    2295,7.764817840072e+02,1.417954713996e+03,-9.601120486021e+02
    2296,9.521039060292e+02,1.306103262030e+03,-1.018308383993e+03
    2297,1.082614779981e+03,1.197148367950e+03,-6.988977115202e+03
    2298,8.813687240160e+02,1.354693377975e+03,-1.193923293991e+03
    2299,1.579705297965e+03,-3.381832760666e+02,-3.831486765985e+03
    2300,1.102093538012e+03,1.181863539970e+03,-1.120993598003e+03
    2301,3.854088699982e+02,-1.574177679887e+03,-4.431761609998e+03
    2302,3.999991340164e+02,-1.570094680096e+03,-4.136735255983e+03
    2303,6.133838359847e+02,-1.499585779930e+03,-4.509888343995e+03
    2304,1.262028695994e+03,-1.008421021944e+03,-2.565198587140e+03
    2305,1.071162892017e+03,-1.209596926021e+03,-2.630715283996e+03
    2306,-1.015121378084e+03,-1.259746878003e+03,-1.518106789401e+02
    2307,1.178532534997e+03,-1.110787759958e+03,-6.604912902016e+03
    2308,1.269437556024e+03,-1.003170719999e+03,-6.395622341983e+03
    2309,1.335857514069e+03,-9.106359640163e+02,-6.161677608009e+03
    2310,1.279795179952e+03,-9.851851620008e+02,-3.674034447000e+03
    2311,1.242875506030e+03,-1.031967438029e+03,-3.473931241800e+03
    2312,1.144792562029e+03,-1.140828147984e+03,-3.723843515194e+03
    2313,-1.876093660023e+02,-1.607694925971e+03,-1.071753963800e+03
    2314,-4.199397480053e+02,-1.563473315969e+03,-1.137381343401e+03
    2315,8.827447000355e+02,1.350243859958e+03,-6.673826803997e+03
    2316,9.682466999357e+02,1.291029544034e+03,-6.797151721797e+03
    2317,-1.564221099737e+03,3.885489080159e+02,-3.666736801992e+03
    2318,-1.485039699765e+03,6.304155040015e+02,-3.798513341999e+03
    2319,-1.608122559889e+03,1.043546980292e+02,-3.695838521992e+03
    2320,6.181654000084e+02,-1.494857757982e+03,-2.473864929995e+03
    2321,6.037193080056e+02,-1.500518384404e+03,-2.211181278002e+03
    2322,8.249213640135e+02,-1.390332706004e+03,-2.392872029600e+03
    2323,4.655071339973e+02,-1.549710874013e+03,-2.388178251994e+03
    2324,1.234484936006e+03,1.046428226022e+03,-6.262094890021e+03
    2325,1.283637596058e+03,9.882880799884e+02,-6.057772021990e+03
    2326,1.150238260004e+03,1.135301582014e+03,-6.431266419988e+03
    2327,8.861398120179e+02,-1.352009372004e+03,-2.603216229007e+03
    2328,1.299262007001e+03,-9.635656875989e+02,1.558537024597e+02
    2329,1.486479790008e+03,-6.385098045966e+02,1.942678687993e+02
    2330,8.741769884001e+02,-1.360532118002e+03,1.582976214199e+02
    2331,6.230571284075e+02,-1.492319767995e+03,1.730122358998e+02
    2332,-4.332747459742e+02,-1.560589080008e+03,-5.353360172202e+03
    2333,-2.406568620198e+02,-1.602387899871e+03,-5.016941080004e+03
    2334,-1.829574659894e+02,-1.610266399941e+03,-5.228350882397e+03
    2335,-1.791481553925e+02,-1.608318047969e+03,-5.831302646039e+02
    2336,-6.322445597522e+02,1.516984800910e+03,-5.881385933397e+03
    2337,-7.237152999307e+02,1.464148719420e+03,-5.965707697996e+03
    2338,-6.055101200149e+02,1.514488280124e+03,-6.115778001799e+03
    2339,1.410505959992e+03,-7.922295011984e+02,-4.067719180058e+01
    2340,1.496090364004e+03,-6.161682376023e+02,-2.973105918020e+02
    2341,1.513474982001e+03,-5.720361615988e+02,-1.174911251978e+02
    2342,1.561261067967e+03,-4.253631141962e+02,-3.699145476016e+02
    2343,1.428731316012e+03,-7.590321501991e+02,-2.422982502000e+02
    2344,4.252988379982e+02,-1.560358463398e+03,-1.159247581400e+03
    2345,1.879311839979e+02,-1.606888971996e+03,-1.085029818396e+03
    2346,-5.558764019823e+02,1.520085953996e+03,-5.147131200080e+02
    2347,-4.280518460044e+02,1.560616046028e+03,-6.343172399945e+02
    2348,1.277893071991e+03,9.922304099781e+02,-4.156331031003e+03
    2349,1.410651499882e+03,7.978610800229e+02,-3.991309776795e+03
    2350,1.128503415945e+03,1.153555679903e+03,-4.171789189198e+03
    2351,1.271521515944e+03,1.001204216000e+03,-4.301563656001e+03
    2352,-6.014669860216e+02,-1.503283340002e+03,-4.433066253140e+03
    2353,-6.881340439771e+02,-1.465348075931e+03,-4.308677346401e+03
    2354,-1.237244083964e+03,-1.041519453978e+03,-2.744540181992e+03
    2355,-1.079367401997e+03,-1.205446135996e+03,-2.690511069398e+03
    2356,-1.050476283996e+03,-1.230769124034e+03,-2.919674787995e+03
    2357,-9.174218643990e+02,-1.332339461197e+03,6.380326955199e+02
    2358,-1.049156345400e+03,-1.231219485393e+03,3.611192344995e+02
    2359,-9.019086150007e+02,-1.343010195993e+03,4.615117695203e+02
    2360,3.836982759578e+02,-1.576607159829e+03,-6.050880241992e+03
    2361,-8.721997580067e+02,-1.363627081933e+03,-2.888337468203e+03
    2362,-3.562312400074e+02,-1.580704100058e+03,-7.208644897200e+03
    2363,1.849003739362e+02,-1.612562000111e+03,-7.225555019991e+03
    2364,-6.556676400434e+02,1.490081860345e+03,-7.168304176007e+03
    2365,-1.596279180178e+03,2.226474099800e+02,-3.427330559994e+03
    2366,-1.611501660210e+03,3.507239400419e+01,-3.343049587999e+03
    2367,-1.608276100149e+03,-1.134761160362e+02,-3.527827332009e+03
    2368,-1.001394820100e+03,-1.267942988018e+03,-7.181087574013e+03
    2369,8.018115619969e+02,-1.411452520035e+03,-7.139259163995e+03
    2370,-1.587854220097e+03,-2.841378819881e+02,-3.391326034011e+03
    2371,1.716715520076e+02,-1.613478300193e+03,-6.450385775999e+03
    2372,-6.294782600559e+02,1.504442259625e+03,-6.359913225597e+03
    2373,1.528742998015e+03,-5.297647881965e+02,1.730763139936e+01
    2374,8.202323800038e+02,-1.395190638009e+03,-3.875150928006e+03
    2375,9.949088440194e+02,-1.275092323997e+03,-3.796416718000e+03
    2376,-8.794858397468e+02,1.374567380070e+03,-4.851123604003e+03
    2377,-6.998120201882e+02,1.478182359801e+03,-4.923077853965e+03
    2378,-5.838506740024e+02,-1.510406039957e+03,-3.440665369201e+03
    2379,-7.452933060638e+02,-1.436082381998e+03,-5.873651587803e+03
    2380,-5.520255560023e+02,-1.521986800031e+03,-5.697182221760e+03
    2381,-4.722919860198e+02,-1.548991439934e+03,-5.881404170800e+03
    2382,1.354157200034e+03,-8.801120359668e+02,-3.064292301002e+03
    2383,3.547541299900e+02,1.577976853401e+03,-6.578252790399e+02
    2384,5.258328779821e+02,1.529241132000e+03,-7.406827488035e+02
    2385,-2.386390599634e+02,1.609337119812e+03,-7.184460677984e+03
    2386,-4.109433599461e+02,1.575129860145e+03,-7.027143475998e+03
    2387,-2.535382799639e+02,1.606931939858e+03,-6.995362296018e+03
    2388,-1.581300825995e+03,3.391372528008e+02,6.270235521978e+02
    2389,-1.603213228196e+03,2.136848317401e+02,7.197693417997e+02
    2390,-1.603469641399e+03,-2.132274571205e+02,7.215005395999e+02
    2391,-1.581753563201e+03,-3.379101913992e+02,6.253647877988e+02
    2392,2.476359279840e+02,1.598133008003e+03,-8.058957015999e+02
    2393,-4.342953837968e+02,1.558137520560e+03,3.398405982026e+02
    2394,-4.497808000702e+01,1.624030420189e+03,-6.972551201993e+03
    2395,-1.314903194380e+01,1.624941399807e+03,-7.174630591967e+03
    2396,2.961034001453e+01,1.622498020045e+03,-6.738748920011e+03
    2397,1.176729088072e+03,-1.106765516039e+03,-2.765371766802e+03
    2398,1.194495206064e+03,-1.087822976010e+03,-3.030808343001e+03
    2399,7.815583361980e+02,1.416176255200e+03,6.739422701989e+02
    2400,-1.544877687998e+03,4.784236375260e+02,4.576454728020e+02
    2401,3.187559862007e+02,1.585721696401e+03,6.642049673801e+02
    2402,5.558489338200e+02,1.518997778960e+03,6.683362016601e+02
    2403,1.498125468999e+03,6.085969099853e+02,-2.639435216004e+03
    2404,1.381450494031e+03,8.383197519303e+02,-2.759723591196e+03
    2405,1.471833600000e+03,6.693439820359e+02,-2.820253511402e+03
    2406,-1.900514495981e+02,-1.606434671800e+03,7.096234941998e+02
    2407,-2.506225722037e+02,-1.598226925993e+03,4.639883410021e+02
    2408,1.415557942033e+03,7.798099020688e+02,-2.576477324396e+03
    2409,1.248876710035e+03,-1.025316030007e+03,-4.613987802600e+03
    2410,1.131749748040e+03,-1.154719939983e+03,-4.609997886006e+03
    2411,1.233187125936e+03,-1.044059053997e+03,-4.418203645994e+03
    2412,1.222917237984e+03,-1.056808192004e+03,-4.813236212007e+03
    2413,-1.444048940212e+03,7.151587780114e+02,-4.636659862005e+03
    2414,-8.421834004638e+01,1.622540619994e+03,-6.826306361967e+03
    2415,3.424818800342e+02,1.576317440098e+03,-3.982858767997e+03
    2416,-1.487876994998e+03,6.341722418605e+02,5.801097851602e+02
    2417,-1.400219706800e+03,8.098775488039e+02,6.390077755998e+02
    2418,4.046090599322e+02,1.559465760135e+03,-4.171841799992e+03
    2419,-6.244430240165e+02,-1.493970479948e+03,-3.598179477932e+03
    2420,6.672465314601e+02,1.473738469997e+03,8.702954219790e+01
    2421,4.560345719956e+02,1.552897243971e+03,6.371224582026e+01
    2422,-1.511685011995e+02,1.610307004196e+03,6.548321252602e+02
    2423,-1.546886804012e+03,-4.708095480086e+02,4.556730580012e+02
    2424,-1.374474080999e+03,8.529714374035e+02,4.724486957984e+02
    2425,6.416212198748e+02,1.483535244207e+03,-7.094468242032e+03
    2426,-1.272441130604e+03,9.989322208080e+02,6.476681585998e+02
    2427,-1.119867059914e+03,1.164763179985e+03,-5.200363579801e+03
    2428,8.927747659322e+02,1.345995346006e+03,-1.846638047992e+03
    2429,1.042132796018e+03,1.233843208019e+03,-1.791583606005e+03
    2430,9.898669080233e+02,1.276444079954e+03,-1.671825807997e+03
    2431,1.352724859972e+03,8.808996880314e+02,-7.109538227968e+03
    2432,1.204275520061e+03,1.075188865979e+03,-7.013306859992e+03
    2433,2.393566480588e+02,-1.605454899739e+03,-7.055843664000e+03
    2434,-1.349338900132e+03,-8.846864520180e+02,-6.972258667991e+03
    2435,-1.356210280088e+03,-8.744979439954e+02,-6.759571526017e+03
    2436,-1.204748500054e+03,-1.074745002808e+03,-6.978679272014e+03
    2437,1.138043556041e+03,1.146740888003e+03,-1.405762320006e+03
    2438,1.051139865995e+03,1.226625678003e+03,-1.560279180000e+03
    2439,1.157165391975e+03,1.126926510041e+03,-1.674273946004e+03
    2440,-1.252952039954e+03,1.015173184002e+03,-5.275783336199e+03
    2441,-1.435734477599e+03,7.451503748028e+02,3.765533601993e+02
    2442,-1.215363059958e+03,-1.062963122803e+03,-6.773492811983e+03
    2443,9.322589696016e+02,-1.321679417604e+03,6.544646325401e+02
    2444,-1.149675466006e+03,1.138389678008e+03,1.524580011993e+02
    2445,1.144186556032e+03,-1.140840808002e+03,-2.141104793600e+03
    2446,9.834046680106e+02,-1.283384363392e+03,-3.212418046003e+03
    2447,1.085657637999e+03,-1.196959352000e+03,-2.944895893402e+03
    2448,1.611790718005e+03,1.457965699976e+02,-1.065565078000e+03
    2449,1.616850637985e+03,-7.681538600101e+01,-1.065348283399e+03
    2450,1.615531295977e+03,9.450095600031e+01,-8.526904911984e+02
    2451,1.469610459978e+03,6.868641959705e+02,-4.271526131994e+03
    2452,1.497585020069e+03,6.236825199325e+02,-4.069979584000e+03
    2453,1.521768160136e+03,5.624883700596e+02,-3.867459692011e+03
    2454,-1.577550080033e+03,-3.381738980003e+02,-4.378758357992e+03
    2455,-1.515364220069e+03,-5.561726079951e+02,-4.458766676012e+03
    2456,-1.297526225949e+03,-9.635285020022e+02,-4.205049780017e+03
    2457,-1.372296300015e+03,-8.524888683982e+02,-4.373586448006e+03
    2458,-8.057362999739e+02,-1.402126977994e+03,-7.167544745798e+03
    2459,-9.236065999431e+02,-1.327490667991e+03,-5.677574134004e+03
    2460,-1.006362720056e+03,-1.265228641985e+03,-5.857697925996e+03
    2461,-1.126264859950e+03,-1.159127197993e+03,-5.667643715983e+03
    2462,3.031035744012e+02,-1.590345406038e+03,-2.799838056006e+03
    2463,2.312474204036e+02,-1.602393972023e+03,-2.637185782003e+03
    2464,-8.614464200965e+02,-1.368194357979e+03,-6.969490229991e+03
    2465,-1.211650659951e+03,-1.068747366005e+03,-5.752459535999e+03
    2466,3.840512200005e+02,-1.574861840097e+03,-4.693229879990e+03
    2467,2.004332679922e+02,-1.608558580101e+03,-4.615861065988e+03
    2468,5.551431400197e+02,1.517377197949e+03,-2.119914999805e+03
    2469,8.827165992018e+02,-1.357360259992e+03,-4.826160297994e+03
    2470,7.795417339914e+02,-1.419725919936e+03,-4.714727468006e+03
    2471,1.043567575979e+03,-1.236215648016e+03,-4.762779655987e+03
    2472,1.341378479962e+03,-8.987557359748e+02,-4.029970333198e+03
    2473,-1.353382959898e+03,-8.793128179868e+02,-6.550462461990e+03
    2474,-1.252866196797e+03,1.023527963995e+03,3.851806612012e+02
    2475,1.441707139866e+03,7.247181380299e+02,-7.201027369975e+03
    2476,4.687931540242e+02,1.546352450053e+03,-2.305165678001e+03
    2477,1.617217048022e+03,-7.313497599741e+01,-1.282458382998e+03
    2478,1.202435517983e+03,-1.079236104021e+03,-3.904526471204e+03
    2479,1.250123720068e+03,-1.023042730029e+03,-4.029139414800e+03
    2480,1.349290599962e+03,-8.869839799817e+02,-4.206112607000e+03
    2481,1.607089947972e+03,1.919624639852e+02,-1.349802391799e+03
    2482,2.826732400741e+02,1.590673212063e+03,-3.410042947202e+03
    2483,2.095842599722e+02,1.602507672020e+03,-3.611725566000e+03
    2484,4.407940198714e+02,1.552242080083e+03,-3.489397311994e+03
    2485,1.602064939961e+03,2.408028099724e+02,-4.204146743990e+03
    2486,1.613822913984e+03,1.144805339818e+02,-4.473355374011e+03
    2487,1.617548284000e+03,2.336994602857e+01,-4.261081234013e+03
    2488,1.614749661962e+03,-6.808794201687e+01,-4.544038772005e+03
    2489,1.588475700001e+03,3.184502379646e+02,-4.413376485992e+03
    2490,1.567937600078e+03,4.083068900274e+02,-4.608859881976e+03
    2491,1.914387599823e+02,-1.609368280022e+03,-4.360301947983e+03
    2492,-2.522143399825e+02,-1.600729880088e+03,-5.709807434607e+03
    2493,1.455960055999e+03,-7.053887691926e+02,-2.018112808800e+03
    2494,1.374526378005e+03,-8.513237760341e+02,-2.150591759198e+03
    2495,1.387703712300e+03,-8.306379459878e+02,-1.847269715200e+03
    2496,1.288645758029e+03,-9.758029759672e+02,-1.990469038799e+03
    2497,1.436225257976e+03,7.417729720187e+02,-1.737974993401e+03
    2498,1.490058464803e+03,6.281020760066e+02,-1.581541576397e+03
    2499,6.634645199722e+02,-1.479298899984e+03,-5.410667946017e+03
    2500,-5.898552006255e+00,1.617861696005e+03,-1.312969188008e+03
    2501,-2.440465920101e+02,1.599825205977e+03,-1.306171537996e+03
    2502,-1.563182080121e+02,1.610735528010e+03,-1.479655197991e+03
    2503,1.515906220119e+03,5.540649919710e+02,-7.063063807964e+03
    2504,1.542324899895e+03,4.778520780126e+02,-6.849866882029e+03
    2505,1.450636259988e+03,7.108344548027e+02,-6.896799056012e+03
    2506,5.263774100028e+02,-1.532931139867e+03,-4.736446959996e+03
    2507,3.999575700011e+02,-1.569721019952e+03,-3.856852393992e+03
    2508,5.854059259985e+02,-1.510013500010e+03,-3.945517682006e+03
    2509,-1.449455407996e+03,-7.144072980113e+02,-8.377605260090e+02
    2510,5.694508007036e+01,1.617241024008e+03,-3.372619619997e+03
    2511,4.590671600893e+02,1.547490239934e+03,-3.236522983996e+03
    2512,-1.580146340192e+03,3.049400339916e+02,-7.051481148200e+03
    2513,-1.583682820021e+03,2.861114679475e+02,-7.188889708603e+03
    2514,-7.452924340088e+02,-1.436831320026e+03,-8.145915412020e+02
    2515,-9.519629491991e+02,-1.308648955990e+03,-9.223146241998e+02
    2516,1.075455437976e+03,-1.206017201988e+03,-1.976067201799e+03
    2517,-8.190853427924e+02,-1.395839203968e+03,-6.080486436011e+02
    2518,1.558286780121e+03,-4.197221842100e+02,-5.940658129999e+03
    2519,1.525826199975e+03,-5.267439750007e+02,-5.744238384005e+03
    2520,1.591496679933e+03,-2.682102921936e+02,-5.711993188001e+03
    2521,9.763911999914e+02,-1.288040080017e+03,-2.787789050208e+03
    2522,-1.407716921998e+03,7.989860960165e+02,-8.034764643990e+02
    2523,-1.358400502036e+03,8.798972840281e+02,-4.586819648040e+02
    2524,-1.375193906005e+03,8.541262179616e+02,-9.508680138022e+02
    2525,-6.457204259963e+02,-1.484117535968e+03,-4.836074547992e+02
    2526,4.372338202861e+02,1.509400599820e+03,-5.693998882013e+03
    2527,-3.912337759886e+02,1.570846906001e+03,-1.498105296001e+03
    2528,1.366818580080e+03,-8.598218640046e+02,-4.393607894602e+03
    2529,1.449534880140e+03,-7.104203039927e+02,-4.226336908600e+03
    2530,-1.611172660078e+03,1.540975001979e+01,-5.875952672009e+03
    2531,-1.596688959957e+03,-2.200551760290e+02,-5.839462560013e+03
    2532,-1.594614000006e+03,-2.344800959985e+02,-6.069530400003e+03
    2533,-1.546487999927e+03,-4.568892659844e+02,-6.062102274008e+03
    2534,-1.595892100088e+03,2.209700100308e+02,-5.913003934004e+03
    2535,1.105034384040e+03,-1.181074213200e+03,4.782516255801e+02
    2536,1.610676759991e+03,-1.798206360110e+02,-2.552586785399e+03
    2537,1.588542659936e+03,-3.192329459828e+02,-2.587562521600e+03
    2538,1.611770039871e+03,-1.662755240179e+02,-2.406766517602e+03
    2539,1.568871299962e+03,-4.020397380114e+02,-2.365857580920e+03
    2540,1.167158619993e+03,1.128078919900e+03,-5.749504749986e+03
    2541,1.003802739953e+03,1.274543119997e+03,-5.658036503003e+03
    2542,9.929633659445e+02,1.279455169964e+03,-5.873698872203e+03
    2543,7.673631800873e+02,1.415830660204e+03,-5.778388060004e+03
    2544,1.194419739973e+03,1.100115459979e+03,-5.537119521992e+03
    2545,1.039548919907e+03,1.246322240068e+03,-5.446311295198e+03
    2546,1.039633608014e+03,-1.239978197984e+03,-4.995562922008e+03
    2547,8.647765335991e+02,-1.369268239997e+03,-4.982950159998e+03
    2548,6.174486479969e+02,-1.498538900112e+03,-4.938289360000e+03
    2549,1.611483900114e+03,-9.028929939972e+01,-5.818318608018e+03
    2550,1.313283843976e+03,9.403308700351e+02,-2.521667334193e+03
    2551,1.270812060065e+03,9.964672599604e+02,-2.709364690008e+03
    2552,-8.094026800463e+02,-1.400412813963e+03,-6.149724803208e+03
    2553,1.190155579976e+03,1.090871919998e+03,-2.485685016006e+03
    2554,-6.397240319717e+02,-1.486854509977e+03,-5.495032974800e+03
    2555,-7.617151300254e+02,-1.427470662031e+03,-5.636907875604e+03
    2556,1.424909464028e+03,7.686151639427e+02,-5.883111523975e+03
    2557,1.526761126027e+03,5.321486819891e+02,-6.088275945975e+03
    2558,1.511604113985e+03,5.749568780009e+02,-5.882794967997e+03
    2559,-6.768668239980e+02,-1.470497173952e+03,-1.026692876999e+03
    2560,-6.124859840027e+02,-1.498612318026e+03,-1.233201106200e+03
    2561,9.972853199278e+02,1.268448340142e+03,-2.670065406003e+03
    2562,1.144238739988e+03,1.138376280080e+03,-2.675436380000e+03
    2563,1.048006879942e+03,1.227483900121e+03,-2.468025862017e+03
    2564,-1.053269259957e+03,-1.225125443983e+03,-6.783028096000e+03
    2565,-1.342385179977e+03,-8.983276726001e+02,-5.127294716011e+03
    2566,-1.277259260026e+03,-9.896593139898e+02,-4.950890870002e+03
    2567,-1.236264760055e+03,-1.040544867996e+03,-5.237369947993e+03
    2568,-1.150536099971e+03,-1.135454726021e+03,-5.070453296008e+03
    2569,-4.241352979342e+02,-1.563133099919e+03,-5.594515903002e+03
    2570,1.516576920115e+03,5.748834880163e+02,-3.430388708203e+03
    2571,-1.596712239998e+03,-2.158471679696e+02,-6.702610523992e+03
    2572,-1.610100759876e+03,9.443008020843e+00,-6.876416233984e+03
    2573,-1.602115499743e+03,1.580745160077e+02,-6.700564085992e+03
    2574,1.479254819855e+03,6.634503319995e+02,-3.586339420404e+03
    2575,4.857359600425e+02,1.533483060287e+03,-4.362310390011e+03
    2576,5.555481600027e+02,1.507278800001e+03,-4.551980975990e+03
    2577,6.836336801423e+02,1.454998000002e+03,-4.289485804008e+03
    2578,3.709564801136e+02,1.565332659868e+03,-4.597050386002e+03
    2579,1.442827731991e+03,7.304390219766e+02,-2.996744131796e+03
    2580,1.499503019974e+03,6.122694157956e+02,-3.181799292999e+03
    2581,1.521636255945e+03,5.529184239988e+02,-3.058592395204e+03
    2582,-9.085263807974e+02,-1.339041581964e+03,-3.996348834602e+02
    2583,1.097261103984e+03,-1.186579001965e+03,-1.675832407320e+03
    2584,1.475164320073e+03,6.701175164001e+02,-3.350638532001e+03
    2585,-1.456177499931e+03,6.904873799878e+02,-4.486581560006e+03
    2586,-1.366857499815e+03,8.580356419342e+02,-4.475002871993e+03
    2587,1.376966229990e+02,-1.613179609955e+03,-2.477146262005e+03
    2588,3.654127543988e+02,-1.576744043982e+03,-2.486578086008e+03
    2589,1.575390507580e+03,3.666397497965e+02,4.110999997605e+02
    2590,1.564232727601e+03,4.114973842001e+02,5.972938623198e+02
    2591,-1.386312300064e+03,-8.286020010603e+02,-4.855895803985e+03
    2592,-1.329722059947e+03,-9.176318419916e+02,-4.668706620010e+03
    2593,-1.211243279963e+03,-1.070218046003e+03,-4.766624061988e+03
    2594,-5.265890011022e+02,1.593953401876e+03,-5.692512757991e+03
    2595,1.595603431993e+03,-2.705192760059e+02,-6.251051543980e+02
    2596,1.602322460027e+03,-2.263928443982e+02,-4.455215099984e+02
    2597,1.616198221971e+03,-8.349468999601e+01,-6.844452656022e+02
    2598,1.514700059871e+03,5.756013560695e+02,-4.957142148003e+03
    2599,1.546803100022e+03,4.828954879606e+02,-4.744672868029e+03
    2600,1.092326660130e+03,1.185878439875e+03,-3.877777955608e+03
    2601,8.727943599521e+02,1.352412780007e+03,-3.899211607986e+03
    2602,1.167286542048e+03,1.114860219918e+03,-3.979452347998e+03
    2603,-1.200822648014e+03,-1.083446970013e+03,-1.077248181597e+03
    2604,1.355501369992e+03,-8.828699165995e+02,-3.796019637200e+02
    2605,1.278376923001e+03,-9.910072544019e+02,-1.538410958596e+02
    2606,1.135547945800e+03,-1.151505056005e+03,-2.253383805801e+02
    2607,9.672194000791e+02,1.287374440198e+03,-4.345660374996e+03
    2608,7.826204199913e+02,1.403489379764e+03,-4.510756894000e+03
    2609,5.297073001258e+02,1.515588840062e+03,-5.945797897991e+03
    2610,-2.381750889979e+02,-1.600231443996e+03,2.116280856000e+02
    2611,1.612772739895e+03,4.433260999384e+01,-6.349854363996e+03
    2612,1.608354740123e+03,-1.192125659841e+02,-6.563023379988e+03
    2613,1.593261180121e+03,-2.514397059845e+02,-6.463292198001e+03
    2614,-1.015220400108e+03,-1.257799381985e+03,-6.130593193992e+03
    2615,-1.456644199873e+03,-6.945105739825e+02,-5.856676325986e+03
    2616,1.429276239958e+03,7.671129640307e+02,-4.461120142001e+03
    2617,-3.031659620052e+02,1.589534338013e+03,-1.067687378007e+03
    2618,8.147925840379e+02,-1.403286520181e+03,-6.733137677990e+03
    2619,9.556160320000e+02,-1.310455660125e+03,-6.747726092016e+03
    2620,7.761910979523e+02,-1.424929619712e+03,-6.580070986004e+03
    2621,2.588136611963e+02,-1.598941179976e+03,-3.540715006002e+03
    2622,-1.302339140003e+03,9.585364000166e+02,-7.156920469599e+03
    2623,-2.045257720054e+02,1.604880369993e+03,-9.156018959914e+02
    2624,1.502587589981e+03,-6.007639415996e+02,-2.493230681002e+03
    2625,1.513222558003e+03,-5.742091801997e+02,-2.188337494800e+03
    2626,1.118744300101e+03,1.161415199881e+03,-3.452383827999e+03
    2627,9.921315000135e+02,1.269947980065e+03,-3.408003386012e+03
    2628,9.820857599496e+02,1.277262960052e+03,-3.535963523997e+03
    2629,-1.475940978009e+03,6.636982580132e+02,-2.872182699990e+02
    2630,-1.565006124001e+03,4.107005759683e+02,-2.694691146057e+02
    2631,1.581080039907e+03,3.239391939880e+02,-6.802105041985e+03
    2632,1.510648984000e+03,5.731604209406e+02,-6.724873532026e+03
    2633,5.800003801600e+02,1.483133600618e+03,-5.730856333983e+03
    2634,-6.944608299964e+02,1.461555180013e+03,3.126805880837e+01
    2635,-8.827236519901e+02,1.356064584006e+03,-9.332386202096e+00
    2636,-1.149340063992e+03,-1.138451043993e+03,-1.698100578197e+03
    2637,-9.478490336008e+02,-1.311993779946e+03,-1.941171791599e+03
    2638,-1.073870954008e+03,-1.210410594001e+03,-1.923160173602e+03
    2639,-9.420129160039e+02,-1.316235484072e+03,-2.177293135399e+03
    2640,7.192520001079e+02,1.440186899935e+03,-5.910930593985e+03
    2641,1.616875999941e+03,1.047240420002e+02,-3.780774461985e+03
    2642,1.611275960077e+03,1.689425219722e+02,-3.991057876014e+03
    2643,-1.608958719805e+03,9.138814398705e+01,-4.202278623987e+03
    2644,-1.538408899896e+03,4.778960039883e+02,-4.302053089993e+03
    2645,1.563752734070e+03,-4.200546900041e+02,-2.070590025700e+03
    2646,1.617516181984e+03,4.902455000568e+01,-7.215264043991e+02
    2647,1.595523715994e+03,2.683289339977e+02,-7.729995673197e+02
    2648,-1.295960060182e+03,9.591678480028e+02,-5.738749576001e+03
    2649,-1.281196360208e+03,9.801665060608e+02,-5.944277120007e+03
    2650,-1.387231460152e+03,8.212840020238e+02,-5.965972476800e+03
    2651,1.492169324000e+03,6.231496679929e+02,-1.049461345801e+03
    2652,1.390972627968e+03,8.234075220118e+02,-1.142128416606e+03
    2653,1.511790246401e+03,5.743588520036e+02,-1.202777608602e+03
    2654,1.566722092016e+03,4.029445819894e+02,-9.868333137993e+02
    2655,9.728657989854e+01,1.614648063992e+03,-3.796346903596e+03
    2656,1.396573999167e+02,1.610518068017e+03,-4.005179616800e+03
    2657,3.038381598727e+02,1.585422999863e+03,-3.836810500597e+03
    2658,-5.707548001309e+01,1.619203699901e+03,-4.020066925998e+03
    2659,1.431498519999e+03,-7.502664239906e+02,-6.896284978996e+03
    2660,1.526556140128e+03,-5.248038339653e+02,-6.895918529402e+03
    2661,1.585303860086e+03,-2.975470079842e+02,-7.164908397996e+03
    2662,1.527335019962e+03,-5.232165219757e+02,-7.150850738200e+03
    2663,1.398931100059e+03,8.135609080191e+02,-3.424009542798e+03
    2664,-5.535395039984e+02,-1.521477246065e+03,-1.430990559600e+03
    2665,-3.888690160088e+02,-1.571565001981e+03,-1.316315318999e+03
    2666,2.688007880258e+02,1.594280985991e+03,-2.463980482200e+03
    2667,1.384893919701e+02,1.611654831995e+03,-2.198588443996e+03
    2668,7.132780805415e+01,1.616369798010e+03,-2.356851131405e+03
    2669,2.940870399537e+02,1.584447440013e+03,-4.427521321995e+03
    2670,3.090264379989e+02,1.586911439991e+03,-2.252534819720e+03
    2671,4.232043260541e+02,1.559518423995e+03,-2.426152230600e+03
    2672,4.323870719968e+02,-1.559218708013e+03,-2.228601100007e+03
    2673,-4.744395597939e+02,1.579166000731e+03,-5.931390474402e+03
    2674,2.273209160331e+02,-1.606119100108e+03,-5.718878211983e+03
    2675,2.092637419448e+02,-1.608735240122e+03,-5.944002809988e+03
    2676,5.541745019911e+02,1.518862596005e+03,-1.101314429000e+03
    2677,-6.781389001648e+02,1.500558399760e+03,-5.748200951990e+03
    2678,1.616422135995e+03,9.062270598401e+01,-1.578185764802e+03
    2679,1.615014446062e+03,-1.146156200140e+02,-1.470297644998e+03
    2680,1.588128006049e+03,3.143926520146e+02,-2.329894330801e+03
    2681,1.521408048009e+03,5.491878679751e+02,-2.454537296997e+03
    2682,1.575145643937e+03,3.722700980333e+02,-2.507371694399e+03
    2683,1.607309100030e+03,1.987472240089e+02,-2.524318174539e+03
    2684,-2.208677739638e+02,-1.605432260060e+03,-5.460940874600e+03
    2685,-1.357457709982e+03,8.829796800586e+02,-1.760240521399e+03
    2686,-1.284780934008e+03,9.866408599846e+02,-1.782942033209e+03
    2687,-1.254020986006e+03,1.025903739898e+03,-1.898924150008e+03
    2688,-1.425022348012e+03,7.677739759802e+02,-1.532542367799e+03
    2689,-1.445014009997e+03,7.288243240460e+02,-1.719787437400e+03
    2690,-1.524963502022e+03,5.382350180276e+02,-1.674750649996e+03
    2691,-1.548999939732e+03,-4.478719920082e+02,-6.237981046012e+03
    2692,-1.593947420185e+03,-2.383239019699e+02,-6.327711044001e+03
    2693,1.236664519859e+03,1.050839619997e+03,-5.327454308005e+03
    2694,1.355591419868e+03,8.894704399571e+02,-5.404673844018e+03
    2695,1.432733332033e+03,7.541218140681e+02,-5.658856495983e+03
    2696,1.451787029971e+03,7.171913379836e+02,-5.452660575970e+03
    2697,1.512923228002e+03,5.718800419993e+02,-5.681725845977e+03
    2698,1.620056199974e+03,2.503349999276e+01,-2.476890287602e+03
    2699,-8.233372300027e+02,-1.393764072042e+03,-3.086967592000e+03
    2700,-1.006129056016e+03,-1.267384624027e+03,-3.129939954803e+03
    2701,-1.578359240014e+03,-3.421252719735e+02,-1.151569150002e+03
    2702,-1.607734220045e+03,-1.558547940108e+02,-1.012837869983e+03
    2703,-1.558386100041e+03,-4.251686320091e+02,-9.268492240175e+02
    2704,1.587281139975e+03,-2.935907160092e+02,-5.446417851988e+03
    2705,1.546870800140e+03,-4.611302640001e+02,-5.549668544009e+03
    2706,1.529032739902e+03,-5.176911779953e+02,-5.298350099992e+03
    2707,1.587665119915e+03,-2.924495739994e+02,-5.249334860006e+03
    2708,1.563159200120e+03,-4.032818160053e+02,-5.096822509986e+03
    2709,1.447628953203e+03,-7.214055799851e+02,-2.319079466601e+03
    2710,1.029450900102e+03,1.243201135931e+03,-6.565155132998e+03
    2711,-2.685542099993e+02,-1.597635179997e+03,-4.138932021607e+03
    2712,-1.504475260111e+03,-5.864045798029e+02,-3.647629964000e+03
    2713,1.192116006525e+01,1.618779254017e+03,-3.552300399995e+03
    2714,-1.452963960116e+03,-7.056939561989e+02,-3.778424070002e+03
    2715,-1.515330360060e+03,-5.591787840131e+02,-1.322887624002e+03
    2716,-1.540818780023e+03,-4.831835439937e+02,-1.564939365986e+03
    2717,-1.585032679936e+03,-3.085791600168e+02,-1.314014695995e+03
    2718,1.584989179975e+03,-2.989485920075e+02,-6.938987239994e+03
    2719,1.595539079907e+03,-2.350656000145e+02,-6.737570107985e+03
    2720,1.551058139869e+03,-4.450112919893e+02,-6.582832868006e+03
    2721,-1.592681840044e+03,-2.645300440203e+02,-1.521232053993e+03
    2722,-1.571219961982e+03,3.826913199671e+02,-9.410759519994e+02
    2723,-1.518329964007e+03,5.591380739695e+02,-7.570880208002e+02
    2724,-1.565384623997e+03,4.071745179738e+02,-7.477777879938e+02
    2725,-1.562079543597e+03,4.207511719656e+02,-5.302943267959e+02
    2726,-1.461260964019e+03,-6.915499440013e+02,3.411395717985e+02
    2727,-1.519480969965e+03,-5.518006959935e+02,3.429232586044e+02
    2728,8.057491700002e+02,1.402303712198e+03,-8.489392279745e+01
    2729,-7.998843139896e+02,-1.407072304054e+03,-4.145387566602e+03
    2730,1.197054600016e+03,-1.085916872018e+03,-1.831665731000e+03
    2731,-7.196263342013e+02,-1.450371993987e+03,-2.431132952340e+03
    2732,-6.962368078002e+02,-1.461792341943e+03,-2.675624520320e+03
    2733,1.439524679946e+03,-7.317507919939e+02,-5.307119454619e+03
    2734,1.343030240027e+03,-8.985687900083e+02,-5.545726217197e+03
    2735,1.452745799973e+03,-7.050642738002e+02,-5.531322661801e+03
    2736,-8.128607219274e+02,1.411581180194e+03,-5.806240504015e+03
    2737,-1.124400959981e+03,1.162223679889e+03,-5.986445345983e+03
    2738,-1.447027819984e+03,-7.114343219999e+02,-7.180370929994e+03
    2739,-1.460322999736e+03,-6.842306220257e+02,-6.970238676005e+03
    2740,-1.410450039980e+03,-7.889878760071e+02,-9.989046739999e+02
    2741,-1.451795100016e+03,-7.093053299824e+02,-1.135439625998e+03
    2742,-1.509042105948e+03,-5.767084880111e+02,-1.032436711991e+03
    2743,4.406571998601e+02,1.558055980145e+03,-7.155116480005e+03
    2744,-1.487382480042e+03,6.221097639664e+02,-5.775642134198e+03
    2745,-1.369972419987e+03,-8.577557993957e+02,-1.224948154000e+03
    2746,-4.766879004009e+02,-1.547668082007e+03,-2.721372395597e+03
    2747,-1.014434280026e+03,-1.259005101968e+03,-5.541579497999e+03
    2748,-8.934536319463e+02,-1.348347192025e+03,-5.415138359997e+03
    2749,3.078393159838e+02,1.587611353191e+03,-1.275966589399e+03
    2750,-1.126284040024e+03,-1.159412778025e+03,-5.379758495989e+03
    2751,-1.019802784018e+03,-1.254909283993e+03,-5.231338340009e+03
    2752,-1.036367020009e+03,-1.239387745987e+03,-6.979300965998e+03
    2753,-1.591183400017e+03,-2.620076400219e+02,-5.026972888010e+03
    2754,-1.595400579768e+03,2.287092640285e+02,-5.112553532000e+03
    2755,1.367843651993e+03,8.613852579707e+02,-8.944536409962e+02
    2756,1.466969576014e+03,6.800445999889e+02,-8.537430191986e+02
    2757,-1.263896200413e+02,1.615293499944e+03,-3.346149018000e+03
    2758,1.353801372012e+03,8.834117760121e+02,-7.413965268030e+02
    2759,-6.593116399822e+02,1.495860700155e+03,-4.742552150020e+03
    2760,-5.430011401392e+02,1.543086700025e+03,-4.987908256054e+03
    2761,-9.803999020361e+02,1.288570243983e+03,-9.537854079984e+02
    2762,1.432850398011e+03,-7.487958680327e+02,-2.619104790197e+03
    2763,-7.524630600200e+02,1.433317818022e+03,-9.233024860128e+02
    2764,-5.764566798924e+02,1.524585399870e+03,-4.305621641977e+03
    2765,-7.458025400578e+02,1.449691780322e+03,-4.259166157983e+03
    2766,4.640392295966e+02,-1.550442361965e+03,-2.662643931996e+03
    2767,-5.313214200694e+01,1.617483302034e+03,-1.979102042000e+03
    2768,-2.237710839985e+02,1.603581732027e+03,-2.090610164017e+03
    2769,4.750799979371e+00,1.618046144005e+03,-1.778260788006e+03
    2770,-2.033070360009e+02,1.605951765973e+03,-1.854417269982e+03
    2771,-1.602887819713e+03,1.680854879639e+02,-5.280590190018e+03
    2772,-1.609911960159e+03,-8.055479801424e+01,-5.226708988017e+03
    2773,1.612367635977e+03,1.153748519851e+02,-4.935711779992e+03
    2774,1.604721680005e+03,-1.804781140057e+02,-5.037814464002e+03
    2775,1.611451479967e+03,-1.132425799877e+02,-4.798181980004e+03
    2776,-1.561463840032e+03,-4.101169139863e+02,-1.765523687984e+03
    2777,-1.501743979906e+03,-5.941505319824e+02,-1.822253905991e+03
    2778,-1.465607579971e+03,-6.794842040119e+02,-1.638690716001e+03
    2779,1.585541819950e+03,3.083162366038e+02,-6.011912271970e+03
    2780,1.613008520029e+03,5.488845180026e+01,-6.059438857984e+03
    2781,1.603584899892e+03,1.923875670006e+02,-5.754010473988e+03
    2782,1.584218280019e+03,3.133279915992e+02,-6.282969330027e+03
    2783,4.366044034629e+00,1.618205666029e+03,-2.147354946009e+03
    2784,-8.594223399580e+01,1.616397396023e+03,-2.239731022007e+03
    2785,-1.337820972026e+03,9.120866300220e+02,-1.165361226598e+03
    2786,-1.181089697970e+03,1.107806011987e+03,-1.046664090004e+03
    2787,-1.297816326036e+03,9.680499839770e+02,-9.764480713991e+02
    2788,-1.236931980035e+03,1.045396021957e+03,-1.241137908000e+03
    2789,-1.353667949965e+03,-8.834068704000e+02,-2.063230751997e+03
    2790,-1.401022234066e+03,-8.053199045985e+02,-2.310716659994e+03
    2791,-1.413473660057e+03,-7.830098204001e+02,-2.158079270007e+03
    2792,-1.297657124024e+03,-9.645754819950e+02,-2.257539684007e+03
    2793,-1.474069039981e+03,-6.582576799924e+02,-4.757875678008e+03
    2794,1.548330960098e+03,-4.548435740071e+02,-6.259865272004e+03
    2795,1.455506179993e+03,-7.000601899846e+02,-6.231663108720e+03
    2796,1.468378680034e+03,-6.718802380008e+02,-5.968215214800e+03
    2797,-1.513359619858e+03,-5.604136819975e+02,-4.945430965996e+03
    2798,-1.437740520000e+03,-7.345084460026e+02,-5.036589838001e+03
    2799,-1.615571888069e+03,3.196396800235e+01,-8.762149040124e+02
    2800,-1.597672063989e+03,2.466212599641e+02,-9.198754619946e+02
    2801,-1.602206871976e+03,2.158006820137e+02,-7.765683739995e+02
    2802,-1.420744960040e+03,-7.698588960083e+02,-1.433630855995e+03
    2803,-6.706353299623e+02,1.475172779991e+03,-2.023835809997e+03
    2804,-6.254251720191e+02,1.495368700061e+03,-2.258968644005e+03
    2805,-4.817910979354e+02,1.546648259955e+03,-2.046680033991e+03
    2806,-1.538723960058e+03,-4.911007260161e+02,-1.159018272002e+03
    2807,-1.421058618006e+03,7.750729559958e+02,-1.084215406160e+03
    2808,-1.385835614033e+03,8.370423680469e+02,-1.347815762801e+03
    2809,1.604973320078e+03,1.664230499909e+02,-6.545320658024e+03
    2810,1.237509857200e+03,-1.041253200002e+03,-5.883346534860e+02
    2811,1.177803458398e+03,-1.108027378006e+03,-7.200847363600e+02
    2812,1.189415329599e+03,-1.095794910009e+03,-4.366706256800e+02
    2813,1.003825422005e+03,-1.267509591996e+03,-5.703891717560e+02
    2814,-7.311422860086e+02,-1.443738022014e+03,-2.632339564012e+02
    2815,-1.309555296032e+03,-9.481298784082e+02,-1.544884858003e+03
    2816,7.408930998889e+02,1.424791059590e+03,-4.684294461993e+03
    2817,6.139329798118e+02,1.483189299728e+03,-4.729320884012e+03
    2818,1.599005972042e+03,-2.568098960105e+02,-1.973689299599e+03
    2819,1.618682199991e+03,5.209135600199e+01,-2.017975615599e+03
    2820,1.614700859944e+03,-1.294464779915e+02,-2.180542666400e+03
    2821,1.107422361995e+03,-1.183261459970e+03,-6.789658615987e+03
    2822,8.756125720686e+02,1.357601168018e+03,-1.665170596007e+03
    2823,7.190053060156e+02,1.446740066015e+03,-1.867911276008e+03
    2824,-1.527791610003e+03,-5.254862399957e+02,-7.270698620068e+02
    2825,-1.289289742023e+03,9.801728880114e+02,-1.424946779007e+03
    2826,1.616815757991e+03,-5.307788199655e+01,-4.035104231982e+03
    2827,1.589733700046e+03,-2.880796120247e+02,-4.059443724000e+03
    2828,7.407406799716e+02,1.431198239859e+03,-3.403709957997e+03
    2829,5.533633801134e+02,1.514930320033e+03,-3.391738609993e+03
    2830,-9.750612880060e+02,-1.291369795999e+03,-3.516259827196e+03
    2831,-1.136373551999e+03,-1.151061116027e+03,-3.487699611996e+03
    2832,-1.098625362024e+03,-1.187464895997e+03,-3.343823975997e+03
    2833,-9.693861339994e+02,-1.295777293956e+03,-3.323135859403e+03
    2834,1.380540699893e+03,8.489519020209e+02,-4.194533576005e+03
    2835,-8.010566820084e+02,-1.406621039943e+03,-3.545730531399e+03
    2836,1.185157919884e+03,1.095389325984e+03,-7.165552077994e+03
    2837,2.251039520049e+02,-1.601797018400e+03,-6.093507735957e+02
    2838,-1.482941799901e+03,-6.368563000097e+02,-5.215147880011e+03
    2839,-1.517781280020e+03,-5.470382759990e+02,-5.401319098010e+03
    2840,-1.550021379868e+03,-4.468395139786e+02,-5.130719233994e+03
    2841,-1.433446340027e+03,-7.423340559999e+02,-5.457549778017e+03
    2842,1.605799339849e+02,1.609526880004e+03,-2.024915735200e+03
    2843,-1.578231940281e+03,-3.307045760189e+02,-5.327568630017e+03
    2844,-1.504150854007e+03,5.954176580268e+02,-1.469103535002e+03
    2845,-1.468183789996e+03,6.806605740554e+02,-1.270826767201e+03
    2846,-8.494903679357e+02,-1.377143843939e+03,-4.753039212996e+03
    2847,-1.049482213982e+03,-1.230450987967e+03,-4.665405457999e+03
    2848,1.543701043990e+03,-4.881851004034e+02,-2.658326776596e+03
    2849,-5.030351888024e+02,-1.539354699961e+03,-3.179472744199e+03
    2850,-7.077795719926e+02,-1.456025983941e+03,-3.839658805600e+03
    2851,1.596468703988e+03,-2.690707319859e+02,-1.394598526798e+03
    2852,1.608977084011e+03,-1.819887600161e+02,-1.633889040999e+03
    2853,1.581466959973e+03,-3.265535039640e+02,-4.568018680015e+03
    2854,1.508242960022e+03,-5.756648900069e+02,-4.505438365008e+03
    2855,1.530808839909e+03,-5.128787239839e+02,-4.272846478005e+03
    2856,-1.498537149958e+03,6.062684400213e+02,-2.522425905994e+03
    2857,-1.448047224029e+03,7.206754060723e+02,-2.691177945800e+03
    2858,-1.363233208013e+03,8.739256600955e+02,-2.577483790260e+03
    2859,-1.547882179860e+03,4.603514680244e+02,-2.647342187999e+03
    2860,-1.368006740145e+03,8.568829001192e+02,-6.930277442000e+03
    2861,-1.327562179927e+03,-9.168069420351e+02,-7.180538848002e+03
    2862,1.609856760098e+03,-9.087541798610e+01,-6.974105609973e+03
    2863,1.611164520061e+03,-5.849178597783e+01,-7.178056831987e+03
    2864,2.814904562055e+02,-1.593863836029e+03,-2.241329048005e+03
    2865,-8.003136839824e+02,1.406840282020e+03,-5.779886540075e+02
    2866,-1.976620359953e+02,-1.606647951947e+03,-1.286568051802e+03
    2867,-1.598596179876e+03,1.866397619706e+02,-6.985327430002e+03
    2868,-1.607073560079e+03,8.838884393258e+01,-7.167208577997e+03
    2869,1.317613238004e+03,-9.402207998929e+02,-7.163641977993e+03
    2870,2.179727139995e+02,-1.605254820067e+03,-3.712463667990e+03
    2871,1.538171120059e+03,-4.884312619639e+02,-3.208825858404e+03
    2872,1.604109839956e+03,-2.214821459938e+02,-1.758622586601e+03
    2873,-1.258801979938e+03,1.014833219926e+03,-4.618184376994e+03
    2874,1.161386281997e+03,1.125637151199e+03,7.044777373994e+02
    2875,1.277000044003e+03,9.924965383961e+02,7.358521652001e+02
    2876,-1.065556090002e+03,1.217585413994e+03,-1.831155519573e+01
    2877,1.199126891399e+03,1.085208181000e+03,5.375863858017e+02
    2878,1.604927340011e+03,-1.663445279993e+02,-6.034705231993e+03
    2879,-8.980602200012e+02,-1.346169004048e+03,-3.967057621604e+03
    2880,-1.574946526014e+03,-3.604578819924e+02,-5.944134260141e+02
    2881,-1.614654195960e+03,-6.448100598272e+01,-6.726670179886e+02
    2882,-1.605817620059e+03,-1.812806159910e+02,-4.606966839942e+02
    2883,-1.616615801991e+03,-6.614374004256e+00,-3.400185019997e+02
    2884,-1.175703279950e+03,-1.106421656799e+03,-7.181571642009e+03
    2885,-1.608546051984e+03,1.640060239997e+02,-5.248139619954e+02
    2886,4.438780519657e+02,-1.559592899930e+03,-5.154338048003e+03
    2887,6.255008800353e+02,1.464344599963e+03,-5.552368603996e+03
    2888,-8.981263045940e+02,-1.346661133970e+03,-2.668735258999e+03
    2889,1.359292887987e+03,8.757532280065e+02,-5.739442419913e+01
    2890,1.182078462017e+03,1.103059431989e+03,-5.876739520127e+01
    2891,1.452840450012e+03,7.098981660162e+02,-4.631638427989e+02
    2892,-1.541360239908e+03,-4.778337820173e+02,-4.658098968015e+03
    2893,-1.430531800046e+03,-7.493625744007e+02,-4.561944823986e+03
    2894,1.513586149795e+03,5.697597960058e+02,-4.059530312010e+02
    2895,-1.566656319903e+03,-3.847242360049e+02,-4.843365529982e+03
    2896,-2.804440559923e+02,-1.594492908036e+03,-1.488905126798e+03
    2897,-1.597580840022e+03,-2.208173100082e+02,-4.745515268005e+03
    2898,-1.954488183982e+02,-1.606087076011e+03,-1.061802419741e+01
    2899,-1.599734380129e+03,-1.972703939727e+02,-5.566855084003e+03
    2900,-1.611078480043e+03,-4.291902401140e+01,-5.421364208004e+03
    2901,-9.757350279939e+02,1.290672676011e+03,6.249458980395e+01
    2902,-2.706719487990e+02,-1.596877560021e+03,-3.014351171393e+03
    2903,-1.982705952038e+02,-1.607587199972e+03,-3.210954759994e+03
    2904,6.440827999708e+02,1.478563200077e+03,-6.341557874034e+03
    2905,-4.769891636010e+02,-1.547625139997e+03,-2.947996955803e+03
    2906,-4.622736574033e+02,-1.550436913991e+03,4.126910634017e+02
    2907,-1.537383579898e+03,-4.878509980016e+02,-5.609895876001e+03
    2908,-6.806558062040e+02,-1.469114274021e+03,-3.050733782520e+03
    2909,3.815976340724e+02,1.570180038011e+03,-2.635394252200e+03
    2910,3.603767799308e+02,1.575035762035e+03,-2.851671612201e+03
    2911,-1.586216580140e+03,-2.934010299913e+02,-4.576615178001e+03
    2912,-1.608570139765e+03,-1.126322379872e+02,-4.538179991983e+03
    2913,5.072613559718e+02,1.533591584065e+03,-2.514279310791e+03
    2914,1.356030032993e+03,8.813604538029e+02,6.203579380006e+02
    2915,1.436559920023e+03,-7.411875399990e+02,-7.150299258595e+03
    2916,1.567498694037e+03,4.059152419917e+02,-4.860393578033e+03
    2917,1.246038204006e+03,1.030818792007e+03,3.644912857977e+02
    2918,-1.324152124026e+03,-9.267014900138e+02,-3.876689772010e+03
    2919,-1.177693290059e+03,-1.108289725981e+03,-3.686129831995e+03
    2920,-1.205897643994e+03,-1.077124674028e+03,-3.876253427999e+03
    2921,-1.344028121979e+03,-8.976607079829e+02,-3.651092090018e+03
    2922,1.345468691996e+03,8.972496940075e+02,4.257491367973e+02
    2923,-4.855131803280e+02,1.592075200773e+03,-5.272686033950e+03
    2924,-1.577030960238e+03,3.211322059715e+02,-6.840550024803e+03
    2925,-7.855163660031e+02,-1.415433033953e+03,-1.334160244201e+03
    2926,7.306793400029e+02,1.441936278035e+03,-1.136728277205e+03
    2927,-1.559199620100e+03,-4.161636199885e+02,-3.294871159989e+03
    2928,-1.605040320285e+03,-1.549567439987e+02,-3.222077176016e+03
    2929,-1.563632200051e+03,-3.987443939981e+02,-3.105694896011e+03
    2930,-1.571163860091e+03,-3.563184600536e+02,-7.179366492007e+03
    2931,-1.606649600080e+03,-1.072652820109e+02,-7.094595016005e+03
    2932,-7.550414640342e+02,-1.431248115986e+03,-5.284415991601e+03
    2933,1.020283893974e+03,1.253727222000e+03,-8.207540459913e+02
    2934,1.257388624001e+03,1.015778481981e+03,-6.841647917972e+02
    2935,1.073565309972e+03,1.208549199997e+03,-5.768623792005e+02
    2936,1.213741675993e+03,1.067194139996e+03,-9.298804180004e+02
    2937,1.485935165199e+03,6.383873759957e+02,6.566734700014e+01
    2938,-1.489347480072e+03,-6.246533440022e+02,-2.095679346003e+03
    2939,-1.485943780088e+03,-6.326762539825e+02,-2.318540328003e+03
    2940,2.637815300186e+02,1.594908119974e+03,-2.767388246104e+03
    2941,-7.003690939716e+02,1.459672228034e+03,-1.162547374015e+03
    2942,-6.364664560351e+02,1.488812678026e+03,-1.367114254001e+03
    2943,-5.485972219819e+02,1.522804076015e+03,-1.063700026002e+03
    2944,-1.552631839895e+03,-4.411415759850e+02,-2.333712270009e+03
    2945,-4.214256240074e+02,1.562777587978e+03,-1.262050987990e+03
    2946,1.433249720014e+03,7.483405480048e+02,-6.356948246021e+02
    2947,1.546727503599e+03,4.730538899866e+02,-6.296250947981e+02
    2948,-1.431899399957e+03,-7.484391680086e+02,-1.924744666003e+03
    2949,-1.338919853973e+03,-9.057497080057e+02,-3.040990860004e+03
    2950,-1.452914719932e+03,-7.061108663983e+02,-2.932664059984e+03
    2951,-1.366806647931e+03,-8.626994080087e+02,-2.825970387994e+03
    2952,-1.460363299998e+03,-6.903660150009e+02,-3.151574703982e+03
    2953,-1.373991450002e+03,-8.509339319859e+02,-3.314470721989e+03
    2954,-1.312589693929e+03,-9.437629700011e+02,-3.186529640008e+03
    2955,1.527689258598e+03,5.309459019903e+02,-8.206362122009e+02
    2956,8.907680200171e+02,1.345942699942e+03,-2.457387788002e+03
    2957,-1.208499995974e+03,-1.074905702019e+03,-2.971953831994e+03
    2958,1.606154280028e+03,-1.622031579961e+02,-5.529383652016e+03
    2959,1.614601500124e+03,5.696930205608e+00,-5.635502008017e+03
    2960,9.230131200700e+02,1.324517400028e+03,-2.248443583987e+03
    2961,1.606016400304e+02,1.609534811797e+03,-1.437852612404e+03
    2962,6.621897396678e+01,1.616455178014e+03,-1.600694572609e+03
    2963,-1.501216500020e+03,5.882592660294e+02,-5.348520111795e+03
    2964,-1.492373340056e+03,6.110333640214e+02,-5.580875083999e+03
    2965,-1.428107959993e+03,7.490934300075e+02,-5.414711746803e+03
    2966,3.429985619906e+02,1.579903339991e+03,-2.069481561999e+03
    2967,3.562774759786e+02,1.577045380008e+03,-1.886981767399e+03
    2968,1.856694060169e+02,1.606746562399e+03,-1.848942739204e+03
    2969,-1.571697220098e+03,3.577884460155e+02,-5.487823366004e+03
    2970,-1.142397106011e+03,-1.145550796014e+03,-2.135801563996e+03
    2971,-1.106618548003e+03,-1.180375194020e+03,-2.444575614804e+03
    2972,-9.240789326005e+02,-1.328938358026e+03,-2.426940934402e+03
    2973,-1.614245359915e+03,-3.902398197881e+01,-1.489507867992e+03
    2974,-1.614778780048e+03,-3.447962001557e+01,-1.236469989982e+03
    2975,-1.609615199930e+03,1.350234400187e+02,-1.466469408011e+03
    2976,-1.516581252057e+03,5.603118599752e+02,-2.111416376000e+03
    2977,-1.504990288048e+03,5.908148320152e+02,-2.270670669993e+03
    2978,-1.591233251967e+03,2.799691240349e+02,-1.619214957989e+03
    2979,-1.614281939995e+03,2.798046203016e+01,-1.693864626011e+03
    2980,-1.584148140069e+03,3.163035359658e+02,-1.886823276009e+03
    2981,-1.602508986071e+03,2.069207060277e+02,-1.319247191999e+03
    2982,1.944312659938e+02,-1.605986823998e+03,-8.698167930034e+02
    2983,4.161143299993e+02,-1.562768936002e+03,-9.217317336005e+02
    2984,-1.146222698027e+03,1.148320520264e+03,-4.480778036599e+03
    2985,-9.693383401406e+02,1.309375340042e+03,-4.647293010001e+03
    2986,-1.401175677983e+03,8.097578440340e+02,-2.976418880001e+02
    2987,1.232941405991e+03,1.042440099855e+03,-3.545934349000e+03
    2988,1.064615639892e+03,1.210184120065e+03,-3.611531315996e+03
    2989,1.489756546399e+03,-6.293511779910e+02,-2.768345782602e+03
    2990,8.150301299646e+02,1.391907120069e+03,-5.591379832003e+03
    2991,8.248990019872e+02,1.385676520032e+03,-5.349479923994e+03
    2992,-9.030039799865e+02,1.345108639859e+03,-5.498605074002e+03
    2993,-3.744259559637e+02,1.575147509969e+03,-1.683145365989e+03
    2994,-5.804363739683e+02,1.512192927996e+03,-1.802155702002e+03
    2995,-3.727066499792e+02,1.575887300011e+03,-1.902065137987e+03
    2996,-4.116784999415e+02,1.568619420007e+03,-2.947338224020e+03
    2997,-3.844002399689e+02,1.574990500040e+03,-2.815067803992e+03
    2998,-5.574643399821e+02,1.523435720096e+03,-2.830947054032e+03
    2999,-5.752697600062e+02,1.516284419879e+03,-2.642388233985e+03
    3000,-1.236169818052e+03,-1.041805644018e+03,-4.045386137990e+03
    3001,-1.100321072001e+03,-1.185451757985e+03,-3.905189336005e+03
    3002,-1.078967529968e+03,-1.204907477982e+03,-4.095800083991e+03
    3003,1.208732934021e+03,1.073448365970e+03,-4.002744651926e+02
    3004,-1.417596939994e+03,7.690918359907e+02,-5.564181079199e+03
    3005,1.592580878034e+03,-2.885871200072e+02,-8.161387967984e+02
    3006,-1.323414080209e+03,9.208875659824e+02,-5.534578657401e+03
    3007,1.538921828804e+03,-4.981043940142e+02,-2.872335712999e+03
    3008,1.566428953993e+03,-4.105956663988e+02,-2.768458517400e+03
    3009,1.541513299997e+03,-4.927378915938e+02,-7.576902703984e+02
    3010,1.549847418013e+03,-4.655534132067e+02,-5.585199908014e+02
    3011,-5.665567719843e+02,1.516943403993e+03,-1.552551067998e+03
    3012,-5.078236279906e+02,1.537679444007e+03,-1.680552289992e+03
    3013,1.541597064033e+03,-4.928275079998e+02,-9.753023657999e+02
    3014,1.593057060029e+03,-2.868298080015e+02,-1.023964621401e+03
    3015,1.444438378005e+03,-7.290454005991e+02,-9.596786014009e+02
    3016,-1.537950479754e+03,4.836687299961e+02,-5.607852332001e+03
    3017,-1.588303219883e+03,2.722393360250e+02,-5.710994837998e+03
    3018,1.102393118801e+03,-1.183418649994e+03,1.520137030999e+02
    3019,1.112860106599e+03,-1.173486148009e+03,-7.037115751996e+01
    3020,5.672681020013e+02,-1.514154951996e+03,-6.931519748016e+02
    3021,-1.547692040041e+03,4.501383499737e+02,-5.757864616003e+03
    3022,4.189717120044e+02,-1.561965299992e+03,-7.504645688037e+02
    3023,1.661740603756e+01,1.618370531983e+03,-2.816036491998e+03
    3024,1.260087980624e+02,1.612709757999e+03,-2.644565662403e+03
    3025,-1.420486820028e+02,1.613221890037e+03,-2.695976755995e+03
    3026,-3.526907400725e+01,1.618243165993e+03,-2.519273115998e+03
    3027,-7.460405400625e+02,1.441547100103e+03,-2.890138073969e+03
    3028,-7.788729401361e+02,1.423420480046e+03,-2.697938525965e+03
    3029,-5.313105399246e+02,1.533176119890e+03,-2.998122204018e+03
    3030,-1.532581619861e+03,-5.071638080179e+02,-2.524586114000e+03
    3031,-1.482138859871e+03,-6.416037880077e+02,-2.465019707982e+03
    3032,1.572505818006e+03,-3.813184131964e+02,-1.870965088010e+02
    3033,1.187045882021e+03,-1.098658810796e+03,2.810614557599e+02
    3034,1.005615419203e+03,-1.266641406393e+03,2.836708130998e+02
    3035,-3.380624000800e+02,1.588670919792e+03,-3.877431190017e+03
    3036,-2.438103001100e+02,1.605180319710e+03,-4.062946805988e+03
    3037,-1.366595600934e+02,1.615493820120e+03,-3.849124455991e+03
    3038,-8.122685880143e+02,1.401277931999e+03,-1.479175506005e+03
    3039,-8.717136480037e+02,1.364798582028e+03,-1.255010496016e+03
    3040,-1.009465352039e+03,1.266803866013e+03,-1.389571477986e+03
    3041,-1.049882595998e+03,1.233045213994e+03,-1.139826209991e+03
    3042,-7.185019220619e+02,1.451766409992e+03,-1.669486579995e+03
    3043,-1.081806600103e+03,1.210716500226e+03,-3.264353140009e+03
    3044,-9.805893600698e+02,1.295564000228e+03,-3.396351768007e+03
    3045,-8.868198200727e+02,1.360816259861e+03,-3.157574957978e+03
    3046,-1.157465500010e+03,1.137719359914e+03,-3.489979460008e+03
    3047,1.609203190013e+03,-1.693788861960e+02,-2.623177731988e+02
    3048,-8.371116799515e+02,1.395533740063e+03,-3.831196294021e+03
    3049,-9.333920800098e+02,1.333702579771e+03,-4.079149635985e+03
    3050,-7.237488601964e+02,1.459039639816e+03,-4.049062349972e+03
    3051,-9.906949598761e+02,1.289902160042e+03,-3.898907543996e+03
    3052,9.869714476002e+02,1.281425263599e+03,6.859959964009e+02
    3053,-1.271684433959e+03,1.004838619902e+03,-2.912990012804e+03
    3054,-1.142364340063e+03,1.151756259977e+03,-2.837645995995e+03
    3055,-1.309774835992e+03,9.536010199703e+02,-2.749012979802e+03
    3056,-1.193963709996e+03,1.097126179967e+03,-2.659967943992e+03
    3057,-1.350630141000e+03,8.932661399416e+02,-2.964123324760e+03
    3058,-1.244719829946e+03,1.038806620036e+03,-3.095978149193e+03
    3059,-1.378777556007e+03,8.474045800566e+02,-3.158885835003e+03
    3060,-4.618464800663e+02,1.555555279904e+03,-3.144572302025e+03
    3061,-3.290397199597e+02,1.587630039962e+03,-3.025049964006e+03
    3062,-1.269640178026e+03,-1.001454953985e+03,-1.911728911999e+03
    3063,-1.373407881987e+03,-8.520961462400e+02,-1.753641041998e+03
    3064,-1.602228620102e+03,-1.959984179868e+02,-1.734298242016e+03
    3065,-1.585793159948e+03,-2.959643440165e+02,-3.680240501991e+03
    3066,-1.554893940085e+03,-4.323971819826e+02,-3.525330417987e+03
    3067,-1.219724505980e+03,1.068788799909e+03,-3.246868013996e+03
    3068,-1.104657239925e+03,1.188913939732e+03,-3.031493790017e+03
    3069,1.192779904059e+03,-1.091453804004e+03,-5.015270992004e+03
    3070,-8.107910900275e+02,1.404174159950e+03,-2.287204275996e+03
    3071,-8.117604699475e+02,1.403160959938e+03,-2.133229128012e+03
    3072,-8.058352599601e+02,1.407663279874e+03,-2.489800197994e+03
    3073,-1.586713188028e+03,3.092537859778e+02,-1.126742305995e+03
    3074,-1.537942338000e+03,5.008154779730e+02,-1.193565984794e+03
    3075,-1.609429439958e+03,1.458093399929e+02,-1.032463153988e+03
    3076,-1.206768144010e+03,1.083781100063e+03,-3.733907915997e+03
    3077,-1.311518375994e+03,9.497896798591e+02,-3.624289739198e+03
    3078,-1.029026999929e+03,1.258159860160e+03,-3.718229348014e+03
    3079,1.230480171934e+03,-1.046872953991e+03,-3.250864886600e+03
    3080,-7.017259399390e+02,1.464221520050e+03,-3.074366685994e+03
    3081,-1.030252439797e+03,1.242668486000e+03,-5.426806208203e+03
    3082,-1.201464900155e+03,1.073962226013e+03,-5.487036084804e+03
    3083,1.366204047807e+03,-8.660317567977e+02,-1.160947431300e+03
    3084,1.491591048002e+03,-6.276539055959e+02,-1.174218550801e+03
    3085,-9.338971599580e+02,1.328030719869e+03,-2.962204070004e+03
    3086,-9.754188998594e+02,1.296962319933e+03,-2.761048667990e+03
    3087,-3.349202139895e+02,1.585393900059e+03,-2.563858914000e+03
    3088,-2.337372419647e+02,1.603417739880e+03,-2.874778291988e+03
    3089,-1.608789859710e+03,1.107723460057e+02,-2.831798157989e+03
    3090,-1.612166600076e+03,-2.002745603451e+01,-3.030070129988e+03
    3091,-1.603333459893e+03,1.679696619828e+02,-3.153422345990e+03
    3092,6.530883139957e+02,-1.483575559934e+03,-5.178182313996e+03
    3093,4.502407720351e+02,-1.558049919855e+03,-5.371698353990e+03
    3094,8.649350479913e+02,-1.369558699939e+03,-5.199880452012e+03
    3095,4.306909987338e+01,1.616650241196e+03,-4.665070078402e+03
    3096,-4.567695981070e+01,1.618686906035e+03,-4.880696528009e+03
    3097,1.327876780122e+03,9.305071200113e+02,-5.610197324009e+03
    3098,-1.114633317972e+03,1.175240741994e+03,-1.324871884004e+03
    3099,-1.176606021974e+03,1.113520840010e+03,-1.509234869995e+03
    3100,-1.539397239924e+03,4.839216679821e+02,-3.203702680009e+03
    3101,-1.586714679926e+03,2.856577699918e+02,-3.257572023990e+03
    3102,-1.471516360002e+03,6.661314059656e+02,-3.351213178000e+03
    3103,-1.467517119978e+03,6.774400560538e+02,-3.001054105995e+03
    3104,1.308899679906e+03,9.564197200460e+02,-5.829972215983e+03
    3105,1.475541504007e+03,-6.639024475966e+02,-4.854308446022e+02
    3106,-1.346739419836e+02,1.612038278604e+03,-8.096318040043e+02
    3107,-3.144959099872e+02,1.587108576009e+03,-7.724890659925e+02
    3108,-1.565529991998e+03,4.034647480252e+02,-1.395508469994e+03
    3109,-1.603341299870e+03,1.834735999967e+02,-2.339197293999e+03
    3110,-1.607207719956e+03,1.502961839778e+02,-2.070719077987e+03
    3111,-1.613378700074e+03,2.873021796917e+01,-2.181239364012e+03
    3112,-1.580094060075e+03,3.340209360343e+02,-2.150208418005e+03
    3113,1.553652884360e+03,4.497547698005e+02,1.734485768006e+02
    3114,1.604124774400e+03,2.085195701999e+02,2.370301294597e+02
    3115,1.568024754008e+03,-3.984391265991e+02,2.067017474002e+02
    3116,7.631985979881e+02,-1.425291727972e+03,-6.136972648006e+02
    3117,9.408869919922e+02,-1.314641752025e+03,-8.337364427404e+02
    3118,-1.010742140140e+03,1.275589200240e+03,-4.461091725983e+03
    3119,-5.899862602815e+02,1.530872198956e+03,-5.124509256020e+03
    3120,-3.874949400446e+02,1.592512399410e+03,-5.072771517976e+03
    3121,-1.255048552010e+03,1.025487199867e+03,-2.491764835006e+03
    3122,-1.395922338000e+03,8.189636999364e+02,-2.855967435601e+03
    3123,-1.397899140000e+03,-8.081511985975e+02,-5.294051623994e+03
    3124,9.467282399403e+02,1.302343020204e+03,-4.654922451001e+03
    3125,6.828462400004e+02,-1.465648633985e+03,-3.710919459993e+02
    3126,-4.138453800770e+02,1.570596540220e+03,-3.660298528031e+03
    3127,-3.063546399504e+02,1.593284720058e+03,-3.497384948013e+03
    3128,-5.365898601201e+02,1.533061999947e+03,-3.427487435980e+03
    3129,-2.400907598574e+02,1.604453540009e+03,-3.693829251971e+03
    3130,-6.277736199120e+02,1.497831179948e+03,-3.249649238023e+03
    3131,-6.688701001244e+02,1.481367319870e+03,-3.499059032023e+03
    3132,-8.135855799492e+02,1.406901680075e+03,-3.383402925994e+03
    3133,3.160488659810e+02,1.585910156006e+03,-1.547830794840e+03
    3134,2.377502979994e+02,1.599717059998e+03,-1.690295278000e+03
    3135,-1.595594594028e+03,-2.525747720019e+02,-8.038327420132e+02
    3136,-1.501240881993e+03,6.037029679800e+02,-9.494850896013e+02
    3137,1.310627096001e+03,-9.478221959978e+02,-8.280143971599e+02
    3138,1.343231074596e+03,-9.013140296036e+02,-6.286657673000e+02
    3139,1.457718632008e+03,-7.021641638000e+02,-6.973720513996e+02
    3140,1.250902688798e+03,-1.024859534018e+03,-1.025414136740e+03
    3141,1.107765536002e+03,-1.177668009965e+03,-9.171900488560e+02
    3142,1.627433398688e+02,1.607274926002e+03,-4.225938333160e+03
    3143,1.467416199906e+02,1.607973259967e+03,-4.523075278199e+03
    3144,5.570529994018e+00,1.618959607967e+03,-4.383761373995e+03
    3145,-1.410288398071e+03,-7.887842412018e+02,-2.561230038006e+03
    3146,1.303601279984e+03,-9.565158719854e+02,-1.677721334399e+03
    3147,-1.265773272023e+03,-1.006415993998e+03,-2.498447540000e+03
    3148,1.471631206009e+03,-6.728107188460e+02,-1.694161311956e+03
    3149,1.605904969963e+03,2.078236659819e+02,-2.170892683020e+03
    3150,1.607535191931e+03,1.925242059882e+02,-1.872638116200e+03
    3151,1.526622105993e+03,5.346587559990e+02,-1.819543694400e+03
    3152,1.200292432011e+03,1.083083066015e+03,-1.902780787978e+02
    3153,1.340575100110e+03,9.103714399908e+02,-4.368818980804e+03
    3154,1.617731279988e+03,8.267430400384e+01,-2.305515825400e+03
    3155,1.607248499972e+03,1.990070659963e+02,-2.384763671100e+03
    3156,1.013346882005e+03,1.258601003967e+03,-1.290378279994e+03
    3157,-1.359905539883e+03,-8.708958655995e+02,-5.495021601984e+03
    3158,-1.320914639868e+03,-9.292582738000e+02,-5.658718616004e+03
    3159,-1.448451739871e+03,-7.119777500167e+02,-5.646353128017e+03
    3160,-1.220867799972e+03,-1.058408054018e+03,-5.517819677986e+03
    3161,1.615971557972e+03,-9.054872800697e+01,-8.572782760006e+02
    3162,1.399060760098e+03,8.191472359672e+02,-5.217009675992e+03
    3163,1.475490157965e+03,6.679113220290e+02,-5.270295554031e+03
    3164,-6.628893639968e+02,1.476560954024e+03,-6.966983180080e+02
    3165,-9.998195579753e+02,-1.272027009932e+03,-3.758595018998e+03
    3166,-8.379036580341e+02,-1.384787221930e+03,-3.706055727404e+03
    3167,-5.347051001126e+02,1.536367920223e+03,-3.931328006007e+03
    3168,8.255040039864e+02,1.389356033970e+03,-1.311470145994e+03
    3169,-5.638809799519e+02,1.527867480159e+03,-4.163152331973e+03
    3170,-1.444993579928e+03,-7.222621389988e+02,-3.487374949985e+03
    3171,-1.610068640284e+03,6.422546602097e+01,-5.658498863988e+03
    3172,1.528961536000e+03,5.274476816013e+02,3.588186226009e+02
    3173,1.581868129000e+03,3.377558155963e+02,2.663381201999e+02
    3174,8.448105601299e+02,1.372782479903e+03,-3.222219570007e+03
    3175,8.311438799286e+02,1.382157439959e+03,-2.946536503988e+03
    3176,6.221761599895e+02,1.488402539904e+03,-3.110167100017e+03
    3177,9.773980600186e+02,1.280261259948e+03,-3.754372410001e+03
    3178,8.447690999754e+02,1.371201420270e+03,-3.601852583996e+03
    3179,1.322187549972e+03,9.302245639907e+02,-5.155539230030e+02
    3180,6.951572400453e+02,1.454640440007e+03,-3.280732282004e+03
    3181,-1.608238260240e+03,-1.172791259747e+02,-4.348516481988e+03
    3182,8.525905200503e+02,1.367206699845e+03,-3.402228129986e+03
    3183,1.353046274061e+03,8.826969119895e+02,-2.337154889795e+03
    3184,1.432462460003e+03,7.506602679972e+02,3.179878413999e+02
    3185,-1.580391299721e+03,3.167317719860e+02,-5.314234016005e+03
    3186,-1.559836300009e+03,4.060253359987e+02,-5.197933171999e+03
    3187,-8.938171279987e+02,1.352436560110e+03,-2.101548688009e+03
    3188,-8.957924339527e+02,1.350442619934e+03,-1.846226600004e+03
    3189,-1.076970305971e+03,1.211367539982e+03,-1.990311054009e+03
    3190,-1.150109633972e+03,1.141528919888e+03,-1.799406365991e+03
    3191,-1.212994965946e+03,1.074718399973e+03,-2.073722994005e+03
    3192,-1.015176263992e+03,1.262701159977e+03,-1.598929424012e+03
    3193,1.325938600012e+03,-9.231069365970e+02,-5.057392578998e+03
    3194,2.202450800285e+02,1.607172839759e+03,-7.166743644038e+03
    3195,-3.388275000171e+02,1.591241339879e+03,-4.358427405965e+03
    3196,-1.264760400251e+02,1.617668639995e+03,-4.537535682013e+03
    3197,-1.253516149964e+03,-1.021612304009e+03,-1.313824425197e+03
    3198,-1.330567766008e+03,-9.181869544019e+02,-1.020095058998e+03
    3199,1.143490586007e+03,-1.145218723990e+03,-5.758771483985e+03
    3200,4.792711659976e+02,-1.544420651986e+03,-4.830323417979e+02
    3201,2.316775820141e+02,-1.605311119999e+03,-5.507039791994e+03
    3202,6.521784579995e+02,1.479860456800e+03,-6.111078557962e+02
    3203,-1.269173386061e+03,-1.001679762005e+03,-3.419438988009e+03
    3204,-1.303391819998e+03,9.618611799966e+02,-3.416006005801e+03
    3205,-1.427494919968e+03,7.576135799423e+02,-3.520369986002e+03
    3206,-1.515343059937e+03,5.542589460058e+02,-3.472155820015e+03
    3207,-1.578804539969e+03,3.366615720291e+02,-2.491824210001e+03
    3208,-1.543292000040e+03,4.781169759878e+02,-2.360185356010e+03
    3209,-1.429876645592e+03,7.577914399681e+02,-2.357715262603e+03
    3210,-1.162665595938e+03,1.130080180055e+03,-2.426894897990e+03
    3211,-1.303399247993e+03,9.622488400418e+02,-2.307961919999e+03
    3212,-1.597226873996e+03,2.571579199908e+02,-1.558599360063e+02
    3213,-1.599911504597e+03,2.375583240103e+02,-3.398766399937e+02
    3214,-1.948823999017e+02,1.614044479906e+03,-4.970951228006e+03
    3215,1.397673647979e+03,8.110364440270e+02,-2.159717655198e+03
    3216,1.292655122037e+03,9.684502600603e+02,-2.089174495998e+03
    3217,-1.269960394045e+03,1.003179760074e+03,-4.297689597404e+03
    3218,-8.992237997713e+02,1.358542459612e+03,-4.258694214001e+03
    3219,-1.455417940044e+03,6.962877360318e+02,-4.003809382016e+03
    3220,-1.392227839961e+03,8.216194200015e+02,-3.702955651995e+03
    3221,-1.515572939989e+03,-5.566776359931e+02,-3.365793315994e+03
    3222,-1.584681399906e+03,-3.030094599682e+02,-2.605131188012e+03
    3223,-1.558811520088e+03,-4.176910259895e+02,-2.801504841987e+03
    3224,-1.498537019921e+03,-6.016724859942e+02,-2.707363262000e+03
    3225,1.324431469970e+03,9.259037280330e+02,-1.353798421803e+03
    3226,1.220024513979e+03,1.059502705966e+03,-1.238926581997e+03
    3227,1.100579106800e+03,-1.185181692398e+03,3.510450518201e+02
    3228,-6.010271740052e+02,-1.503236560029e+03,-5.136464230000e+03
    3229,-4.886999720238e+02,-1.543926720063e+03,-5.008757980800e+03
    3230,-1.371750400143e+03,8.518433700351e+02,-4.284954912007e+03
    3231,1.454331963982e+03,7.058997560091e+02,-2.000304613401e+03
    3232,-6.553668519942e+02,-1.480313768071e+03,-4.620590916401e+03
    3233,8.950522699853e+02,1.345204862020e+03,-1.456347665994e+03
    3234,6.998929599880e+02,1.456732636035e+03,-1.474030847604e+03
    3235,1.473827813804e+03,6.660424863969e+02,5.739881065988e+02
    3236,1.524566313800e+03,5.400325901965e+02,5.179007917989e+02
    3237,-1.038237816069e+03,-1.239880425969e+03,-4.862809804001e+03
    3238,-8.757840900282e+02,1.361838037989e+03,-1.037285151984e+03
    3239,4.857271800045e+02,1.541813442019e+03,-1.665799280796e+03
    3240,-4.514288599964e+02,1.556487220140e+03,-2.417570188006e+03
    3241,-2.043799539281e+02,1.606466353955e+03,-2.387349953990e+03
    3242,1.594413685934e+03,-2.801857279926e+02,-1.235356585800e+03
    3243,8.762845119897e+02,-1.362690340111e+03,-5.434603355985e+03
    3244,1.053533286000e+03,-1.228430651941e+03,-5.197069429982e+03
    3245,1.234801281931e+03,-1.044271898008e+03,-5.618961603996e+03
    3246,1.049603085793e+03,-1.232802360067e+03,-5.649915135989e+03
    3247,1.536271096013e+03,5.065103620135e+02,-1.647220657799e+03
    3248,1.533379289203e+03,5.148441959914e+02,-1.428320295201e+03
    3249,1.582278884014e+03,3.393212740142e+02,-1.558418601900e+03
    3250,-1.145385542014e+03,-1.141086158036e+03,-4.592776199996e+03
    3251,-1.262607860032e+03,-1.008884399990e+03,-4.488191129999e+03
    3252,-1.182003999974e+03,-1.103070607994e+03,-4.311577818005e+03
    3253,-1.474892390004e+03,6.661101640154e+02,-5.758517926005e+02
    3254,-1.852051660307e+02,1.607948214011e+03,-1.712850793990e+03
    3255,3.553126380058e+02,1.577353136017e+03,-1.752794488199e+03
    3256,-2.410163363994e+02,-1.601543740040e+03,-2.819482316007e+03
    3257,9.865101198787e+02,1.276391199929e+03,-2.812002907988e+03
    3258,5.341558740454e+02,1.525303269986e+03,-1.886173162597e+03
    3259,-9.899188004765e+01,1.616742799931e+03,-3.212082026004e+03
    3260,-9.162168403416e+01,1.616840724068e+03,-2.983448308000e+03
    3261,1.410266179995e+03,-7.893464500148e+02,-6.571082962001e+03
    3262,-1.544253679871e+03,-4.648546599944e+02,-5.838413010004e+03
    3263,1.537454979982e+03,-4.939954580459e+02,-3.070427851194e+03
    3264,1.495800589956e+03,-6.096420799339e+02,-3.014649827999e+03
    3265,1.615836937998e+03,-1.086121639857e+02,-1.872511687402e+03
    3266,1.799672597713e+02,1.601548699828e+03,-4.928249123520e+03
    3267,-1.264234739995e+03,1.009105140077e+03,-4.477558745199e+03
    3268,-1.682970007700e+01,1.619424165934e+03,-4.154876232004e+03
    3269,-5.534223339900e+02,-1.521695939950e+03,-4.861871513592e+03
    3270,-7.336872680546e+02,-1.442600312056e+03,-4.952434291203e+03
    3271,-8.892550179672e+02,-1.351383256057e+03,-5.084703743799e+03
    3272,1.294139256037e+03,-9.689367299758e+02,-5.741564545992e+03
    3273,1.609741900166e+03,-9.489026797402e+01,-6.820164801975e+03
    3274,1.371428219952e+03,-8.543662420094e+02,-5.742660579404e+03
    3275,1.366753619987e+03,-8.622974520139e+02,-5.938665222992e+03
    3276,1.491658660029e+03,6.317403020683e+02,-5.148139508002e+03
    3277,1.538482207985e+03,5.013894779789e+02,-5.286096279977e+03
    3278,1.536304814055e+03,5.109017079736e+02,-5.111085334020e+03
    3279,1.594137241977e+03,2.680563860150e+02,-5.288643081976e+03
    3280,1.584479982202e+03,3.263927919830e+02,-5.040466823994e+03
    3281,1.615297088004e+03,2.750342601414e+01,-5.147504672030e+03
    3282,-1.368552759938e+03,8.586424600041e+02,-4.134838034005e+03
    3283,1.277829898016e+03,9.893793279806e+02,-1.109632941992e+03
    3284,1.546885027976e+03,-4.764433279917e+02,-1.204991455002e+03
    3285,1.559693346011e+03,4.294788160181e+02,-1.246372190801e+03
    3286,1.472276151991e+03,6.683431900344e+02,-1.312311114196e+03
    3287,-1.558219639877e+03,4.145364959810e+02,-3.456148529995e+03
    3288,1.466099440142e+03,-6.761259139922e+02,-4.751120669400e+03
    3289,1.521323239987e+03,-5.402235499853e+02,-4.742077312005e+03
    3290,1.521038639961e+03,-5.409729420232e+02,-4.923194753997e+03
    3291,1.560549872018e+03,4.269296920095e+02,-2.697397382202e+03
    3292,4.908041552002e+02,1.541501563999e+03,-5.076413459998e+02
    3293,-4.985838399632e+02,1.549929599604e+03,-6.292209279994e+03
    3294,7.036776539807e+02,1.454626984007e+03,-1.666117726007e+03
    3295,1.561391699984e+03,4.387915620586e+02,-4.140443500011e+03
    3296,1.201036958840e+03,-1.083302451996e+03,1.645550658014e+01
    3297,-6.717150401443e+02,1.481206879992e+03,-3.696983570021e+03
    3298,3.655517619839e+02,1.575226759994e+03,-1.052823875080e+03
    3299,1.586735699962e+03,-3.246934459985e+02,-2.199215484801e+03
    3300,-1.404004119926e+03,7.930876280362e+02,-5.763635376000e+03
    3301,9.098032659984e+02,1.336937095997e+03,6.062903580425e+01
    3302,1.134720084014e+03,1.151958595985e+03,1.234635037996e+02
    3303,1.539024480031e+03,5.116856600564e+02,-4.342725702006e+03
    3304,1.605015795999e+03,2.036827220052e+02,-4.707925554031e+03
    3305,1.182195740008e+03,1.098443900062e+03,-3.081952030004e+03
    3306,1.092590920041e+03,1.187259620102e+03,-2.851128673989e+03
    3307,1.039400540025e+03,1.233187820131e+03,-3.032478206006e+03
    3308,1.226256570039e+03,1.050056419971e+03,-2.896075896005e+03
    3309,-5.373165599916e+02,1.526585021968e+03,-8.057578759995e+02
    3310,1.299642552000e+03,9.621784240081e+02,1.852316047996e+02
    3311,1.597776226059e+03,-2.388156079814e+02,-4.340375971997e+03
    3312,1.613470060097e+03,5.104629480039e+01,-5.883044535989e+03
    3313,1.259959998037e+03,1.010811154070e+03,-1.798578209996e+03
    3314,-7.292513959957e+02,-1.445450212055e+03,-3.303816012600e+03
    3315,1.576553786065e+03,3.566289780131e+02,-5.521406993977e+03
    3316,1.600009804057e+03,2.239798140084e+02,-5.566944155983e+03
    3317,1.611622540013e+03,1.089623860082e+02,-5.468043777980e+03
    3318,-4.243870840010e+02,1.561617717964e+03,-9.310821959973e+02
    3319,1.611059799892e+03,7.716370599117e+01,-6.737357910027e+03
    3320,1.235820655966e+03,1.039362220070e+03,-2.288366594009e+03
    3321,1.088228280056e+03,1.192475960046e+03,-2.256058922005e+03
    3322,8.923189940330e+02,-1.353846780107e+03,-6.263194543987e+03
    3323,-1.610406919932e+03,-3.462113999267e+01,-6.541678968008e+03
    3324,-4.126851399136e+02,1.574743619523e+03,-6.509636415995e+03
    3325,-1.602823040142e+03,-1.773190340023e+02,-3.861541885987e+03
    3326,-1.576744160126e+03,3.437641159687e+02,-2.733716368017e+03
    3327,-1.577746099936e+03,3.365860280193e+02,-2.938019300013e+03
    3328,-4.013385989373e+01,1.619106600054e+03,-3.674905567990e+03
    3329,-1.719720199238e+02,1.611895419876e+03,-3.516606905984e+03
    3330,1.006943019979e+03,1.258950800098e+03,-3.227711955998e+03
    3331,2.411139033930e+02,-1.599387046640e+03,-4.168806129992e+02
    3332,-6.089285919847e+02,1.499680149975e+03,-9.311881460030e+02
    3333,1.592504713970e+03,2.892115239907e+02,-1.704687226280e+03
    3334,1.128961250038e+03,1.154545748057e+03,-1.995071039993e+03
    3335,-6.836926919962e+02,-1.467713991998e+03,-2.897948804406e+03
    3336,1.605586559964e+03,-1.776640340277e+02,-4.621846089994e+03
    3337,1.576662380113e+03,-3.480041960294e+02,-4.767935015985e+03
    3338,-1.529506860075e+03,-5.079709679780e+02,-7.183007653991e+03
    3339,-3.317707220355e+02,-1.585682560097e+03,-4.823768819399e+03
    3340,1.444244439889e+03,-7.213639199652e+02,-4.370794351202e+03
    3341,8.931463060174e+02,1.347673977994e+03,-6.016890972051e+02
    3342,-1.309852499944e+03,-9.452620498042e+02,-5.391358000014e+03
    3343,1.389707946070e+03,8.257117920020e+02,-6.741739599998e+03
    3344,-1.610475280052e+03,-7.482984198220e+01,-4.105843972001e+03
    3345,1.598389000097e+03,-2.177079787944e+02,-6.280109138001e+03
    3346,5.438299199862e+02,1.519830800133e+03,-2.937433007999e+03
    3347,1.463746140018e+03,-6.818478043994e+02,-5.745761717999e+03
    3348,1.578077976017e+03,-3.624246460069e+02,-1.794576820002e+03
    3349,-1.503958199897e+03,5.841112659677e+02,-3.609948233992e+03
    3350,-9.996836600472e+02,1.276601759909e+03,-2.227881110007e+03
    3351,-1.177044882049e+03,1.114633219918e+03,-2.269555860006e+03
    3352,1.256773416045e+03,-1.017915079938e+03,-5.873609654003e+03
    3353,-1.364841239985e+03,8.585413599789e+02,-5.347047393200e+03
    3354,1.525914716020e+03,-5.400663386045e+02,-1.889652163000e+03
    3355,1.447571835985e+03,7.193858919358e+02,-2.395832081404e+03
    3356,1.406522280085e+03,-7.930898700191e+02,-4.620027969580e+03
    3357,-1.462826619792e+03,6.775701780267e+02,-4.280392148004e+03
    3358,-7.538257346035e+02,-1.432821420032e+03,-2.185984420360e+03
    3359,-4.032744739290e+02,1.569056959997e+03,-2.236821513994e+03
    3360,-1.526657564001e+03,5.324679200298e+02,-1.896685013995e+03
    3361,-3.458451400024e+02,1.584959440112e+03,-3.301257757988e+03
    3362,1.203347925984e+03,-1.079456783981e+03,-1.517398141580e+03
    3363,-2.067533999867e+02,1.607387220028e+03,-3.130029051995e+03
    3364,-1.124262600272e+01,1.617474594521e+03,-8.740790319994e+02
    3365,1.616373661981e+03,1.012071402809e+01,-4.677363820005e+03
    3366,-1.332568057966e+03,9.203246599490e+02,-1.596790774998e+03
    3367,-1.607661519873e+03,-1.404608239826e+02,-1.987792228007e+03
    3368,1.571572919997e+03,-3.696209719824e+02,-4.961179809998e+03
    3369,1.619273278054e+03,1.718036010872e+00,-1.739896426401e+03
    3370,2.316716899665e+02,-1.605137940136e+03,-5.338523100008e+03
    3371,-1.515740779859e+03,5.586273420099e+02,-2.822351570002e+03
    3372,1.509219439906e+03,5.940203800395e+02,-4.538711132014e+03
    3373,-1.037110660043e+03,1.247183380031e+03,-2.517524985982e+03
    3374,1.557524066052e+03,4.316090040010e+02,-5.859615939995e+03
    3375,-1.186581581971e+03,-1.099079841980e+03,-3.212291626000e+03
    3376,1.526330514597e+03,5.357210840332e+02,-5.483762367993e+03
    3377,-1.611354079995e+03,9.802220202721e+01,-1.911538435993e+03
    3378,-1.607081260036e+03,1.196000119911e+02,-5.460060195991e+03
    3379,-1.531940720020e+03,-5.089889320095e+02,-2.939375439992e+03
    3380,-4.291399201224e+02,1.569101860022e+03,-4.122706855969e+03
    3381,-1.366412999967e+02,1.616407679940e+03,-4.234034458015e+03
    3382,-1.611076940288e+03,-1.740107403148e+01,-6.097502678015e+03
    3383,1.613381860144e+03,-6.832834998875e+01,-5.349330445994e+03
    3384,-8.685167600470e+02,1.374742919968e+03,-3.590182100034e+03
    3385,-1.597086040058e+03,-2.254014060271e+02,-2.908978251984e+03
    3386,1.344049690007e+03,8.966757760255e+02,-2.946135980797e+03
    3387,-6.049800019597e+02,1.504221359919e+03,-2.450577633983e+03
    3388,1.578639860094e+03,3.725422340085e+02,-3.935310316015e+03
    3389,1.566425241992e+03,3.980558500011e+02,-5.714207563982e+03
    3390,-9.102120599561e+02,1.347948219835e+03,-3.711589581984e+03
    3391,-6.057809640413e+02,-1.501028650024e+03,-5.975215512802e+03
    3392,1.542229378007e+03,4.891163519837e+02,-2.885307507201e+03
    3393,-1.238873271953e+03,1.043878060059e+03,-1.673308639994e+03
    3394,-1.013773160094e+03,1.270041179946e+03,-3.539087099988e+03
    3395,1.414917702009e+03,7.815020159664e+02,-1.468684252994e+03
    3396,1.613562692007e+03,-1.153871080106e+02,-3.810645261986e+03
    3397,1.138975922010e+03,-1.147186919972e+03,-1.288960504286e+03
    3398,1.115025564010e+03,-1.170553236023e+03,-1.160209105100e+03
    3399,1.024459625995e+03,-1.250378602001e+03,-1.187265301300e+03
    3400,1.050063595991e+03,-1.228859526030e+03,-1.316015285460e+03
    3401,1.595261699932e+03,2.343716480212e+02,-7.188590721968e+03
    3402,1.582212140006e+03,3.131268019889e+02,-7.104835297977e+03
    3403,1.598807399990e+03,2.124239399682e+02,-7.004591772014e+03
    3404,1.606942020150e+03,1.329989080132e+02,-7.088333760003e+03
    3405,-8.154532019958e+02,1.397130147198e+03,6.823379127979e+02
    3406,-6.990946965966e+02,1.458781473200e+03,5.965420071992e+02
    3407,-7.793495994040e+02,1.417657891404e+03,4.971411008035e+02
    3408,-8.920825635991e+02,1.349594926004e+03,5.829328839993e+02
    3409,-3.034597979982e+02,-1.591352539925e+03,-4.402460610396e+03
    3410,-4.533332920340e+02,-1.554872999962e+03,-4.522649882000e+03
    3411,-3.362896179851e+02,-1.584687559969e+03,-4.633459464203e+03
    3412,-1.841070259912e+02,-1.609855540106e+03,-4.513261992799e+03
    3413,1.597809000023e+03,2.817435300232e+02,-3.644101038012e+03
    3414,1.571229120165e+03,4.056120140047e+02,-3.708121305995e+03
    3415,1.554959819951e+03,4.645960359493e+02,-3.591622487983e+03
    3416,1.586684319838e+03,3.419315219444e+02,-3.527622128003e+03
    3417,7.874082540095e+02,-1.411720477988e+03,-1.807972934204e+03
    3418,7.628040300107e+02,-1.425217735974e+03,-1.620367361000e+03
    3419,5.835843799851e+02,-1.508068360007e+03,-1.646322256202e+03
    3420,6.096824479993e+02,-1.497734020006e+03,-1.833915856394e+03
    3421,-1.548184740172e+03,4.410538380145e+02,-6.472379064391e+03
    3422,-1.493003019956e+03,6.027088800204e+02,-6.477892890600e+03
    3423,-1.501523239802e+03,5.808463719657e+02,-6.632495056401e+03
    3424,-1.554244399881e+03,4.183669679901e+02,-6.626993428995e+03
    3425,-1.551227099816e+03,4.349339899982e+02,-4.752864120008e+03
    3426,-1.584468900010e+03,2.924234139936e+02,-4.644047019982e+03
    3427,-1.561822199792e+03,3.945625840065e+02,-4.528273357992e+03
    3428,-1.519522119814e+03,5.346433680138e+02,-4.637096900006e+03
    3429,1.423797199930e+03,-7.602507400036e+02,-3.449150131201e+03
    3430,1.458733140044e+03,-6.904468320453e+02,-3.328740958600e+03
    3431,1.402608180117e+03,-7.993755320669e+02,-3.269403495200e+03
    3432,1.362460039892e+03,-8.663456960230e+02,-3.389807166200e+03
    3433,1.614903607000e+03,9.384137980033e+01,4.391225960592e+02
    3434,1.604705006998e+03,2.034952023985e+02,5.440144489600e+02
    3435,1.614408004796e+03,1.010964006022e+02,6.518483862997e+02
    3436,1.617617131201e+03,-8.982286801123e+00,5.469549327991e+02
    3437,-5.125252080677e+02,-1.535896380047e+03,-6.122316994600e+03
    3438,-5.933822720368e+02,-1.505992780024e+03,-6.293435757200e+03
    3439,-4.782659760458e+02,-1.547112500062e+03,-6.377022376000e+03
    3440,-3.953808100229e+02,-1.570822300074e+03,-6.205895104599e+03
    3441,-1.277795163997e+03,-9.909423923966e+02,-1.033704145987e+02
    3442,-1.203899936002e+03,-1.079935724602e+03,-1.107441205958e+02
    3443,-1.198328028005e+03,-1.086145941399e+03,-5.442977398644e+00
    3444,-1.272696257991e+03,-9.975499847975e+02,1.931079396548e+00
    3445,-1.393003821998e+03,-8.203441140091e+02,1.354385449973e+02
    3446,-1.421167513973e+03,-7.701086699930e+02,5.363306592548e+00
    3447,-1.357687548022e+03,-8.776699140032e+02,-6.516327919839e+01
    3448,-1.325725215990e+03,-9.255680280001e+02,6.491187359693e+01
    3449,-1.601584239757e+03,1.769374020179e+02,-4.340860595983e+03
    3450,-1.586507919891e+03,2.802873100176e+02,-4.437729360009e+03
    3451,-1.601265899742e+03,1.811292019798e+02,-4.538186304001e+03
    3452,-1.609934539918e+03,7.703498599470e+01,-4.441318452016e+03
    3453,5.593522265996e+02,1.518540597991e+03,-2.953635010007e+02
    3454,4.669554620123e+02,1.550153679932e+03,-2.023080278008e+02
    3455,5.599147673915e+02,1.518487341968e+03,-1.084363835994e+02
    3456,6.502985287400e+02,1.481498379989e+03,-2.014916748040e+02
    3457,-4.875322953985e+02,-1.542498809194e+03,7.595972007982e+02
    3458,-7.226396863994e+02,-1.447321751406e+03,7.523329233990e+02
    3459,-5.948377243988e+02,-1.504452384001e+03,6.444013618002e+02
    3460,-9.966950401302e+01,-1.618343579961e+03,-6.296300827992e+03
    3461,-2.882730019373e+02,-1.594576220079e+03,-6.280432066203e+03
    3462,-3.000608660418e+02,-1.592371239908e+03,-6.435015833203e+03
    3463,-1.116431960370e+02,-1.617562120050e+03,-6.450884864002e+03
    3464,-1.541144359919e+03,4.648488680515e+02,-7.073367435000e+03
    3465,-1.521012019769e+03,5.275544200099e+02,-6.929177346780e+03
    3466,-1.461159899741e+03,6.794788240582e+02,-6.986029485001e+03
    3467,-1.487385740016e+03,6.190309020489e+02,-7.130212846400e+03
    3468,-1.203910458002e+03,-1.079914360197e+03,-2.612818062004e+02
    3469,-1.297625706019e+03,-9.646345816022e+02,-2.347386818027e+02
    3470,-1.314089297977e+03,-9.419100023972e+02,-3.758859867977e+02
    3471,-1.222401175999e+03,-1.058817525204e+03,-4.024267455983e+02
    3472,1.554607150008e+03,4.489818799754e+02,-2.154559327199e+03
    3473,1.513057042008e+03,5.715831499777e+02,-2.242586794802e+03
    3474,1.489260726004e+03,6.300280600012e+02,-2.149011494801e+03
    3475,1.535554737985e+03,5.091386960231e+02,-2.060982798198e+03
    3476,1.367760535202e+03,-8.636443996003e+02,6.077160243603e+02
    3477,1.440877335003e+03,-7.352303985980e+02,7.213140559991e+02
    3478,1.296320623001e+03,-9.674930058601e+02,7.539155325601e+02
    3479,-3.283513398987e+02,1.594904599740e+03,-4.654934482015e+03
    3480,-2.750109602900e+02,1.603685160102e+03,-4.802289069973e+03
    3481,-4.008456798924e+02,1.580683499460e+03,-4.845965391938e+03
    3482,-4.533351400223e+02,1.567242160193e+03,-4.698729767997e+03
    3483,-7.003423820001e+02,-1.459697922009e+03,-1.639705202202e+03
    3484,-8.256837250014e+02,-1.392393571957e+03,-1.608653006060e+03
    3485,-8.543284022035e+02,-1.374968426040e+03,-1.739188219900e+03
    3486,-7.304182374014e+02,-1.444866220023e+03,-1.770239055600e+03
    3487,-1.057519860096e+03,1.234945400234e+03,-4.207240745991e+03
    3488,-1.100289379945e+03,1.195293380108e+03,-4.295876614001e+03
    3489,-1.162366883965e+03,1.132184500221e+03,-4.240185391599e+03
    3490,-1.121944660060e+03,1.174247980222e+03,-4.151568292000e+03
    3491,9.843466365942e+02,1.283214490798e+03,3.032343601988e+02
    3492,8.553103398014e+02,1.372806368160e+03,3.864517517978e+02
    3493,9.336170164019e+02,1.320779981000e+03,4.911390462013e+02
    3494,1.057254546798e+03,1.223866202197e+03,4.079275264001e+02
    3495,-1.198165035975e+03,1.088714884022e+03,-7.758202839941e+02
    3496,-1.219130996025e+03,1.064794986029e+03,-5.982652657945e+02
    3497,-1.098645503966e+03,1.188613663964e+03,-5.615987560058e+02
    3498,-1.075278316029e+03,1.210158569999e+03,-7.391494120036e+02
    3499,4.668725801312e+02,1.548633718014e+03,-6.944909428018e+03
    3500,3.005534600720e+02,1.591721139870e+03,-6.956446146025e+03
    3501,2.732987399781e+02,1.596136599933e+03,-6.809483539999e+03
    3502,4.402977200707e+02,1.555772686009e+03,-6.797932654029e+03
    3503,1.130554225984e+03,-1.155294737596e+03,-4.082936259996e+03
    3504,9.860505499836e+02,-1.282249560014e+03,-4.034520230004e+03
    3505,9.492982640021e+02,-1.310170328027e+03,-4.182878985987e+03
    3506,1.097369936002e+03,-1.187376222002e+03,-4.231288900009e+03
    3507,1.151698600636e+02,1.613567831982e+03,-3.038435483402e+03
    3508,2.587330799997e+02,1.595580406036e+03,-2.984534273100e+03
    3509,2.909305999870e+02,1.589567058024e+03,-3.115855360798e+03
    3510,1.477730199815e+02,1.610555530401e+03,-3.169754061802e+03
    3511,-1.275302979856e+03,-9.907402136202e+02,-6.119500672011e+03
    3512,-1.197659760069e+03,-1.084162332004e+03,-6.019798640004e+03
    3513,-1.271882039946e+03,-9.955032603974e+02,-5.901515092003e+03
    3514,-1.342646460038e+03,-8.967574959967e+02,-6.001208557988e+03
    3515,-1.566168539877e+03,-3.887330279819e+02,-4.062916323994e+03
    3516,-1.530500880050e+03,-5.130491639907e+02,-4.189592383994e+03
    3517,-1.487186620133e+03,-6.290669853992e+02,-4.101681680005e+03
    3518,-1.532302700079e+03,-5.078544439975e+02,-3.975000638015e+03
    3519,-1.979060248041e+02,-1.607141638053e+03,-2.212738021992e+03
    3520,-3.088188612082e+02,-1.589560635939e+03,-2.104506029399e+03
    3521,-3.654691367982e+02,-1.577550890036e+03,-2.208910953197e+03
    3522,-2.552584696041e+02,-1.599105193987e+03,-2.317140827204e+03
    3523,-1.460081800127e+03,-6.904752482010e+02,-3.962987280012e+03
    3524,-1.431218559949e+03,-7.487486780005e+02,-4.151591723985e+03
    3525,-1.399194180063e+03,-8.077316615948e+02,-4.012893805993e+03
    3526,3.031225900465e+02,-1.594656580118e+03,-6.831338403986e+03
    3527,4.824652440553e+02,-1.550043819812e+03,-6.762952813996e+03
    3528,4.486003199807e+02,-1.560066679958e+03,-6.651780589994e+03
    3529,2.683173760445e+02,-1.600715020251e+03,-6.720169453982e+03
    3530,5.961708159413e+02,-1.510116880197e+03,-6.952368514007e+03
    3531,6.298293739277e+02,-1.496161559886e+03,-6.793869270012e+03
    3532,4.476045780412e+02,-1.560586099986e+03,-6.921455114002e+03
    3533,6.254233639339e+02,1.489106938028e+03,-2.313411405993e+03
    3534,7.089892460650e+02,1.450951767976e+03,-2.252573879992e+03
    3535,7.509331999811e+02,1.429328220062e+03,-2.342098148003e+03
    3536,6.685053400611e+02,1.469871839961e+03,-2.402941149999e+03
    3537,-1.387219957982e+03,8.348779000701e+02,-2.114447108180e+03
    3538,-1.441950746580e+03,7.346627620510e+02,-2.014345208603e+03
    3539,-1.403306016000e+03,8.071932219990e+02,-1.920410825840e+03
    3540,-1.343509804016e+03,9.044603800312e+02,-2.020500972195e+03
    3541,-9.669103219950e+02,1.297134466001e+03,4.703145387995e+02
    3542,-8.567776380046e+02,1.372348536005e+03,4.202185791997e+02
    3543,-9.048430120024e+02,1.341240762014e+03,2.932425439967e+02
    3544,-1.012227505999e+03,1.262146188016e+03,3.433356860001e+02
    3545,1.039597129992e+03,-1.239062063966e+03,-4.378550234002e+03
    3546,9.098224900137e+02,-1.338406637929e+03,-4.336018146004e+03
    3547,8.716964618046e+02,-1.364047917961e+03,-4.481921132010e+03
    3548,1.004247878031e+03,-1.268440285986e+03,-4.524446764015e+03
    3549,-1.458009855939e+03,-6.972175180101e+02,-3.122426580013e+02
    3550,-1.390432571990e+03,-8.243507880166e+02,-3.488182134072e+02
    3551,-1.375188608016e+03,-8.497516520070e+02,-1.965325594057e+02
    3552,-1.445067148007e+03,-7.238703760003e+02,-1.599546016058e+02
    3553,1.597184806000e+03,2.569772017987e+02,-2.526491302602e+02
    3554,1.558355788001e+03,4.333443760050e+02,-2.192257461989e+02
    3555,1.572290385398e+03,3.799249024053e+02,-8.662720893994e+01
    3556,1.605036931999e+03,2.023289531999e+02,-1.200549133599e+02
    3557,1.337831779952e+03,9.170837600358e+02,-5.038111604017e+03
    3558,1.225675580078e+03,1.061202326054e+03,-5.065612313803e+03
    3559,1.214982079919e+03,1.071515696026e+03,-4.909449298998e+03
    3560,1.329267460133e+03,9.290938220404e+02,-4.881926336000e+03
    3561,-8.110146600464e+02,1.411168859713e+03,-7.065683472608e+03
    3562,-9.304586480452e+02,1.333566240245e+03,-7.139124000001e+03
    3563,-9.700673179418e+02,1.304710259734e+03,-7.045424093403e+03
    3564,-8.531759999512e+02,1.386145379656e+03,-6.972005432991e+03
    3565,1.615088249987e+03,9.561676699717e+01,-2.795364423990e+02
    3566,1.611135125992e+03,1.482454244062e+02,-4.198142194002e+02
    3567,1.587925510000e+03,3.089307980075e+02,-3.929305256600e+02
    3568,2.187320199409e+02,1.603444089994e+03,-6.360728932023e+03
    3569,2.578046399066e+02,1.596472721200e+03,-6.220724751967e+03
    3570,4.076630198842e+02,1.563405509998e+03,-6.289119437986e+03
    3571,3.691759200183e+02,1.573643147999e+03,-6.429247797979e+03
    3572,-7.428096001310e+02,1.460704401013e+03,-5.384116176000e+03
    3573,-8.560866906018e+02,1.382308140409e+03,-5.347509421997e+03
    3574,-8.255015200452e+02,1.405496619759e+03,-5.202625619996e+03
    3575,-7.087271001671e+02,1.477676399930e+03,-5.239144486012e+03
    3576,-6.325600800150e+02,-1.489668940023e+03,-6.549847399802e+03
    3577,-5.817464399997e+02,-1.510569300050e+03,-6.732629894919e+03
    3578,-4.482507639846e+02,-1.556307000025e+03,-6.695336647800e+03
    3579,-5.006819119302e+02,-1.539871939938e+03,-6.512553560200e+03
    3580,-1.593114000265e+02,1.615115840217e+03,-6.398475651972e+03
    3581,-2.554182001162e+02,1.603468620127e+03,-6.301811190035e+03
    3582,-1.821972599305e+02,1.612141079930e+03,-6.218855305985e+03
    3583,-8.551983985522e+01,1.618816240077e+03,-6.315754100032e+03
    3584,-1.336543581988e+03,-9.103607522003e+02,6.181960432042e+02
    3585,-1.382896586001e+03,-8.379802060073e+02,4.935031352031e+02
    3586,-1.304984385984e+03,-9.549189344038e+02,3.793289404006e+02
    3587,-1.252520768006e+03,-1.022998752797e+03,5.040200876002e+02
    3588,-1.007742356001e+03,-1.265224650000e+03,-4.504417399996e+03
    3589,-8.889302959723e+02,-1.351963806015e+03,-4.509768877395e+03
    3590,-8.834953339866e+02,-1.355640642005e+03,-4.363239416795e+03
    3591,-1.002654591936e+03,-1.269382080000e+03,-4.357887683992e+03
    3592,1.265294689798e+03,-1.007696766220e+03,5.416669201802e+02
    3593,1.311795253202e+03,-9.464498238000e+02,3.907345445199e+02
    3594,1.407301689004e+03,-7.976942524014e+02,4.567851681990e+02
    3595,3.111470915990e+02,-1.587141957598e+03,2.195084032016e+02
    3596,1.052915177963e+02,-1.614108905199e+03,1.806300384011e+02
    3597,1.289463702028e+02,-1.612388041402e+03,4.110963279977e+01
    3598,3.343794446018e+02,-1.582371831795e+03,7.998639860055e+01
    3599,-1.526614939943e+03,5.135098720109e+02,-6.129172323805e+03
    3600,-1.565422160277e+03,3.785446400010e+02,-6.167762119993e+03
    3601,-1.567463300194e+03,3.716889919686e+02,-6.030004974009e+03
    3602,-1.529393220020e+03,5.068650499741e+02,-5.991421433999e+03
    3603,-1.417911679720e+03,7.661497699910e+02,-5.002029371199e+03
    3604,-1.366788920051e+03,8.551817600187e+02,-4.909460064795e+03
    3605,-1.312972659979e+03,9.371066160335e+02,-5.009697666202e+03
    3606,-1.369190759843e+03,8.511764380085e+02,-5.102263289398e+03
    3607,-1.133407991530e+01,1.620170079855e+03,-6.291066910004e+03
    3608,5.090805993962e+01,1.619506040096e+03,-6.400842093992e+03
    3609,-2.332374010648e+01,1.621229259887e+03,-6.425530367992e+03
    3610,4.007475210201e+02,1.567136437801e+03,3.608149577798e+02
    3611,4.941370648799e+02,1.540187727360e+03,4.653034652401e+02
    3612,6.303924312006e+02,1.489679606998e+03,3.732589096011e+02
    3613,5.398207222003e+02,1.524981498009e+03,2.687767353992e+02
    3614,7.531113819843e+02,-1.430557082009e+03,-2.046814127193e+03
    3615,8.607649099743e+02,-1.368061715972e+03,-2.131197255998e+03
    3616,9.166649879988e+02,-1.331008021980e+03,-2.018860857198e+03
    3617,8.116674540010e+02,-1.397864179988e+03,-1.934475269001e+03
    3618,-1.202791900070e+03,1.082612040050e+03,-4.778737728196e+03
    3619,-1.100859872012e+03,1.192163600041e+03,-4.816081499720e+03
    3620,-1.122218820034e+03,1.168069419956e+03,-4.969663084202e+03
    3621,-1.222535019979e+03,1.057089060057e+03,-4.932257768802e+03
    3622,-1.486283719980e+03,6.230297160051e+02,-5.065447043399e+03
    3623,-1.520105819879e+03,5.338776439985e+02,-4.882251318005e+03
    3624,-1.460272280037e+03,6.807628739898e+02,-4.818838344009e+03
    3625,1.125268382005e+03,1.158998340054e+03,-4.591496260060e+03
    3626,1.135492144010e+03,1.148480799905e+03,-4.447700721200e+03
    3627,1.233968378040e+03,1.046624968022e+03,-4.451565934999e+03
    3628,1.224739973995e+03,1.058122173984e+03,-4.595383336200e+03
    3629,1.227382759933e+03,1.056305642008e+03,-4.742178961198e+03
    3630,1.102956231994e+03,1.182284482049e+03,-4.903979953603e+03
    3631,1.116479047202e+03,1.168227200040e+03,-4.736750694000e+03
    3632,-1.309294635996e+03,9.509967680045e+02,-2.351145675964e+02
    3633,-1.312110437989e+03,9.468221819954e+02,-7.024600999956e+01
    3634,-1.221229985996e+03,1.061428351999e+03,-6.996372180269e+01
    3635,-1.218047547999e+03,1.065313934009e+03,-2.348261590088e+02
    3636,-7.364275602005e+02,1.457579139877e+03,-4.550433638011e+03
    3637,-8.455276201052e+02,1.395423780139e+03,-4.504390165998e+03
    3638,-8.147571198611e+02,1.413116599632e+03,-4.405708278009e+03
    3639,-7.040931401331e+02,1.472407420554e+03,-4.451794781999e+03
    3640,4.673484400440e+02,1.533104220445e+03,-5.040562163989e+03
    3641,6.112550199218e+02,1.482730359959e+03,-5.072930029996e+03
    3642,5.821764000278e+02,1.488327280020e+03,-5.226109246006e+03
    3643,4.361818001740e+02,1.532169199194e+03,-5.193807714017e+03
    3644,3.755875420055e+02,-1.573325647796e+03,-1.390938156600e+03
    3645,2.303818599915e+02,-1.601487699991e+03,-1.450281725596e+03
    3646,3.018151719943e+02,-1.589457980009e+03,-1.555316195595e+03
    3647,4.456101419869e+02,-1.554797715159e+03,-1.495966210209e+03
    3648,1.435926139879e+03,-7.371867860012e+02,-3.937660388000e+03
    3649,1.490851439915e+03,-6.188302740073e+02,-4.044404754003e+03
    3650,1.523096800022e+03,-5.350604239538e+02,-3.946130361992e+03
    3651,1.474625760061e+03,-6.562011140665e+02,-3.839373441596e+03
    3652,1.412640859952e+03,-7.808865980404e+02,-3.743659542399e+03
    3653,1.505797939888e+03,-5.812931699628e+02,-3.735516567406e+03
    3654,1.449945019937e+03,-7.088478379532e+02,-3.639806616799e+03
    3655,-5.004208639942e+02,-1.539020736019e+03,-2.477895945955e+02
    3656,-3.347309994065e+02,-1.583268911986e+03,-2.974478815982e+02
    3657,-2.932802082087e+02,-1.591306235983e+03,-1.218100134009e+02
    3658,-4.600697063974e+02,-1.551420303998e+03,-7.214739120179e+01
    3659,-4.035818139953e+02,1.567167696021e+03,5.520308420040e+01
    3660,-4.091747960025e+02,1.566402127944e+03,-1.937921136077e+02
    3661,-5.344200320033e+02,1.527747565991e+03,-6.622129559168e+01
    3662,8.824860179919e+02,1.354810051990e+03,-4.287245602024e+02
    3663,7.259031219945e+02,1.445299134401e+03,-3.998112001961e+02
    3664,7.591104619996e+02,1.428176707140e+03,-2.620380885994e+02
    3665,9.135480720040e+02,1.334060978001e+03,-2.909494952021e+02
    3666,2.666147860035e+02,-1.596176719992e+03,-1.943492142004e+03
    3667,4.320676300107e+02,-1.558952195989e+03,-1.866986127995e+03
    3668,3.919909700078e+02,-1.569533794011e+03,-1.741445105599e+03
    3669,2.256347360071e+02,-1.602490552017e+03,-1.817942054005e+03
    3670,-8.055549804711e+01,-1.619956420026e+03,-7.180459150004e+03
    3671,-1.033711120681e+02,-1.618413140096e+03,-6.945943240005e+03
    3672,-1.853980039296e+02,-1.610722560051e+03,-7.128538717993e+03
    3673,-1.583675159988e+03,2.962201939830e+02,-3.918009599991e+03
    3674,-1.552169560183e+03,4.324154899901e+02,-3.982497971992e+03
    3675,-1.573129119774e+03,3.470365460099e+02,-4.118645021988e+03
    3676,-1.597481780049e+03,2.093908700134e+02,-4.054157012002e+03
    3677,-1.365644240236e+03,8.588714000569e+02,-6.648240353598e+03
    3678,-1.285169840091e+03,9.793431999945e+02,-6.545994412006e+03
    3679,-1.243107239860e+03,1.035462060031e+03,-6.650065524006e+03
    3680,-1.328458460192e+03,9.183524800858e+02,-6.752286172004e+03
    3681,-1.211214439955e+03,-1.068230636199e+03,-6.457971207991e+03
    3682,-1.135709640116e+03,-1.148655862202e+03,-6.574494115996e+03
    3683,-1.042376519863e+03,-1.234827657992e+03,-6.475881574010e+03
    3684,-1.123956200124e+03,-1.160544458001e+03,-6.359367059987e+03
    3685,9.473177460022e+02,1.310299292016e+03,-1.623561029975e+02
    3686,1.066862545989e+03,1.214728472012e+03,-1.914212926003e+02
    3687,1.035470189987e+03,1.241535370006e+03,-3.200179103915e+02
    3688,8.098475565983e+02,-1.401637875948e+03,-4.133126231987e+03
    3689,7.676805743792e+02,-1.425641795989e+03,-4.286273061991e+03
    3690,-7.782004198631e+02,-1.417959909934e+03,-6.637174165991e+03
    3691,-7.100550400530e+02,-1.453825775968e+03,-6.412250303799e+03
    3692,-8.517355399265e+02,-1.374583714008e+03,-6.499575167999e+03
    3693,-9.129544000909e+02,1.349520860194e+03,-6.465702289998e+03
    3694,-1.038344589960e+03,1.250769039957e+03,-6.451090021997e+03
    3695,-1.043164878003e+03,1.245507679933e+03,-6.283996379986e+03
    3696,-9.186638201303e+02,1.345364980459e+03,-6.298612110015e+03
    3697,-9.211615600096e+02,1.341608320362e+03,-6.142000011992e+03
    3698,-7.951416799142e+02,1.423828240369e+03,-6.160957985993e+03
    3699,-7.918029399629e+02,1.426460399807e+03,-6.317547155997e+03
    3700,4.855184328006e+02,-1.544032219996e+03,-2.912742704008e+03
    3701,4.489540177994e+02,-1.555352216010e+03,-3.083738280004e+03
    3702,5.968815304059e+02,-1.504314657984e+03,-3.125068179996e+03
    3703,6.321821699968e+02,-1.489472109991e+03,-2.954068199994e+03
    3704,-5.217841780008e+02,-1.532325934022e+03,-8.105655646001e+02
    3705,-3.680296340071e+02,-1.576288458035e+03,-8.664901007995e+02
    3706,-3.214977960025e+02,-1.586268936011e+03,-6.937727360012e+02
    3707,-4.764853979979e+02,-1.546875390028e+03,-6.378433555966e+02
    3708,-1.482255420016e+03,6.293957359708e+02,-6.323536422199e+03
    3709,-1.415617819775e+03,7.695469759742e+02,-6.340818129000e+03
    3710,-1.429003020146e+03,7.440758759941e+02,-6.495179333404e+03
    3711,8.735474800893e+02,1.352654100282e+03,-4.973095527396e+03
    3712,7.560822197138e+02,1.417814079821e+03,-4.958424781999e+03
    3713,7.646472401372e+02,1.412653339970e+03,-4.835315121197e+03
    3714,8.813753599547e+02,1.346321300022e+03,-4.849988659420e+03
    3715,9.955443400679e+02,1.268993879914e+03,-4.860612875998e+03
    3716,1.078279732033e+03,1.205505406009e+03,-5.012943807001e+03
    3717,9.690335859479e+02,1.289923480060e+03,-4.969578875199e+03
    3718,6.861955766017e+02,-1.466170690040e+03,-3.690446567994e+03
    3719,7.606502620051e+02,-1.428486032003e+03,-3.612247055999e+03
    3720,6.879427769910e+02,-1.465088108019e+03,-3.525640899994e+03
    3721,6.116818420003e+02,-1.498945565984e+03,-3.603835885982e+03
    3722,-1.010848997398e+03,1.263081980001e+03,6.682067231985e+02
    3723,-1.124453388992e+03,1.163030082200e+03,7.632144056022e+02
    3724,-9.310384957960e+02,1.322921735803e+03,7.725486243996e+02
    3725,6.020775533979e+02,-1.502390456020e+03,-3.262915584004e+03
    3726,4.575895234601e+02,-1.553068579997e+03,-3.322677878001e+03
    3727,5.213542117198e+02,-1.532835340020e+03,-3.477233480008e+03
    3728,6.636189150079e+02,-1.476203237982e+03,-3.417477332013e+03
    3729,2.790361899990e+02,-1.595221316011e+03,-3.269188844000e+03
    3730,3.379563675968e+02,-1.583802997928e+03,-3.404521512014e+03
    3731,3.997311905198e+02,-1.568971319977e+03,-3.187342031994e+03
    3732,5.246843401108e+02,1.526626779935e+03,-6.501410095978e+03
    3733,4.658557800728e+02,1.547031147967e+03,-6.647574279997e+03
    3734,3.086043800212e+02,1.587845825990e+03,-6.575452437992e+03
    3735,8.551524998850e+02,1.367401460022e+03,-6.208743288008e+03
    3736,9.739308200501e+02,1.287329239965e+03,-6.224060692398e+03
    3737,9.705643200910e+02,1.289038120011e+03,-6.350597587520e+03
    3738,8.517181801201e+02,1.368967439981e+03,-6.335264961982e+03
    3739,6.237340798710e+02,1.489742428024e+03,-6.840562029968e+03
    3740,6.481882999061e+02,1.478051020059e+03,-6.690226644034e+03
    3741,7.896186800861e+01,-1.616798163968e+03,-1.933072393992e+03
    3742,7.793109459504e+01,-1.616919173967e+03,-2.022487317993e+03
    3743,2.655982539935e+02,-1.596430211969e+03,-2.032895336000e+03
    3744,-1.528569937198e+03,5.295411999924e+02,2.180136117999e+02
    3745,-1.483316348001e+03,6.460133400081e+02,1.307049172996e+02
    3746,-1.508983949982e+03,5.841380360177e+02,-3.233568398767e+00
    3747,-1.549453404004e+03,4.659060699846e+02,8.406663160408e+01
    3748,-8.767249999295e+02,-1.358480855974e+03,-6.699552815997e+03
    3749,-8.192969200826e+02,-1.394250269967e+03,-6.794201463802e+03
    3750,-7.183854200289e+02,-1.449580810051e+03,-6.731811702402e+03
    3751,1.066574813984e+03,-1.221455359975e+03,-7.075158134017e+03
    3752,1.001752499992e+03,-1.275574219956e+03,-6.955537486017e+03
    3753,9.242881780327e+02,-1.333541340205e+03,-7.015506564004e+03
    3754,9.922790580530e+02,-1.283429679791e+03,-7.135130867988e+03
    3755,6.029071399787e+02,1.492890200173e+03,-3.931893088005e+03
    3756,7.119064399690e+02,1.443100740248e+03,-3.974417024007e+03
    3757,6.754364998458e+02,1.460144519917e+03,-4.070880536003e+03
    3758,5.652951600350e+02,1.507345099735e+03,-4.028361366004e+03
    3759,6.538914659965e+02,-1.484984120149e+03,-6.258926583984e+03
    3760,5.205681419372e+02,-1.537072019793e+03,-6.256841163987e+03
    3761,5.084030100309e+02,-1.541357159736e+03,-6.420833438015e+03
    3762,6.421543460143e+02,-1.490395139952e+03,-6.422906035995e+03
    3763,-1.464001880082e+03,-6.771682600291e+02,-6.630774356004e+03
    3764,-1.463533920023e+03,-6.786109139854e+02,-6.443847877997e+03
    3765,-1.522142899861e+03,-5.326349139930e+02,-6.437273224004e+03
    3766,-1.522497340254e+03,-5.311451519769e+02,-6.624208495984e+03
    3767,4.567387037978e+02,-1.551506749000e+03,5.448928020599e+02
    3768,3.182724389993e+02,-1.585796082801e+03,6.758668858397e+02
    3769,1.951474087995e+02,-1.605645544200e+03,6.006280931993e+02
    3770,3.358402409983e+02,-1.582125768402e+03,4.696553812004e+02
    3771,2.098702992000e+02,-1.603794794200e+03,7.809270468003e+02
    3772,4.834808465986e+02,-1.543446683197e+03,7.624474957002e+02
    3773,-7.866798759982e+02,-1.414940197998e+03,-1.881181931100e+03
    3774,-7.002365076055e+02,-1.459814062002e+03,-1.951116383400e+03
    3775,-6.422658980029e+02,-1.486282116050e+03,-1.840174449000e+03
    3776,1.122364735997e+03,-1.169921559910e+03,-7.178351378006e+03
    3777,1.191022697997e+03,-1.098535039943e+03,-7.077712609985e+03
    3778,1.138537952008e+03,-1.153411480093e+03,-6.974521225982e+03
    3779,8.748085199623e+02,1.356829347979e+03,-7.066574374015e+03
    3780,9.775569201002e+02,1.284220591984e+03,-6.976204565401e+03
    3781,1.051300739983e+03,1.224587958029e+03,-7.084767781597e+03
    3782,9.529064199069e+02,1.302992034023e+03,-7.175142470001e+03
    3783,3.927075319986e+02,-1.572153059953e+03,-4.284247944010e+03
    3784,5.007981320147e+02,-1.541160140056e+03,-4.470824721991e+03
    3785,5.966371040039e+02,-1.506226899957e+03,-4.390896804006e+03
    3786,4.907586379882e+02,-1.544039800015e+03,-4.204311497984e+03
    3787,6.484494059997e+02,-1.484204079965e+03,-4.227870896008e+03
    3788,7.178541939914e+02,-1.451885719972e+03,-4.449290965999e+03
    3789,4.745281479946e+02,-1.546539913997e+03,-2.017275023992e+03
    3790,6.503917340172e+02,-1.480470052004e+03,-1.984206438794e+03
    3791,-9.541855269983e+02,-1.306522242003e+03,1.156867259201e+02
    3792,-1.009901088040e+03,-1.263908781998e+03,-4.426161228019e+01
    3793,-9.158197594044e+02,-1.333884418002e+03,-9.507909672037e+01
    3794,-8.571373498037e+02,-1.372320809990e+03,6.486507900104e+01
    3795,-1.134884992595e+03,-1.152554221204e+03,4.344314499947e+01
    3796,-1.089895928404e+03,-1.195379708008e+03,-9.697825620022e+01
    3797,-1.057575673402e+03,-1.224099878004e+03,9.615938380100e+01
    3798,1.167380183941e+03,-1.117435151968e+03,-3.493569684198e+03
    3799,1.115787650014e+03,-1.169494452014e+03,-3.618522995796e+03
    3800,1.214769816030e+03,-1.065150485988e+03,-3.698938185603e+03
    3801,1.261547620002e+03,-1.008743277976e+03,-3.573988989999e+03
    3802,1.571669739809e+03,4.057684180073e+02,-3.443821814018e+03
    3803,1.596495319878e+03,2.942901280122e+02,-3.360173373984e+03
    3804,1.606620499768e+03,2.295039259664e+02,-3.443958101991e+03
    3805,6.738641198912e+02,1.465519700047e+03,-6.554163477994e+03
    3806,8.235437799771e+02,1.386644200006e+03,-6.591945444000e+03
    3807,7.991116401307e+02,1.401569820096e+03,-6.727979450003e+03
    3808,9.175757399001e+02,1.327582810024e+03,-6.880291770000e+03
    3809,1.064130639895e+03,1.213844676062e+03,-6.785254979592e+03
    3810,1.118758239993e+03,1.163907570033e+03,-6.881160454016e+03
    3811,9.259912400985e+02,1.321344300067e+03,-6.735493820000e+03
    3812,7.903864199179e+02,1.407312651927e+03,-6.872785123996e+03
    3813,-9.654464359663e+02,1.308825559829e+03,-6.911851657005e+03
    3814,-9.273207799762e+02,1.337546380121e+03,-6.791675259798e+03
    3815,-8.126888601167e+02,1.411336299935e+03,-6.851832824393e+03
    3816,2.417374401342e+02,1.600908472061e+03,-6.670422647970e+03
    3817,9.291522008220e+01,1.618136879855e+03,-6.560467543972e+03
    3818,1.606560000386e+02,1.611343699953e+03,-6.465469156033e+03
    3819,1.259478043971e+03,1.017691878004e+03,-6.159943259995e+03
    3820,1.361762039987e+03,8.764988059419e+02,-6.112661679978e+03
    3821,1.395234639987e+03,8.207386519708e+02,-6.285229662022e+03
    3822,1.298667020017e+03,9.659112159725e+02,-6.332509281968e+03
    3823,1.193240821994e+03,1.091668071204e+03,-6.346696784001e+03
    3824,1.090631629953e+03,1.191785599995e+03,-6.361417128004e+03
    3825,1.068237040029e+03,1.212536434016e+03,-6.220080629988e+03
    3826,1.172857794394e+03,1.114523376015e+03,-6.205352482009e+03
    3827,-2.160758259938e+02,-1.603905058031e+03,-6.977471622008e+02
    3828,-1.269268560025e+02,-1.613389561987e+03,-8.749749606002e+02
    3829,-8.980014499378e+01,-1.615663223975e+03,-6.314213813966e+02
    3830,1.336430619004e+03,-9.113953512401e+02,2.471562306803e+02
    3831,1.357586547204e+03,-8.796512991600e+02,5.758795240070e+01
    3832,1.450539757994e+03,-7.163851246004e+02,7.679628999974e+01
    3833,1.433187416003e+03,-7.503495641980e+02,2.663637250010e+02
    3834,-1.233200343995e+03,-1.046222933599e+03,1.020520128012e+02
    3835,-1.288986046009e+03,-9.763589685960e+02,1.650325767979e+02
    3836,-5.088257340063e+02,1.536569382024e+03,-4.485153379978e+02
    3837,-3.691236020069e+02,1.576165911973e+03,-3.960597120057e+02
    3838,-3.522266579827e+02,1.579613564035e+03,-5.220558479925e+02
    3839,-4.923935140160e+02,1.541702068022e+03,-5.745160020026e+02
    3840,1.393980720026e+03,8.239312412005e+02,-3.721583027403e+03
    3841,1.426394760030e+03,7.694390580072e+02,-3.884951583397e+03
    3842,1.349051681965e+03,8.949806359931e+02,-3.948663066599e+03
    3843,1.311561156005e+03,9.461905660076e+02,-3.785342598597e+03
    3844,1.274710354052e+03,9.967185179770e+02,-4.228947199802e+03
    3845,1.233498113996e+03,1.046309086016e+03,-4.341383602798e+03
    3846,1.161564771996e+03,1.122155499972e+03,-4.276485819000e+03
    3847,1.205987879988e+03,1.075473860009e+03,-4.164040666401e+03
    3848,1.551037339999e+03,-4.596769317977e+02,5.249989771996e+02
    3849,1.498558484603e+03,-6.092609333996e+02,6.043321183999e+02
    3850,1.471532235602e+03,-6.719635173984e+02,4.872141290008e+02
    3851,1.530296412001e+03,-5.247330390018e+02,4.078837100015e+02
    3852,-1.075233480000e+03,-1.208390362997e+03,4.962121539401e+02
    3853,-9.771398824605e+02,-1.289232815997e+03,4.113169900399e+02
    3854,-9.096803714012e+02,-1.337688332003e+03,5.497723368596e+02
    3855,-1.011811774400e+03,-1.262018362003e+03,6.346704509260e+02
    3856,-2.599856160407e+02,-1.599977019904e+03,-7.221373179602e+03
    3857,-4.273152600332e+02,-1.562549040048e+03,-7.296791755400e+03
    3858,-2.069397200412e+02,-1.608073100080e+03,-7.309454335996e+03
    3859,2.200361820557e+02,-1.608306219916e+03,-7.305084217995e+03
    3860,4.471693799508e+02,-1.560999320039e+03,-7.306455458013e+03
    3861,2.889717880516e+02,-1.597519060123e+03,-7.226970221996e+03
    3862,6.085121979561e+02,-1.503886779943e+03,-6.004038331999e+03
    3863,5.231653359336e+02,-1.535618379905e+03,-5.837227887991e+03
    3864,4.031056740017e+02,-1.571620339964e+03,-5.929255920000e+03
    3865,4.906946320575e+02,-1.546685880071e+03,-6.096059982011e+03
    3866,8.633574999803e+02,-1.374327600041e+03,-7.114685514011e+03
    3867,8.785123940466e+02,-1.364835840173e+03,-7.261865289984e+03
    3868,1.006433860036e+03,-1.272533779764e+03,-7.282299258000e+03
    3869,2.577823780556e+02,-1.602279860240e+03,-6.537262802014e+03
    3870,8.668826599396e+01,-1.619948219924e+03,-6.401761051988e+03
    3871,1.733420159878e+02,-1.613413100176e+03,-6.617584994016e+03
    3872,-4.756709399990e+02,1.556788999434e+03,-7.282457243986e+03
    3873,-3.447832599482e+02,1.590577359741e+03,-7.182423021981e+03
    3874,-2.467585880567e+02,1.608284000164e+03,-7.284318880025e+03
    3875,-4.302083600341e+02,1.570010340233e+03,-7.103764068013e+03
    3876,-3.326431800041e+02,1.593035700186e+03,-7.011252725992e+03
    3877,-2.460884200193e+02,1.608145819931e+03,-7.089911808016e+03
    3878,6.703785600121e+02,-1.478922820065e+03,-7.287251761992e+03
    3879,7.040604240320e+02,-1.462998579812e+03,-7.164642511994e+03
    3880,4.777313380181e+02,1.544894130005e+03,-8.115958358005e+02
    3881,3.389635780139e+02,1.581209611991e+03,-8.442026922196e+02
    3882,3.013546640140e+02,1.588913282793e+03,-7.318599608009e+02
    3883,4.409622480179e+02,1.555956600800e+03,-6.992592360017e+02
    3884,-5.490456735925e+02,1.521657749003e+03,3.104368845989e+02
    3885,-3.552622580055e+02,1.578291966009e+03,1.899685521972e+02
    3886,-5.954637360088e+02,1.504372042010e+03,1.756591860018e+02
    3887,1.314668318027e+03,-9.385916800328e+02,-2.839326960799e+03
    3888,1.310343391973e+03,-9.448791159312e+02,-2.663534704401e+03
    3889,1.220301451948e+03,-1.058391873951e+03,-2.665281951800e+03
    3890,1.225301750027e+03,-1.052631853973e+03,-2.841067419000e+03
    3891,-6.714834059921e+02,1.471782210803e+03,3.934845139980e+02
    3892,-5.963189965972e+02,1.503650875801e+03,5.248274007983e+02
    3893,-4.715071397980e+02,1.547234009801e+03,4.417728235963e+02
    3894,-1.187187782409e+03,-1.098319830401e+03,6.273243050006e+02
    3895,-1.147577951600e+03,-1.139769237002e+03,3.729099537978e+02
    3896,-2.731178743996e+02,-1.596618040005e+03,-3.413221890003e+03
    3897,-4.202952839941e+02,-1.564165700029e+03,-3.528794370798e+03
    3898,-3.058368559990e+02,-1.590718160009e+03,-3.642266295999e+03
    3899,-1.566831583988e+02,-1.612355400106e+03,-3.526706327993e+03
    3900,-3.179622499956e+02,-1.587661102003e+03,-1.879239216996e+03
    3901,-4.105404707917e+02,-1.566349990049e+03,-2.007002064603e+03
    3902,-2.150514787978e+02,-1.604819322006e+03,-1.976755787203e+03
    3903,-5.538335000625e+02,1.530945940474e+03,-7.174359698018e+03
    3904,-6.089799999157e+02,1.510212239663e+03,-7.035102482005e+03
    3905,-4.868557799288e+02,1.553766539458e+03,-6.964519113990e+03
    3906,-1.564585734008e+03,4.091672024002e+02,5.423275541985e+02
    3907,-1.565847226006e+03,4.047109417985e+02,3.712604313960e+02
    3908,-1.591666383994e+03,2.863904474009e+02,5.726463442006e+02
    3909,5.279284231399e+02,1.528915946400e+03,7.679137368001e+02
    3910,4.385734349604e+02,1.556875161800e+03,6.662731243999e+02
    3911,2.859514306199e+02,1.591978423800e+03,7.658490809199e+02
    3912,1.429168707988e+03,7.551764520517e+02,-2.789977785403e+03
    3913,1.398806408019e+03,8.092427719933e+02,-2.668099670201e+03
    3914,1.459378231992e+03,6.954220300182e+02,-2.607946605197e+03
    3915,1.485232456804e+03,6.390798040194e+02,-2.729844167802e+03
    3916,7.751917995406e+01,1.621132600210e+03,-6.947301326014e+03
    3917,-6.460070007175e+01,1.623379020219e+03,-6.899429919976e+03
    3918,-2.730623994697e+01,1.623580260201e+03,-6.782525354008e+03
    3919,1.147128800167e+02,1.617823739931e+03,-6.830411628033e+03
    3920,1.205042688799e+03,-1.078983789800e+03,6.512507690799e+02
    3921,1.131599068560e+03,-1.155745065999e+03,7.648405631200e+02
    3922,-3.226652380209e+02,-1.587925279901e+03,-6.789520263797e+03
    3923,-1.954525120267e+02,-1.609240819977e+03,-6.664734432006e+03
    3924,-3.231605660084e+02,-1.587753839955e+03,-6.570546150602e+03
    3925,-4.390368399888e+02,-1.559055460043e+03,-6.925763653804e+03
    3926,-3.057638940644e+02,-1.591482059997e+03,-7.038143377991e+03
    3927,-1.873535820189e+02,-1.610362519986e+03,-6.901905084001e+03
    3928,-5.052035000332e+02,-1.538474219924e+03,-7.087528301401e+03
    3929,-5.820089400222e+02,-1.510475580012e+03,-6.861406239960e+03
    3930,-6.459559599676e+02,-1.483798896021e+03,-7.023173679400e+03
    3931,4.152807899966e+01,1.616756539993e+03,4.580807287597e+02
    3932,1.715167470999e+02,1.608310550798e+03,3.466898192000e+02
    3933,-3.286743719961e+01,1.616924368000e+03,3.860980174005e+02
    3934,-1.287860522008e+03,-9.781941139988e+02,7.453942980000e+02
    3935,-1.420683907996e+03,-7.726839988020e+02,7.402394615973e+02
    3936,-1.446720104201e+03,7.233586261993e+02,6.095603794601e+02
    3937,-1.514547526601e+03,5.675495541401e+02,7.237914610802e+02
    3938,-1.421216167880e+03,7.723857408003e+02,7.532567375595e+02
    3939,-2.396088838022e+02,1.599498649201e+03,3.494191151980e+02
    3940,-3.597808209999e+02,1.576875327798e+03,4.020967842008e+02
    3941,5.015121600383e+02,1.529787279889e+03,-4.142790425984e+03
    3942,3.736345598751e+02,1.568248720015e+03,-4.077347388001e+03
    3943,4.390180400943e+02,1.550802020142e+03,-3.962935808004e+03
    3944,-4.223417199851e+02,1.572373440123e+03,-6.828908697999e+03
    3945,-2.665456400637e+02,1.604827859930e+03,-6.875621042013e+03
    3946,-5.012865040073e+02,-1.539955339974e+03,-3.431418026999e+03
    3947,-6.042037159982e+02,-1.502325359939e+03,-3.519427272880e+03
    3948,-5.250420500057e+02,-1.531978359933e+03,-3.616803638599e+03
    3949,-1.084570758003e+02,1.613683779399e+03,5.560253520400e+02
    3950,-3.559482111953e+01,1.616999980199e+03,6.580678062816e+02
    3951,1.143776832000e+02,1.613301089397e+03,5.601329219604e+02
    3952,-1.518361331796e+03,5.570238091656e+02,5.188802412008e+02
    3953,-1.561866826798e+03,4.200406206997e+02,7.472530164000e+02
    3954,8.085316000215e+02,1.398693260799e+03,-7.276947532004e+03
    3955,6.865940799404e+02,1.463605878026e+03,-7.239325805989e+03
    3956,7.559116401282e+02,1.427144152015e+03,-7.028924238005e+03
    3957,5.874486200948e+02,1.505827243002e+03,-6.996728676019e+03
    3958,-1.290783192400e+03,9.750446411978e+02,7.576010927989e+02
    3959,-1.339675025198e+03,9.066655497982e+02,6.433393401981e+02
    3960,-1.019806390011e+03,1.263535359728e+03,-5.016921731202e+03
    3961,-1.053055700090e+03,1.229850939949e+03,-5.153960752001e+03
    3962,-1.153520999916e+03,1.132420099887e+03,-5.106645585201e+03
    3963,3.159578359976e+02,-1.592417319790e+03,-7.142109819996e+03
    3964,1.209259759295e+02,-1.618305820122e+03,-7.091317125987e+03
    3965,9.352488602700e+01,-1.620059280263e+03,-7.176177730004e+03
    3966,-5.390779906002e+02,1.525049718160e+03,7.770400778018e+02
    3967,-6.476287379985e+02,1.482280952202e+03,6.868399106011e+02
    3968,-7.251652126033e+02,1.445965059401e+03,7.773497107985e+02
    3969,-5.433484547979e+02,1.523532274300e+03,6.151217373970e+02
    3970,-4.232975695999e+02,1.561105489801e+03,7.410025297991e+02
    3971,-4.276614935992e+02,1.559872076204e+03,5.790801596006e+02
    3972,8.275614006190e+01,1.619581899905e+03,-6.691368694009e+03
    3973,-5.520053399308e+02,-1.522020080078e+03,-7.253341124660e+03
    3974,-3.793222600273e+02,-1.575129520011e+03,-7.130980917403e+03
    3975,4.985847200612e+02,-1.545333979992e+03,-7.209198596018e+03
    3976,9.747397596036e+01,-1.619642000100e+03,-6.842546334003e+03
    3977,5.434342940141e+02,-1.530051260073e+03,-7.093223980001e+03
    3978,3.622857479450e+02,-1.582534639985e+03,-7.026132668017e+03
    3979,1.195385241943e+03,1.086775014040e+03,-1.464705663996e+03
    3980,1.204490995952e+03,1.076441158033e+03,-1.598959925997e+03
    3981,1.105262980009e+03,1.177960444019e+03,-1.617279079992e+03
    3982,1.095323164062e+03,1.187469307929e+03,-1.483021837995e+03
    3983,2.161431660410e+02,-1.608601500080e+03,-6.936010410014e+03
    3984,-1.387506112800e+03,8.315209851970e+02,5.557280384001e+02
    3985,-1.406135461002e+03,7.996449478041e+02,4.245021498003e+02
    3986,-1.462824973999e+03,6.901417901998e+02,4.783305766202e+02
    3987,-2.022056404002e+02,1.604755256000e+03,7.611769784604e+02
    3988,-2.488952616997e+02,1.598123721202e+03,6.346420155989e+02
    3989,-8.264857198567e+01,-1.619573380036e+03,-6.695937102007e+03
    3990,-1.280553319997e+03,-9.823787139981e+02,-6.975474841992e+03
    3991,-1.210071820031e+03,-1.068863693601e+03,-6.876086119997e+03
    3992,-1.289214299991e+03,-9.712917339884e+02,-6.766542596009e+03
    3993,-1.352788439965e+03,-8.795998999987e+02,-6.865919977988e+03
    3994,-7.295722020005e+02,1.444102052011e+03,2.046145535955e+02
    3995,-8.837154280044e+02,1.355301095994e+03,1.812918374018e+02
    3996,-7.520902420047e+02,1.432406556002e+03,3.165660971984e+02
    3997,1.161812397959e+03,-1.122525036020e+03,-2.408981865999e+03
    3998,1.164435786060e+03,-1.120024521997e+03,-2.246136990800e+03
    3999,1.078749533988e+03,-1.202841903976e+03,-2.236185545402e+03
    4000,1.076015470048e+03,-1.205212177988e+03,-2.399036627803e+03
    4001,-3.151455855995e+02,1.586364783600e+03,5.394070654005e+02
    4002,-6.961706999474e+02,1.471097200284e+03,-7.276540605999e+03
    4003,5.900156149981e+02,-1.505892566001e+03,6.508609978781e+02
    4004,7.217374567996e+02,-1.447421551397e+03,7.559132225201e+02
    4005,-1.261739480321e+02,1.621179839737e+03,-7.179529415994e+03
    4006,-1.495442600396e+02,1.618949239812e+03,-6.983947426030e+03
    4007,-2.906408005312e+01,1.624550100253e+03,-7.073596691987e+03
    4008,9.134358240114e+02,-1.333333006011e+03,-1.606572266401e+03
    4009,9.065022480238e+02,-1.338161962001e+03,-1.418085882200e+03
    4010,7.553564359956e+02,-1.429186996006e+03,-1.431885074001e+03
    4011,-1.821841400303e+02,1.615616140026e+03,-6.791083251972e+03
    4012,1.341981000077e+03,-8.977292099391e+02,-3.660631463390e+03
    4013,1.384065020045e+03,-8.308397799918e+02,-3.553892362402e+03
    4014,1.309125939985e+03,-9.456372419931e+02,-3.467251091120e+03
    4015,-1.550296280144e+03,-4.482675879870e+02,-4.418765610011e+03
    4016,-1.497199460003e+03,-6.041355100078e+02,-4.336707377993e+03
    4017,-1.574123879933e+03,-3.542652600105e+02,-4.271654320017e+03
    4018,7.543149560712e+02,-1.437409160213e+03,-7.023792892014e+03
    4019,1.299160599973e+03,-9.591952320217e+02,-3.765021104601e+03
    4020,1.375085039898e+03,-8.457079960666e+02,-3.848061708300e+03
    4021,8.182677419660e+02,-1.401565740203e+03,-6.924607048001e+03
    4022,-7.750514401452e+02,-1.419609324011e+03,-6.947047246801e+03
    4023,-8.337567399552e+02,-1.385435634004e+03,-7.068518115391e+03
    4024,-7.074750600323e+02,-1.454988152046e+03,-7.144642722803e+03
    4025,-1.339390680028e+03,-9.040234259921e+02,-4.146792023999e+03
    4026,-1.428440100020e+03,-7.538406599840e+02,-4.294119525994e+03
    4027,-1.336061479989e+03,-9.087863539910e+02,-4.289318983998e+03
    4028,-7.441229966587e+00,1.625292100154e+03,-7.279262798034e+03
    4029,-1.205082920065e+03,-1.076105538008e+03,-5.831991247995e+03
    4030,-1.106133639946e+03,-1.178261938015e+03,-5.884614371983e+03
    4031,-1.067621359944e+03,-1.213657983979e+03,-5.762667945996e+03
    4032,-1.169831420121e+03,-1.114766709991e+03,-5.710047417997e+03
    4033,-1.591982723999e+03,-2.857327113977e+02,5.718287199979e+02
    4034,-1.566325891979e+03,-4.006037660085e+02,3.702626895996e+02
    4035,-1.565767484002e+03,-4.047409809970e+02,5.405163373976e+02
    4036,-1.754776887993e+02,1.607742899995e+03,4.607821949804e+02
    4037,2.038644680091e+02,-1.608288000039e+03,-4.758085995991e+03
    4038,1.006945319859e+02,-1.617764699951e+03,-4.581886863990e+03
    4039,1.042039079770e+02,-1.617801939901e+03,-4.853049950012e+03
    4040,-6.687987800634e+02,1.485048679867e+03,-6.935542342003e+03
    4041,-7.541294800299e+02,1.442336459632e+03,-7.165278978002e+03
    4042,8.317172769997e+02,-1.389517299979e+03,-4.770442642013e+03
    4043,9.650349980143e+02,-1.299302632007e+03,-4.794460933995e+03
    4044,9.845994060161e+02,-1.284151554058e+03,-4.668952205985e+03
    4045,8.526819539989e+02,-1.376390602011e+03,-4.644929590010e+03
    4046,-1.400091160049e+03,-8.021886500095e+02,-6.545846332002e+03
    4047,-1.425370040102e+03,-7.555288659835e+02,-6.739959883986e+03
    4048,-1.354803599927e+03,-8.769069740180e+02,-6.655021717990e+03
    4049,-1.465443398036e+03,-6.811116420093e+02,-5.991067459989e+02
    4050,-1.409887510045e+03,-7.902702060153e+02,-6.089210560050e+02
    4051,-1.404831955970e+03,-7.993525239958e+02,-4.886562422040e+02
    4052,-1.461097709941e+03,-6.905596299828e+02,-4.788402660035e+02
    4053,-1.061400019991e+03,1.221124982000e+03,1.934214484012e+02
    4054,-1.202647812001e+03,1.082193375997e+03,2.688179694040e+02
    4055,-1.158868417994e+03,1.128916560000e+03,4.187397990023e+02
    4056,-1.316443907200e+03,9.402227261973e+02,4.288144615982e+02
    4057,-1.310149555594e+03,9.490988139974e+02,2.894764092026e+02
    4058,-1.400821355400e+03,8.091504999945e+02,2.851594215992e+02
    4059,1.399430239962e+03,8.040814640300e+02,-7.155290240022e+03
    4060,1.438930679867e+03,7.289235339697e+02,-7.293582124016e+03
    4061,1.328586300050e+03,9.155216559918e+02,-7.247693641991e+03
    4062,-1.076328729995e+03,1.215647720256e+03,-7.049076738207e+03
    4063,-1.071903981991e+03,1.220002760032e+03,-6.915494873405e+03
    4064,4.009060603952e+01,1.616946108201e+03,7.644059760401e+02
    4065,2.000094768003e+02,1.604991612804e+03,6.627567933000e+02
    4066,-1.593855769398e+03,-2.757881747999e+02,6.734355789993e+02
    4067,-1.562147664820e+03,-4.194310036002e+02,7.463967033992e+02
    4068,-1.600686353399e+03,-2.331478443800e+02,7.944844777989e+02
    4069,-1.600504273202e+03,2.333799895598e+02,7.936212130010e+02
    4070,-1.593498175805e+03,2.766277215998e+02,6.733945610019e+02
    4071,1.617026776013e+03,-7.497554800359e+01,-1.173908175001e+03
    4072,1.617648489938e+03,5.962487998939e+01,-1.316130867800e+03
    4073,1.609607710006e+03,1.688975320163e+02,-1.207688465399e+03
    4074,1.618179803981e+03,3.457846199366e+01,-1.065458342002e+03
    4075,1.616331539993e+03,6.894886198829e+01,-4.367214334015e+03
    4076,1.604375273998e+03,2.168702500003e+02,-4.443373513988e+03
    4077,1.595740099994e+03,2.797071760208e+02,-4.308756350001e+03
    4078,1.613452621968e+03,1.323492479715e+02,-4.232623229997e+03
    4079,-1.614051382404e+03,-1.068337226003e+02,6.682509531601e+02
    4080,-1.617523333801e+03,1.734223499188e-02,7.412350805602e+02
    4081,-1.613885839001e+03,1.070870191203e+02,6.673766809991e+02
    4082,1.732615840116e+02,-1.611303300101e+03,-4.248611578004e+03
    4083,2.889664959928e+02,-1.594754420057e+03,-4.396033725998e+03
    4084,2.783640619870e+02,-1.596326959992e+03,-4.136818041991e+03
    4085,8.176753992519e+01,1.616847917934e+03,-6.175759656021e+03
    4086,2.695876999137e+02,1.591392079949e+03,-6.088962396027e+03
    4087,1.423200506008e+03,-7.687600679942e+02,-1.932692193000e+03
    4088,1.340136288015e+03,-9.045588480297e+02,-1.918874269201e+03
    4089,1.333014023994e+03,-9.145575699646e+02,-2.070530983400e+03
    4090,1.417137786201e+03,-7.794136940146e+02,-2.084356267401e+03
    4091,1.304720663994e+03,9.527688280689e+02,-1.717638484001e+03
    4092,1.393547788022e+03,8.184709320297e+02,-1.687331923602e+03
    4093,1.402298724008e+03,8.033777440249e+02,-1.821727992803e+03
    4094,1.314873863946e+03,9.385899740204e+02,-1.852025473992e+03
    4095,6.976180300151e+02,-1.462050120054e+03,-4.612305602014e+03
    4096,7.780085200115e+01,-1.618555339934e+03,-4.084528213996e+03
    4097,2.976328799924e+02,-1.592699899868e+03,-4.035668734007e+03
    4098,9.735969400203e+01,-1.617402420134e+03,-3.983375297993e+03
    4099,-1.444908931984e+03,-7.237294619903e+02,-7.428969879926e+02
    4100,-1.383709624012e+03,-8.354167479925e+02,-8.009619140024e+02
    4101,-1.343567779995e+03,-8.989955218071e+02,-6.669863537981e+02
    4102,-6.114055399213e+02,1.510370499981e+03,-6.737054387995e+03
    4103,-7.584132801333e+02,1.443004899511e+03,-6.653355610408e+03
    4104,-3.564411405977e+02,-1.579713602041e+03,-2.498359248004e+03
    4105,-2.042293017998e+02,-1.606467449984e+03,-2.450515899795e+03
    4106,-4.065390899960e+02,-1.567511832002e+03,-2.364983993996e+03
    4107,4.935904540046e+02,-1.542686119991e+03,-3.901181526003e+03
    4108,2.976160539919e+02,-1.592527219933e+03,-3.895726366014e+03
    4109,4.936136080070e+02,-1.542880160100e+03,-4.041121903986e+03
    4110,9.206243639772e+02,-1.328559109984e+03,-1.288218612998e+03
    4111,1.036948862008e+03,-1.239783384007e+03,-1.445877138600e+03
    4112,-1.581933740132e+03,2.955301000624e+02,-7.120185225007e+03
    4113,-1.565893719885e+03,3.715880440493e+02,-7.016688838998e+03
    4114,-1.561605999906e+03,3.898502179379e+02,-7.176864977002e+03
    4115,-1.112496122000e+03,-1.174396907983e+03,-7.123685552003e+02
    4116,-1.050658048796e+03,-1.230387979988e+03,-8.833048457998e+02
    4117,-9.471743132005e+02,-1.312084419999e+03,-8.116050954801e+02
    4118,-1.013373852000e+03,-1.261345702024e+03,-6.406667940011e+02
    4119,-1.254331179928e+03,1.018430420062e+03,-6.253023956005e+03
    4120,-1.155380979943e+03,1.135341700216e+03,-6.275154936006e+03
    4121,-1.163951135949e+03,1.127424939912e+03,-6.447282627984e+03
    4122,-1.261980379986e+03,1.009761780080e+03,-6.425100854016e+03
    4123,1.110297760005e+03,-1.173933309995e+03,-2.058585513600e+03
    4124,1.008547108027e+03,-1.262539071992e+03,-2.034325291600e+03
    4125,9.747875240363e+02,-1.288854496024e+03,-2.211921176603e+03
    4126,-8.510606029950e+02,-1.376661072031e+03,-8.684506728001e+02
    4127,-7.824568360016e+02,-1.416817038022e+03,-7.113194297998e+02
    4128,-8.816505826001e+02,-1.357084152035e+03,-6.544712798603e+02
    4129,-9.984423959477e+01,-1.615852579953e+03,-1.789579801797e+03
    4130,-1.158554727930e+02,-1.614952293993e+03,-2.027325337596e+03
    4131,-8.255654259652e+01,-1.617114364043e+03,-2.283441413196e+03
    4132,3.622141399975e+02,1.573443779954e+03,-3.449730710603e+03
    4133,4.605765599344e+02,1.545894879923e+03,-3.594698672007e+03
    4134,3.462706798871e+02,1.576668319968e+03,-3.655881456792e+03
    4135,2.461967400052e+02,1.596992735999e+03,-3.510890619599e+03
    4136,7.705693960032e+02,-1.422195133984e+03,-2.991478096009e+03
    4137,7.922688299921e+02,-1.409881567200e+03,-2.825371275991e+03
    4138,6.549506800126e+02,-1.479303515985e+03,-2.787967836002e+03
    4139,1.035423543965e+03,-1.241232911990e+03,-3.078655553801e+03
    4140,1.032017238004e+03,-1.243689874001e+03,-2.866345772596e+03
    4141,9.129798359702e+02,-1.334225413984e+03,-2.858925012005e+03
    4142,9.166072140019e+02,-1.332058841203e+03,-3.071243386004e+03
    4143,-4.246729660082e+02,-1.561746098000e+03,-4.659110548023e+02
    4144,-3.237955939940e+02,-1.585669002033e+03,-5.025602403980e+02
    4145,-2.326487606045e+02,-1.601368979989e+03,-3.341013115965e+02
    4146,3.940398300296e+02,-1.574535260218e+03,-6.498305686005e+03
    4147,3.398804440265e+02,-1.586841280050e+03,-6.295093105994e+03
    4148,2.027497599799e+02,-1.609870140061e+03,-6.334053485998e+03
    4149,1.611234739979e+03,-1.730512280006e+02,-2.479672360001e+03
    4150,1.594790699927e+03,-2.849721639858e+02,-2.386310200798e+03
    4151,1.579254979972e+03,-3.607708840010e+02,-2.476719063040e+03
    4152,1.601189179858e+03,-2.497786360059e+02,-2.570071674000e+03
    4153,1.088433780059e+03,1.204627639981e+03,-5.703781778005e+03
    4154,1.022066320075e+03,1.260853199890e+03,-5.552175034200e+03
    4155,1.119862719781e+03,1.176259499860e+03,-5.491713460804e+03
    4156,1.181075760136e+03,1.114370720080e+03,-5.643318612008e+03
    4157,-1.188290140170e+03,1.091656229993e+03,-5.238082395602e+03
    4158,-1.277190780248e+03,9.851365560279e+02,-5.178423124596e+03
    4159,-1.244909939853e+03,1.027962586001e+03,-5.046997747999e+03
    4160,1.959354820018e+02,-1.608972700137e+03,-4.488086366014e+03
    4161,9.611863600801e+01,-1.617797919917e+03,-4.325164860013e+03
    4162,-1.420390759999e+02,-1.612701048004e+03,-1.717068365198e+03
    4163,-3.593418160004e+02,-1.578799274061e+03,-1.806728811401e+03
    4164,-1.292101519859e+03,9.673444679509e+02,-4.894983628192e+03
    4165,9.988508059915e+02,-1.270231078004e+03,-2.431524768801e+03
    4166,1.029946602062e+03,-1.245065067990e+03,-2.581250289203e+03
    4167,1.105457600047e+03,-1.178136007970e+03,-2.548764277996e+03
    4168,1.242070045994e+03,-1.038562239870e+03,-6.792935935991e+03
    4169,1.200530334401e+03,-1.087451919967e+03,-6.908762871999e+03
    4170,1.260130607999e+03,-1.016702500112e+03,-6.961255548001e+03
    4171,1.298797601990e+03,-9.654978599491e+02,-6.845437197986e+03
    4172,5.701187799878e+02,-1.516893160022e+03,-4.623171225999e+03
    4173,3.847287060048e+02,-1.574519200034e+03,-4.562495556001e+03
    4174,4.557015560279e+02,-1.555547460019e+03,-4.714836385999e+03
    4175,2.927348659871e+02,-1.594393440087e+03,-4.654542596002e+03
    4176,-9.614828200500e+02,-1.299290106023e+03,-6.595180799995e+03
    4177,-9.376388200703e+02,-1.316957745964e+03,-6.380281120003e+03
    4178,1.022867720053e+03,1.248234539908e+03,-2.569045830006e+03
    4179,1.121129800040e+03,1.161315419964e+03,-2.476864155998e+03
    4180,1.167448559952e+03,1.114869199907e+03,-2.580555372004e+03
    4181,1.072697799936e+03,1.205596480094e+03,-2.672755264006e+03
    4182,-1.051735240024e+03,-1.226561542010e+03,-6.683044141990e+03
    4183,-9.714183200851e+02,-1.291633701992e+03,-6.787420528005e+03
    4184,1.092889399451e+02,1.615509462001e+03,-6.296111885992e+03
    4185,1.519341083964e+03,5.536120179894e+02,-5.985539367993e+03
    4186,1.482739750200e+03,6.471392439968e+02,-6.127920618010e+03
    4187,1.427464211979e+03,7.635151419921e+02,-6.025324322031e+03
    4188,1.471398928002e+03,6.731928460078e+02,-5.882958090027e+03
    4189,-1.291292379889e+03,-9.708976779970e+02,-5.182328941990e+03
    4190,-1.194339459948e+03,-1.088854003983e+03,-5.153917349996e+03
    4191,-1.216084979932e+03,-1.064452733991e+03,-5.010678959984e+03
    4192,-1.310621239968e+03,-9.445613477993e+02,-5.039088432018e+03
    4193,1.542594539880e+03,5.034364040087e+02,-3.468149451994e+03
    4194,1.534434800058e+03,5.261767280180e+02,-3.364116335993e+03
    4195,1.565158500258e+03,4.290134519826e+02,-3.339775233989e+03
    4196,1.514258579987e+03,5.818061780039e+02,-3.631830125995e+03
    4197,1.498588599893e+03,6.194540259879e+02,-3.508369040602e+03
    4198,1.510910239951e+03,5.827220820000e+02,-3.120202089396e+03
    4199,1.458473307943e+03,7.020253239983e+02,-3.181413456196e+03
    4200,1.427750381991e+03,7.599424979740e+02,-3.088886011203e+03
    4201,1.484853366021e+03,6.428334639725e+02,-3.027650411999e+03
    4202,-1.254387549982e+03,-1.020481509401e+03,-5.288837810026e+02
    4203,-1.156942373997e+03,-1.130361429991e+03,-5.882854940009e+02
    4204,-1.121600146009e+03,-1.165608354006e+03,-4.618304897999e+02
    4205,3.074882199928e+02,-1.588066192996e+03,-1.122136395798e+03
    4206,9.402777399858e+01,-1.615361237992e+03,-1.140241773006e+03
    4207,1.303828420055e+02,-1.612843258020e+03,-1.274942717403e+03
    4208,3.431702720015e+02,-1.580715665804e+03,-1.256837580202e+03
    4209,1.003939640009e+02,-1.615230513974e+03,-1.499736987201e+03
    4210,7.418830320125e+02,-1.437888699964e+03,-3.262414491999e+03
    4211,7.369013400021e+02,-1.440278732000e+03,-3.124567278002e+03
    4212,-8.147130261992e+02,-1.397840567998e+03,2.626501357995e+02
    4213,-7.188267581958e+02,-1.449703938031e+03,2.401929820037e+01
    4214,-6.740828595975e+02,-1.470924650016e+03,2.217991455986e+02
    4215,9.156908180172e+02,-1.331722394023e+03,-1.759208666199e+03
    4216,1.040603771978e+03,-1.236435648019e+03,-1.751050911800e+03
    4217,1.038548017966e+03,-1.238311469970e+03,-1.598409731800e+03
    4218,8.543696440068e+02,-1.372217147973e+03,-1.181530697602e+03
    4219,7.706469700095e+02,-1.421094045979e+03,-9.924840683997e+02
    4220,6.264141940125e+02,-1.490515013993e+03,-1.075380838997e+03
    4221,7.145421880124e+02,-1.450131852000e+03,-1.264431669602e+03
    4222,-7.013417199922e+02,-1.458439149933e+03,-5.565970696598e+03
    4223,-7.535166859576e+02,-1.431805469984e+03,-5.755285034797e+03
    4224,-6.500631919370e+02,-1.482194665953e+03,-5.785412293201e+03
    4225,-5.961286999816e+02,-1.505053600017e+03,-5.596108114199e+03
    4226,9.618781500116e+02,-1.299171617965e+03,-1.080568517401e+03
    4227,1.845515160018e+02,-1.608472912069e+03,-2.557165843998e+03
    4228,6.887007799635e+01,-1.617695072050e+03,-2.480996279998e+03
    4229,1.159137692004e+02,-1.615094886034e+03,-2.689958316004e+03
    4230,5.818046468000e+02,-1.508984732008e+03,4.000347608399e+02
    4231,4.286118357975e+02,-1.559460714799e+03,3.020283707996e+02
    4232,5.181771429962e+02,-1.531935765996e+03,1.723371461997e+02
    4233,6.681950394035e+02,-1.472696456008e+03,2.703437756799e+02
    4234,-1.334211320143e+03,-9.107740357969e+02,-4.903400105997e+03
    4235,-1.244893940053e+03,-1.030468335985e+03,-4.858762973984e+03
    4236,-1.272771880007e+03,-9.956976379839e+02,-4.717667019999e+03
    4237,-1.358745879902e+03,-8.735805560033e+02,-4.762301811991e+03
    4238,-4.201505996455e+02,1.654937396981e+03,-5.638102741972e+03
    4239,-5.637729211175e+02,1.580039200144e+03,-5.604262137993e+03
    4240,-5.397235989535e+02,1.593802400938e+03,-5.488314394035e+03
    4241,-3.963808010672e+02,1.670899597999e+03,-5.522384034024e+03
    4242,-1.172287167982e+03,-1.114424056005e+03,-9.607733188027e+02
    4243,-1.131627341984e+03,-1.155992079989e+03,-1.118447746203e+03
    4244,-1.005903613200e+03,-1.267491661971e+03,-1.040973792401e+03
    4245,9.141267400236e+02,1.324454320123e+03,-4.263161048009e+03
    4246,9.275647199064e+02,1.315518180286e+03,-4.105523628001e+03
    4247,1.062206380048e+03,1.212503919942e+03,-4.101084557398e+03
    4248,1.050035460041e+03,1.223096700141e+03,-4.258718198201e+03
    4249,1.130329440040e+03,1.150920540058e+03,-3.928612924600e+03
    4250,1.148058280026e+03,1.134375320019e+03,-4.075622313197e+03
    4251,1.043508060001e+03,1.227963999945e+03,-3.954084277800e+03
    4252,3.972378201237e+02,1.542848599981e+03,-5.877456860027e+03
    4253,4.401142400122e+02,1.550245859778e+03,-6.059719490009e+03
    4254,3.478508718005e+02,1.579586181398e+03,5.623362926402e+02
    4255,2.633629617994e+02,1.595814671004e+03,4.597114332400e+02
    4256,-9.150663000661e+02,-1.333084881973e+03,-6.140161674006e+03
    4257,-7.775522400201e+02,-1.418613402047e+03,-6.011693261008e+03
    4258,-8.799451400670e+02,-1.356949954025e+03,-5.865673854000e+03
    4259,-1.010803300054e+03,-1.261524925991e+03,-5.994145650007e+03
    4260,-1.109393839961e+03,-1.174873505986e+03,-6.129327964018e+03
    4261,-1.202004160057e+03,-1.078989925602e+03,-6.239043548005e+03
    4262,-1.024887299927e+03,-1.249743812001e+03,-6.249653144010e+03
    4263,-1.401628680087e+03,-8.007386139914e+02,-5.874087243990e+03
    4264,-1.460446539857e+03,-6.861862259946e+02,-5.968663600015e+03
    4265,-1.409314380067e+03,-7.865987940117e+02,-6.095793824006e+03
    4266,-1.472816393180e+03,6.688393166017e+02,3.185157085700e+02
    4267,-1.413393665995e+03,7.873821140084e+02,9.735878059974e+01
    4268,1.573175073956e+03,-3.664841639373e+02,-3.722573400008e+03
    4269,1.534062519936e+03,-5.025490259758e+02,-3.623023420004e+03
    4270,1.551539640095e+03,-4.473146380032e+02,-3.835061958008e+03
    4271,4.130620521972e+02,-1.565918959931e+03,-3.572791006001e+03
    4272,5.055615942012e+02,-1.538474490006e+03,-3.699395876011e+03
    4273,-1.433478820243e+03,7.395024399876e+02,-7.240236003196e+03
    4274,-1.371148420230e+03,8.527410000249e+02,-7.126249296609e+03
    4275,-1.303790160133e+03,9.567818199206e+02,-7.270875899195e+03
    4276,-2.539640140114e+02,1.597961582015e+03,-9.916474740020e+02
    4277,-1.378674079960e+02,1.611937313993e+03,-9.768985519968e+02
    4278,-1.166829160178e+02,1.613718094013e+03,-1.114633947995e+03
    4279,-2.329559959890e+02,1.601274879989e+03,-1.129371595992e+03
    4280,1.529650220057e+03,5.161326959842e+02,-6.956467679997e+03
    4281,1.563610459998e+03,4.013726299989e+02,-6.825991650023e+03
    4282,1.581537340128e+03,3.199729119972e+02,-6.911800694028e+03
    4283,1.553521819879e+03,4.363022240089e+02,-7.042298553985e+03
    4284,-1.012134062602e+03,-1.262789178005e+03,-1.932165996800e+03
    4285,-9.323264814801e+02,-1.323090721931e+03,-1.809169096399e+03
    4286,-1.037639239603e+03,-1.241744629975e+03,-1.687633061601e+03
    4287,-1.112181461989e+03,-1.175049685987e+03,-1.810630144601e+03
    4288,-1.609350140023e+03,8.561505001298e+01,-4.273994594016e+03
    4289,-1.602701740016e+03,1.660095460032e+02,-4.176015970009e+03
    4290,-1.590431639790e+03,2.568329099889e+02,-4.242873832002e+03
    4291,-1.352837240087e+03,-8.803693559863e+02,-6.443673810003e+03
    4292,-1.287614820005e+03,-9.738091620000e+02,-6.558196122004e+03
    4293,-1.283271840069e+03,-9.799415740003e+02,-6.343449055991e+03
    4294,5.546143000900e+02,1.498622579594e+03,-5.838329990025e+03
    4295,6.753349802383e+02,1.453774900408e+03,-5.754630642007e+03
    4296,7.432547200377e+02,1.427925859988e+03,-5.844661544008e+03
    4297,6.253483799161e+02,1.480123919821e+03,-5.928334799969e+03
    4298,3.480586394362e+02,1.528805201962e+03,-5.751893377988e+03
    4299,5.091838404232e+02,1.498622200950e+03,-5.712386073993e+03
    4300,1.607895293989e+03,1.816860680001e+02,-8.128435002007e+02
    4301,1.605360024015e+03,2.019700800029e+02,-7.001164365991e+02
    4302,1.615542379978e+03,9.217420599799e+01,-6.743809451985e+02
    4303,1.616689543992e+03,7.176986199790e+01,-7.871077979982e+02
    4304,7.219447512195e+02,1.447487463600e+03,4.759813511983e+02
    4305,5.823301904198e+02,1.509063700400e+03,5.692349853996e+02
    4306,6.706830501400e+02,1.471928056199e+03,6.711398085990e+02
    4307,8.063981912796e+02,1.402179323801e+03,5.778879301991e+02
    4308,-3.058792003456e+01,1.622213480093e+03,-6.534867452020e+03
    4309,-1.666302599762e+02,1.615767699983e+03,-6.507848677994e+03
    4310,3.118478360237e+02,-1.591068239985e+03,-4.911318688009e+03
    4311,3.995662599929e+02,-1.571134279912e+03,-4.807781773991e+03
    4312,-5.537159799966e+02,-1.520807463996e+03,-4.201221785973e+02
    4313,-6.040831440065e+02,-1.501637034027e+03,-5.920585370020e+02
    4314,3.506244801895e+02,1.565578620518e+03,-5.020754602006e+03
    4315,3.635678198719e+02,1.565586679734e+03,-4.879774556006e+03
    4316,4.799688198626e+02,1.531944840489e+03,-4.899517673999e+03
    4317,3.090727720157e+02,-1.592930820079e+03,-6.134304202011e+03
    4318,1.396059939868e+03,-8.105626779736e+02,-4.032587332920e+03
    4319,1.345341640056e+03,-8.928757039961e+02,-4.118036103802e+03
    4320,1.402129039991e+03,-8.002439619779e+02,-4.216222199800e+03
    4321,1.447332460004e+03,-7.147718699895e+02,-4.130776749402e+03
    4322,4.640480202409e+02,1.538803700214e+03,-4.574540165994e+03
    4323,3.326223001893e+02,1.575328200125e+03,-4.512294751993e+03
    4324,3.906464597663e+02,1.561685339823e+03,-4.394942271993e+03
    4325,5.207618797176e+02,1.520714799838e+03,-4.457152459991e+03
    4326,1.049332160628e+02,1.614358055983e+03,-2.277720668801e+03
    4327,2.240888360514e+02,1.601569234400e+03,-2.225566930002e+03
    4328,2.889372959376e+02,1.590715412015e+03,-2.358263229520e+03
    4329,1.704075879623e+02,1.608386146201e+03,-2.410415047198e+03
    4330,-5.546873402004e+02,1.551419399854e+03,-5.906504272199e+03
    4331,-6.554840200336e+02,1.509435198971e+03,-5.814783015992e+03
    4332,-6.029925201827e+02,1.547720800257e+03,-5.720375599995e+03
    4333,-5.013516397955e+02,1.589395001221e+03,-5.812102627680e+03
    4334,5.404049919846e+02,-1.524064366002e+03,-1.320559654603e+03
    4335,5.834003719909e+02,-1.508057594003e+03,-1.488009869204e+03
    4336,-4.885084760463e+02,-1.543884439930e+03,-5.645844039199e+03
    4337,-4.287064839737e+02,-1.561864599993e+03,-5.473938186002e+03
    4338,-5.377498800345e+02,-1.527227119971e+03,-5.424201800366e+03
    4339,-5.258932319999e+02,-1.531427857965e+03,-1.915802491603e+03
    4340,-5.906656493991e+02,-1.507630253945e+03,-2.054285163000e+03
    4341,-4.769164499922e+02,-1.547469994068e+03,-2.145482545796e+03
    4342,-3.376105820088e+02,-1.584458559941e+03,-5.185154790795e+03
    4343,-3.278226699726e+02,-1.586577660078e+03,-5.407150143796e+03
    4344,-2.019274120010e+02,-1.607967380082e+03,-5.344650810605e+03
    4345,-2.118421739765e+02,-1.606583039863e+03,-5.122646140007e+03
    4346,-1.322144569965e+03,9.355300599338e+02,-1.771590808000e+03
    4347,-1.269549696028e+03,1.006388700024e+03,-1.840933353006e+03
    4348,-1.305941038027e+03,9.583839799889e+02,-1.913111905799e+03
    4349,-1.355812465981e+03,8.855802400282e+02,-1.843771573202e+03
    4350,-1.473905219980e+03,-6.560013579703e+02,-6.213550669994e+03
    4351,-1.423152840088e+03,-7.605684939952e+02,-6.341674646014e+03
    4352,-1.349336359916e+03,-8.861705480069e+02,-6.223896218011e+03
    4353,1.618302720143e+03,-9.028761601562e+01,-2.628746225397e+03
    4354,1.620412319995e+03,1.227519999487e+01,-2.590914777401e+03
    4355,1.618836419964e+03,-7.074503998821e+01,-2.441814076400e+03
    4356,-8.479027799991e+02,-1.378915360019e+03,-2.987652789999e+03
    4357,-9.636311340163e+02,-1.300275536029e+03,-2.904007214204e+03
    4358,-1.028464926008e+03,-1.249278549975e+03,-3.024802622597e+03
    4359,-9.169144000059e+02,-1.333729581995e+03,-3.108449697803e+03
    4360,1.159818742068e+03,-1.125945318400e+03,-4.445984902004e+03
    4361,1.212051728006e+03,-1.068640111990e+03,-4.298729418008e+03
    4362,1.358113099905e+03,-8.734445840097e+02,-4.299864586601e+03
    4363,1.273952380018e+03,-9.930554720150e+02,-4.192681802396e+03
    4364,1.303200560052e+03,-9.542631880039e+02,-4.405908377997e+03
    4365,1.569258020080e+03,-3.778874779906e+02,-5.498045230001e+03
    4366,1.587482359896e+03,-2.930196320167e+02,-5.347876518014e+03
    4367,1.562336799886e+03,-4.061064540155e+02,-5.273840289982e+03
    4368,1.538214520080e+03,-4.894942339838e+02,-5.424003895993e+03
    4369,1.412533192593e+03,-7.871904219979e+02,-2.234831442402e+03
    4370,1.482305276007e+03,-6.486426972085e+02,-2.253711858401e+03
    4371,1.486029132010e+03,-6.404249601996e+02,-2.103231390800e+03
    4372,1.441159980078e+03,7.395913273990e+02,-3.505157675003e+03
    4373,1.460917679884e+03,7.023305600035e+02,-3.682466485792e+03
    4374,1.370906952024e+03,8.593083559956e+02,-3.544309175999e+03
    4375,1.526593039874e+03,5.451373260078e+02,-3.239805473994e+03
    4376,1.496682219983e+03,6.228488059850e+02,-3.390507382201e+03
    4377,1.487721760122e+03,6.413586801998e+02,-3.266223834798e+03
    4378,4.744757379944e+02,-1.545959913999e+03,-1.939735419996e+02
    4379,4.869564768087e+02,-1.542124602000e+03,2.350875659897e+01
    4380,3.215907718035e+02,-1.585024851409e+03,-1.374936850004e+02
    4381,-1.523239679952e+03,-5.349388979915e+02,-3.824042090002e+03
    4382,-1.478069319948e+03,-6.507998531991e+02,-3.816662608010e+03
    4383,-1.479937180096e+03,-6.465733979999e+02,-3.713027147986e+03
    4384,-1.524754979975e+03,-5.305755599911e+02,-3.720407864017e+03
    4385,1.590563880078e+03,-2.670539519703e+02,-6.838280046017e+03
    4386,1.576732220014e+03,-3.407641340080e+02,-6.660195000008e+03
    4387,1.539284579942e+03,-4.850514580089e+02,-6.739371988595e+03
    4388,1.559781919883e+03,-4.129122739644e+02,-6.917450713998e+03
    4389,1.560320360083e+03,-4.114076560529e+02,-7.157871078008e+03
    4390,1.585135500011e+03,-2.982425139763e+02,-7.051942674003e+03
    4391,1.526928219901e+03,-5.240016359637e+02,-7.023384842198e+03
    4392,-1.555174740098e+03,-4.352657280111e+02,-1.318460874001e+03
    4393,-1.589015060069e+03,-2.865816999893e+02,-1.417623638002e+03
    4394,-1.570497540132e+03,-3.747440700175e+02,-1.543094088016e+03
    4395,-1.528553220026e+03,-5.213406820076e+02,-1.443914229993e+03
    4396,1.071945156023e+03,-1.210297840600e+03,-3.760122613995e+03
    4397,1.010310564029e+03,-1.262585592402e+03,-3.557064450004e+03
    4398,9.631042960129e+02,-1.299445090009e+03,-3.698669468000e+03
    4399,-1.477022217988e+03,-6.577478419924e+02,4.544911393978e+02
    4400,-1.416281732033e+03,-7.797719499845e+02,3.575468707970e+02
    4401,-1.448646593999e+03,-7.185801901986e+02,5.904468934032e+02
    4402,-1.477235579879e+03,6.427476160156e+02,-4.696871695998e+03
    4403,-1.400343239946e+03,7.988308579937e+02,-4.661954555991e+03
    4404,-1.379337600282e+03,8.347966439689e+02,-4.783913738000e+03
    4405,1.313138740000e+03,-9.420435199899e+02,-5.421587222397e+03
    4406,1.401173220041e+03,-8.036799664041e+02,-5.538525641399e+03
    4407,1.446197440064e+03,-7.184383773916e+02,-5.419216134201e+03
    4408,1.366437759939e+03,-8.617297936199e+02,-5.302278990200e+03
    4409,4.690614600695e+02,1.550099499883e+03,-7.269485274018e+03
    4410,5.423374598808e+02,1.524047388060e+03,-7.124775170003e+03
    4411,-7.079556629196e+02,-1.456122603940e+03,-2.553373877000e+03
    4412,-5.880334251400e+02,-1.508747054033e+03,-2.698493528800e+03
    4413,-4.721047785982e+02,-1.549046509950e+03,-2.578478238797e+03
    4414,-5.956802409964e+02,-1.505703161957e+03,-2.433368048599e+03
    4415,4.535993520192e+02,1.551835308002e+03,-1.450658122599e+03
    4416,3.465788480238e+02,1.579504175999e+03,-1.358502197020e+03
    4417,4.192275080098e+02,1.561653203985e+03,-1.279170937998e+03
    4418,5.248618879925e+02,1.529082508001e+03,-1.371312666800e+03
    4419,-9.549826339751e+02,-1.305077476021e+03,-5.478354668008e+03
    4420,-9.577600680156e+02,-1.303153848024e+03,-5.323240007994e+03
    4421,-1.074096979932e+03,-1.208339178005e+03,-5.305549233998e+03
    4422,-1.071508439962e+03,-1.210502276021e+03,-5.460665581998e+03
    4423,-1.598094779957e+03,2.088108560343e+02,-4.927529067985e+03
    4424,-1.591037220071e+03,2.570257959797e+02,-5.026862505996e+03
    4425,-1.605766219992e+03,1.390648580301e+02,-5.071594442014e+03
    4426,-1.609333760038e+03,9.046511198977e+01,-4.972256616001e+03
    4427,-8.856477780197e+02,1.360891919791e+03,-5.844688143998e+03
    4428,-7.691247598853e+02,1.439422839620e+03,-5.885958881983e+03
    4429,-7.903006201311e+02,1.425897200269e+03,-6.021049064005e+03
    4430,-9.071910839967e+02,1.348305219881e+03,-5.979752154000e+03
    4431,1.479835623989e+03,6.517147360172e+02,-9.516046895975e+02
    4432,1.445034426011e+03,7.250322039653e+02,-1.095795325796e+03
    4433,1.379536961964e+03,8.424736579859e+02,-1.018289019000e+03
    4434,1.420296528014e+03,7.722928019704e+02,-8.741000772011e+02
    4435,-5.006910140334e+02,1.539435248035e+03,-2.925288199945e+02
    4436,-6.797628398596e+02,1.487338000472e+03,-4.832788096012e+03
    4437,-5.728924402868e+02,1.530331339516e+03,-4.771236705962e+03
    4438,-5.137067398997e+02,1.550933619962e+03,-4.893937674061e+03
    4439,-6.222949201100e+02,1.512866020160e+03,-4.955468472059e+03
    4440,-8.313849397212e+02,1.406041560216e+03,-4.783116375969e+03
    4441,-7.212683000419e+02,1.466974959716e+03,-4.728827521973e+03
    4442,-7.915269997935e+02,1.429682699583e+03,-4.887111764010e+03
    4443,-7.525785998112e+02,1.446794920358e+03,-4.323785058004e+03
    4444,-6.622821000764e+02,1.489749920385e+03,-4.282378911979e+03
    4445,-6.122444001293e+02,1.511994580131e+03,-4.410391153968e+03
    4446,1.586860228640e+03,3.133240636021e+02,6.225103099000e+02
    4447,1.551884266600e+03,4.558299814020e+02,7.323881722604e+02
    4448,1.600571746800e+03,2.334880383992e+02,7.576129980200e+02
    4449,-6.710365398368e+02,1.511825199123e+03,-5.549146729988e+03
    4450,-7.775221199310e+02,1.437656259431e+03,-5.503084894014e+03
    4451,-6.345606799119e+02,1.532501800594e+03,-5.430000561988e+03
    4452,9.318104999868e+02,-1.320791295995e+03,-2.695501823400e+03
    4453,8.121997019970e+02,-1.398164997999e+03,-2.661945312008e+03
    4454,-1.534324120016e+03,-5.030161039869e+02,-1.793890234008e+03
    4455,-1.484293859997e+03,-6.370785559965e+02,-1.730467787999e+03
    4456,-1.506370380018e+03,-5.825431940100e+02,-1.601811531992e+03
    4457,-1.551572959924e+03,-4.467727159948e+02,-1.665231977985e+03
    4458,-4.080044197989e+01,1.617930555973e+03,-2.193548240003e+03
    4459,7.149666201978e+01,1.616327981990e+03,-2.172975888808e+03
    4460,-7.305284057562e+00,1.618324293969e+03,-2.298288541999e+03
    4461,-1.241434208028e+03,1.039581620053e+03,-1.011549874004e+03
    4462,-1.209431285968e+03,1.076973178042e+03,-1.143898990001e+03
    4463,-1.289111246006e+03,9.800555520339e+02,-1.203248312997e+03
    4464,-1.318131018013e+03,9.402887440430e+02,-1.070899359199e+03
    4465,-1.407296628003e+03,-7.941885970799e+02,-2.234397849995e+03
    4466,-1.351692370026e+03,-8.864734199920e+02,-2.284128308006e+03
    4467,-1.326287096037e+03,-9.244203439955e+02,-2.160389708003e+03
    4468,-1.384481263944e+03,-8.337513209990e+02,-2.110660182005e+03
    4469,1.600718561608e+03,-2.337632226008e+02,5.400378590000e+02
    4470,1.576635593592e+03,-3.620707569985e+02,6.413084862011e+02
    4471,1.583084652001e+03,-3.331210277998e+02,4.237303415986e+02
    4472,-1.494513500062e+03,-6.096584559927e+02,-4.851654081994e+03
    4473,-1.478106100059e+03,-6.485691679883e+02,-4.991007244016e+03
    4474,-1.412810680000e+03,-7.819846832039e+02,-4.946248507989e+03
    4475,-1.432714160008e+03,-7.447292819973e+02,-4.806887627998e+03
    4476,7.296532556018e+02,1.443686257596e+03,-8.643886999980e+01
    4477,8.354706779822e+02,1.384649142395e+03,-1.469830340026e+02
    4478,-7.570999599887e+02,1.444900739936e+03,-6.480970704201e+03
    4479,-6.813628999096e+02,1.482270879711e+03,-6.302730694598e+03
    4480,-6.452109999455e+02,1.497886200185e+03,-6.466063804995e+03
    4481,1.213765255601e+03,-1.068793168003e+03,-5.125025869900e+02
    4482,1.099972247996e+03,-1.185276340015e+03,-5.035331310799e+02
    4483,1.093715548005e+03,-1.190935439991e+03,-6.452383814600e+02
    4484,1.208127890199e+03,-1.075053039998e+03,-6.542102732799e+02
    4485,-1.032708348002e+03,-1.245768243978e+03,-1.396367354800e+03
    4486,-1.130051635986e+03,-1.157684725988e+03,-1.544004844003e+03
    4487,-9.337517010020e+02,-1.322010523991e+03,-1.539996879400e+03
    4488,5.847957199324e+02,1.495401579858e+03,-4.640653228005e+03
    4489,6.708911399608e+02,1.459342319791e+03,-4.531380482005e+03
    4490,7.618172402844e+02,1.414267939822e+03,-4.597525712002e+03
    4491,6.779680397928e+02,1.455198380406e+03,-4.706807673985e+03
    4492,-7.714252406058e+02,-1.422502812034e+03,-1.507938777985e+02
    4493,-6.373196539995e+02,-1.487536313980e+03,-2.010840945999e+02
    4494,-5.824169022027e+02,-1.509754448020e+03,-2.627637420439e+01
    4495,9.405768319357e+02,-1.321618839863e+03,-6.844321250012e+03
    4496,1.091098528030e+03,-1.198791460128e+03,-6.879906300010e+03
    4497,1.033485880003e+03,-1.249203699860e+03,-6.768692532006e+03
    4498,1.155741869994e+03,-1.135438139863e+03,-6.814151799989e+03
    4499,1.178417240417e+02,-1.617923339919e+03,-6.156489341989e+03
    4500,2.969275759819e+02,-1.595088459932e+03,-5.997439623982e+03
    4501,1.055148599676e+02,-1.618643279924e+03,-6.019625663996e+03
    4502,-3.895516004690e+01,1.619887580015e+03,-6.170417250018e+03
    4503,-1.560297160060e+03,-4.170800760083e+02,-1.155295728007e+03
    4504,-1.524483840052e+03,-5.341130400126e+02,-1.095722781998e+03
    4505,-1.535555840012e+03,-5.015368879993e+02,-9.796428979843e+02
    4506,-1.568926320012e+03,-3.837809700357e+02,-1.039204602016e+03
    4507,-3.610621919930e+02,-1.579058240120e+03,-3.869103009204e+03
    4508,-4.903730500137e+02,-1.543508059983e+03,-4.009737568799e+03
    4509,-3.923692619860e+02,-1.571535200087e+03,-4.144261848196e+03
    4510,-2.610722259827e+02,-1.598845179983e+03,-4.003628066396e+03
    4511,8.074449019817e+02,1.399046484007e+03,-1.857280119996e+03
    4512,9.077277800298e+02,1.335720433960e+03,-1.944218249994e+03
    4513,8.372366959451e+02,1.380941165977e+03,-2.053835023998e+03
    4514,7.338453580632e+02,1.439042576020e+03,-1.966896073996e+03
    4515,6.099041999801e+02,1.492307879994e+03,-3.454455828008e+03
    4516,5.739849000440e+02,1.506150059914e+03,-3.608584284014e+03
    4517,4.974138200381e+02,1.534581639987e+03,-3.440576831994e+03
    4518,-1.058044941979e+03,-1.223889773965e+03,-3.501976387791e+03
    4519,-9.722268940332e+02,-1.293579005983e+03,-3.419692928806e+03
    4520,-1.035426793976e+03,-1.243307193937e+03,-3.333475843998e+03
    4521,-1.117650748021e+03,-1.169418593982e+03,-3.415756863991e+03
    4522,1.483930980077e+03,6.554176219617e+02,-4.170747886009e+03
    4523,1.427604320099e+03,7.692920200183e+02,-4.233019578003e+03
    4524,1.395826379936e+03,8.235374100274e+02,-4.092917496000e+03
    4525,1.456970179954e+03,7.121868360034e+02,-4.030633535997e+03
    4526,1.343567900021e+03,8.960813759969e+02,-6.986454342014e+03
    4527,1.273459299944e+03,9.916661039903e+02,-7.137570492032e+03
    4528,1.194741479897e+03,1.085315067972e+03,-7.089425194006e+03
    4529,1.271892020098e+03,9.952411840064e+02,-6.938362374028e+03
    4530,1.162261500026e+03,1.119253410035e+03,-7.275445450010e+03
    4531,5.385693799560e+01,1.617058285987e+03,-2.002007135194e+03
    4532,1.495398379719e+02,1.610623178593e+03,-2.111757383201e+03
    4533,-2.438462998596e+01,1.618107046007e+03,-2.063227728001e+03
    4534,-1.519439200023e+03,-5.428905019919e+02,-5.172940760017e+03
    4535,-1.565197359876e+03,-3.890332119841e+02,-5.229140334010e+03
    4536,-1.551752239881e+03,-4.399177640220e+02,-5.364446536000e+03
    4537,-1.501030439873e+03,-5.922090860161e+02,-5.308234260007e+03
    4538,-1.467127452201e+03,6.827604520283e+02,-1.500829885598e+03
    4539,-1.486806370801e+03,6.383068720186e+02,-1.369964954400e+03
    4540,-1.429155098013e+03,7.599825479466e+02,-1.309326987160e+03
    4541,-1.405879189976e+03,8.026601400641e+02,-1.440178174640e+03
    4542,-1.488047422004e+03,6.348104460705e+02,-1.697272286399e+03
    4543,-1.514839910012e+03,5.669292839858e+02,-1.571921991199e+03
    4544,-1.435159756017e+03,7.483729120508e+02,-1.626164440999e+03
    4545,-2.139822879900e+02,-1.606003079981e+03,-4.266856508807e+03
    4546,-4.796263160015e+02,-1.546896459944e+03,-4.279868535801e+03
    4547,-1.234898817985e+03,-1.044214775601e+03,2.787715324004e+02
    4548,-1.354159263976e+03,-8.834178220085e+02,2.655899134028e+02
    4549,-1.171960155995e+03,-1.114665410398e+03,1.509374797988e+02
    4550,-1.079208067400e+03,-1.204954761593e+03,2.450762609991e+02
    4551,1.524203191946e+03,-5.448656004400e+02,-2.575781905600e+03
    4552,1.568525200032e+03,-4.043470519939e+02,-2.622944486201e+03
    4553,1.539072552061e+03,-5.025171455987e+02,-2.429551266799e+03
    4554,-5.892297779843e+02,-1.508270299968e+03,-3.854781463720e+03
    4555,-6.946912119934e+02,-1.462340217973e+03,-3.943406502000e+03
    4556,-5.985926720099e+02,-1.504512220017e+03,-4.098364181440e+03
    4557,7.234161420148e+02,-1.446295233601e+03,-2.433359261998e+03
    4558,6.775745140100e+02,-1.468744279993e+03,-2.597271462001e+03
    4559,8.557445460334e+02,-1.371513989985e+03,-2.498048834400e+03
    4560,5.418089559944e+02,-1.524614124018e+03,-2.568246652007e+03
    4561,5.183297619987e+02,-1.533052576000e+03,-2.758947470000e+03
    4562,-1.215292089941e+03,1.070697660022e+03,-6.968600891994e+03
    4563,-1.272622180015e+03,9.982245000356e+02,-6.860526891993e+03
    4564,-1.216019600007e+03,1.069302859860e+03,-6.782833593995e+03
    4565,-1.154739448003e+03,1.138455900126e+03,-6.890931776002e+03
    4566,-1.453742699787e+03,-6.978665520023e+02,-7.075299756015e+03
    4567,-1.391076779984e+03,-8.163177420266e+02,-7.180457056016e+03
    4568,-1.338553540052e+03,-9.008120760168e+02,-7.076394012000e+03
    4569,-1.408384479976e+03,-7.864281039945e+02,-6.971249656000e+03
    4570,1.481333200037e+03,6.404759899786e+02,-7.132062242036e+03
    4571,1.404337359930e+03,7.973691740146e+02,-7.003192537981e+03
    4572,1.485346040045e+03,6.333236740066e+02,-6.979935789997e+03
    4573,6.109470479832e+02,-1.497695572993e+03,-2.342527951995e+03
    4574,5.188789619966e+02,-1.532281315986e+03,-2.219888836005e+03
    4575,4.489730639979e+02,-1.554550012021e+03,-2.308384656001e+03
    4576,5.425282960062e+02,-1.524201736001e+03,-2.431020047991e+03
    4577,-2.202955220064e+02,-1.603504431992e+03,-9.420610296007e+02
    4578,-9.406324799808e+01,-1.615757862001e+03,-1.133605472194e+03
    4579,-6.169293860082e+02,1.496420089965e+03,-2.977519399941e+02
    4580,-7.651640779992e+02,1.426098730021e+03,-3.325525300023e+02
    4581,-7.911490920164e+02,1.411692114028e+03,-1.868661659976e+02
    4582,-6.442254840111e+02,1.484714804010e+03,-1.520601140007e+02
    4583,-1.926381859997e+02,-1.607182539993e+03,-1.179160825798e+03
    4584,-9.911532999178e+01,-1.615615803981e+03,-1.369955477192e+03
    4585,-1.253276019919e+03,1.024366680274e+03,-7.161945883602e+03
    4586,-1.172421746003e+03,1.119339619737e+03,-7.275936940603e+03
    4587,9.375515280204e+02,-1.316544523996e+03,-2.567500301203e+03
    4588,9.197301680237e+02,-1.328992763984e+03,-2.362069525802e+03
    4589,-1.598360699723e+03,1.876018539556e+02,-7.178056581997e+03
    4590,-1.603585919715e+03,1.375786999761e+02,-7.076267222007e+03
    4591,-1.590435660229e+03,2.459539419778e+02,-7.018400590006e+03
    4592,1.299195010060e+02,-1.614677720015e+03,-3.528544641996e+03
    4593,1.093701940041e+02,-1.616409839860e+03,-3.743360810004e+03
    4594,2.384130740020e+02,-1.602223980020e+03,-3.626594026003e+03
    4595,3.151918100019e+02,-1.588884439999e+03,-3.704974505991e+03
    4596,2.059948540071e+02,-1.606960619919e+03,-3.823540688012e+03
    4597,4.055936160021e+02,-1.568161719935e+03,-3.777167049987e+03
    4598,1.496223819981e+02,-1.612682759976e+03,-3.217965079994e+03
    4599,2.397287606011e+02,-1.601541765936e+03,-3.120344679994e+03
    4600,9.080633420002e+01,-1.616991179978e+03,-3.031936568006e+03
    4601,6.186139800076e+02,1.489482100064e+03,-6.166884692026e+03
    4602,4.593750000944e+02,1.547704660068e+03,-6.192710917989e+03
    4603,6.003329400169e+02,1.494721620096e+03,-6.033881342027e+03
    4604,1.576653839927e+03,-3.443476406022e+02,-5.826324478004e+03
    4605,1.586599520116e+03,-2.939535004601e+02,-5.987690428005e+03
    4606,1.608642460038e+03,-1.283522011999e+02,-5.926514147995e+03
    4607,1.603931559924e+03,-1.795270409958e+02,-5.765158507986e+03
    4608,4.458104360024e+02,-1.554848049004e+03,-1.654279542409e+03
    4609,2.468818600038e+02,-1.599142275987e+03,-1.642486397209e+03
    4610,1.145374620243e+02,-1.617875600104e+03,-5.778113609993e+03
    4611,2.182955760402e+02,-1.607459360033e+03,-5.831440306004e+03
    4612,-3.110501080309e+02,-1.590114760101e+03,-6.036728122604e+03
    4613,-2.287557979685e+02,-1.604400159892e+03,-5.846433575999e+03
    4614,-3.631617759367e+02,-1.578724520052e+03,-5.795600023204e+03
    4615,-4.439441320381e+02,-1.557502900114e+03,-5.985896535600e+03
    4616,-1.521376779992e+03,-5.479040759927e+02,5.117581625963e+02
    4617,-1.533706333997e+03,-5.114797360045e+02,3.992959575985e+02
    4618,-1.491997670034e+03,-6.223518539850e+02,3.420288073982e+02
    4619,-4.718769759974e+02,-1.548732398012e+03,-1.373651521802e+03
    4620,-4.044245639917e+02,-1.567595248040e+03,-1.226848354001e+03
    4621,-5.172407020064e+02,-1.534085334049e+03,-1.185289530603e+03
    4622,-5.831253040022e+02,-1.510337555932e+03,-1.332095894796e+03
    4623,-2.937965279977e+02,-1.591998572044e+03,-1.301440138796e+03
    4624,-3.045897860002e+02,-1.589860659989e+03,-1.104565046402e+03
    4625,-6.248807439963e+02,1.493080841991e+03,-4.537382040013e+02
    4626,1.163987636001e+03,-1.128172739967e+03,-7.280522766008e+03
    4627,1.253060856001e+03,-1.026224259942e+03,-7.170088327988e+03
    4628,1.312965904016e+03,-9.472246200440e+02,-7.274123645999e+03
    4629,5.617272800112e+02,-1.522881139725e+03,-6.574311448001e+03
    4630,-7.413513540336e+02,-1.439025877976e+03,-4.096266081601e+03
    4631,-8.047932559715e+02,-1.404341663991e+03,-3.903359100598e+03
    4632,-8.495161719866e+02,-1.377499083972e+03,-4.056228188603e+03
    4633,3.103724457998e+02,1.587746523995e+03,2.478012556400e+02
    4634,-1.613545935978e+03,-9.408972199110e+01,-4.003596980080e+02
    4635,-1.614826521977e+03,7.879826599342e+01,-4.324206979894e+02
    4636,-1.615608100007e+03,4.987263001593e+01,-5.987477439997e+02
    4637,-1.611293425962e+03,-1.229637860132e+02,-5.666842720117e+02
    4638,-9.332780200128e+01,-1.617387779967e+03,-3.711689816004e+03
    4639,-6.331370599969e+01,-1.618693800040e+03,-3.460334418008e+03
    4640,-1.255179939900e+03,-1.014457466002e+03,-7.181066416000e+03
    4641,-1.190325200096e+03,-1.090675697207e+03,-7.080125992013e+03
    4642,5.155180100171e+02,1.532608238005e+03,-9.052981656006e+02
    4643,5.823343559855e+02,1.508556592004e+03,-7.731881096024e+02
    4644,6.191873699951e+02,1.493674145996e+03,-8.668887329994e+02
    4645,2.361878860070e+02,-1.604163019963e+03,-5.027578479997e+03
    4646,3.550207119669e+02,-1.582280899942e+03,-5.154588942006e+03
    4647,4.294795419887e+02,-1.563483919978e+03,-5.038335852013e+03
    4648,-7.337433940029e+02,-1.442608066022e+03,-5.458257760015e+02
    4649,-6.549015340071e+02,-1.480272416011e+03,-7.575486575999e+02
    4650,-2.028224819297e+02,-1.608093439885e+03,-6.111257030799e+03
    4651,-1.021767160514e+02,-1.618066019910e+03,-6.039154702003e+03
    4652,1.524708040038e+03,5.263870400185e+02,-7.224633757992e+03
    4653,5.674551199911e+02,1.484587001071e+03,-5.351494972000e+03
    4654,6.363384797790e+02,1.461469799232e+03,-5.478803677991e+03
    4655,5.345743200245e+02,1.485960999799e+03,-5.548852947997e+03
    4656,4.639071999295e+02,1.502417399485e+03,-5.421710370796e+03
    4657,3.460075998611e+02,1.510631998967e+03,-5.565099107999e+03
    4658,3.723487003496e+02,1.527372200084e+03,-5.329029626001e+03
    4659,-1.330590487995e+03,-9.182565843973e+02,-5.157225088073e+02
    4660,-1.268849881969e+03,-1.002319337800e+03,-6.801463550018e+02
    4661,-1.229269939995e+03,-1.050786535195e+03,-8.042296086002e+02
    4662,1.132058210050e+03,-1.152735684032e+03,-2.855132894402e+03
    4663,1.141370677992e+03,-1.143687958035e+03,-2.987845261605e+03
    4664,1.233768592039e+03,-1.042785558051e+03,-2.973782463399e+03
    4665,-1.262718755796e+03,1.011275460198e+03,5.164236942002e+02
    4666,1.343831761992e+03,8.989787780113e+02,-3.094469871960e+02
    4667,1.326736155992e+03,9.241489199915e+02,-1.551715803970e+02
    4668,1.414395118012e+03,7.837618640030e+02,-1.482451438038e+02
    4669,1.428877629993e+03,7.569836959935e+02,-3.025159678031e+02
    4670,-3.386844399745e+02,-1.584262959961e+03,-5.652156412797e+03
    4671,-2.365530079772e+02,-1.603163980020e+03,-5.585369217395e+03
    4672,-6.127114859926e+02,1.497702055985e+03,5.078246999473e+01
    4673,-7.460740600047e+02,1.435797544014e+03,7.973537180273e+01
    4674,-5.123328680723e+02,-1.535997479944e+03,-5.789288476500e+03
    4675,-8.734695001075e+02,-1.360498106026e+03,-6.880649890007e+03
    4676,-1.044842400018e+03,-1.232284262004e+03,-6.881164820000e+03
    4677,-9.510638600576e+02,-1.306715576001e+03,-6.974397288000e+03
    4678,-1.560942728066e+03,-4.180447979880e+02,-6.097574000384e+01
    4679,-1.558882910039e+03,-4.265180680081e+02,1.769639416036e+02
    4680,-1.592956066032e+03,-2.726588579919e+02,-6.983188000342e+01
    4681,-1.137175959868e+03,-1.146911843000e+03,-6.778264511993e+03
    4682,-1.123545960105e+03,-1.160119745800e+03,-6.978994232014e+03
    4683,-1.215320100063e+03,-1.063178016798e+03,-6.669706308004e+03
    4684,1.560639060291e+03,4.051459239983e+02,-7.287208840020e+03
    4685,1.489622081602e+03,6.295427620102e+02,-3.225232676018e+02
    4686,1.484868868001e+03,6.405464919841e+02,-4.345585923962e+02
    4687,1.423156677990e+03,7.675251940142e+02,-4.145528217991e+02
    4688,-7.688869599785e+02,-1.422979242048e+03,-7.276323677404e+03
    4689,8.606991459929e+02,-1.370463199998e+03,-3.978784641982e+03
    4690,7.051576331802e+02,-1.457386058025e+03,-3.910332016006e+03
    4691,6.511926682013e+02,-1.482747879977e+03,-4.064683286018e+03
    4692,-2.168315900040e+02,-1.603309585985e+03,1.005047670027e+02
    4693,-3.332343978022e+02,-1.583259255997e+03,1.937348589964e+02
    4694,-4.026031380015e+02,-1.567166683983e+03,8.523957820175e+01
    4695,-2.871957601971e+02,-1.592341149992e+03,-7.987216196397e+00
    4696,-5.264054427962e+02,-1.530057085987e+03,1.311142828010e+02
    4697,1.483586199918e+03,-6.351591140530e+02,-3.535066190996e+03
    4698,-1.192102275195e+03,1.093623252796e+03,6.532734063997e+02
    4699,-8.401481600017e+02,1.382818659990e+03,5.943461499865e+01
    4700,-9.298002940033e+02,1.324178240015e+03,2.658151880626e+01
    4701,-9.714646359983e+02,1.293857592002e+03,1.484371827945e+02
    4702,3.372751643956e+02,-1.584047160025e+03,-3.494404991992e+03
    4703,1.306174871973e+02,-1.614541459975e+03,-3.438658659998e+03
    4704,-8.998975232029e+02,-1.345259488010e+03,-1.184331186960e+03
    4705,-8.987373517968e+02,-1.345968076014e+03,-1.030435965520e+03
    4706,-1.006992760800e+03,-1.266690086022e+03,-1.194869577399e+03
    4707,-7.617795040077e+02,-1.428279280037e+03,-1.082626229599e+03
    4708,-7.112787360025e+02,-1.454067390021e+03,-9.206426461999e+02
    4709,-9.972230848201e+02,-1.274151251966e+03,-4.900363395797e+02
    4710,-9.626371608008e+02,-1.300481454005e+03,-2.757233414560e+02
    4711,-1.089927595001e+03,-1.195378950016e+03,-2.475143915981e+02
    4712,-8.215176261964e+02,-1.394234799995e+03,-3.314324316008e+02
    4713,-1.046796828016e+03,1.242860520064e+03,-6.769068803991e+03
    4714,-1.034526407945e+03,1.253916999904e+03,-6.615536900002e+03
    4715,-9.143301599479e+02,1.347694999782e+03,-6.638164339998e+03
    4716,-6.887273959991e+02,-1.464550508021e+03,-3.734210604016e+02
    4717,-8.642714597991e+02,-1.368176473992e+03,-5.038416617997e+02
    4718,-8.145435265993e+02,-1.397834473992e+03,4.093621929998e+02
    4719,-7.173609968022e+02,-1.450099014001e+03,4.971750522020e+02
    4720,-8.163868705993e+02,-1.396618061996e+03,6.375876128011e+02
    4721,8.850399640245e+02,-1.353635281602e+03,-3.204328961997e+03
    4722,9.832773799500e+02,1.280218391964e+03,-7.282647760200e+03
    4723,4.389800603198e+02,1.503185801471e+03,-5.619662668017e+03
    4724,6.022828399142e+02,1.472489200034e+03,-5.641632622010e+03
    4725,4.205563398740e+02,1.563334840047e+03,-7.072981506015e+03
    4726,-9.010470559734e+02,1.353433640054e+03,-7.273549606399e+03
    4727,-2.345311784000e+02,-1.602640780013e+03,-3.112658144391e+03
    4728,-3.746407942002e+02,-1.575648220007e+03,-2.981178282197e+03
    4729,-4.900305717997e+02,-1.543546540044e+03,-3.063734669601e+03
    4730,-3.523106340026e+02,-1.580881160033e+03,-3.195211591599e+03
    4731,1.035647398004e+03,-1.241482798403e+03,-3.362812969993e+03
    4732,9.147943999813e+02,-1.333741668000e+03,-3.325568959996e+03
    4733,8.876326459984e+02,-1.352403436006e+03,-3.519822261997e+03
    4734,-2.444005859968e+02,-1.599236472008e+03,3.378078731993e+02
    4735,-3.572522992043e+02,-1.577892882003e+03,4.383412546003e+02
    4736,-4.447194794006e+02,-1.555628493986e+03,2.942646643991e+02
    4737,-1.257244080019e+02,-1.612797337992e+03,4.078847397989e+02
    4738,-1.194608617968e+02,-1.613364890008e+03,1.527688440018e+02
    4739,2.900723452200e+02,-1.593003460009e+03,-3.016734603997e+03
    4740,-9.521165019882e+01,-1.614804435803e+03,6.596384646003e+02
    4741,-2.203751628017e+02,-1.602615701792e+03,5.868056948013e+02
    4742,-1.590362299820e+03,-2.642117099878e+02,-5.447213589997e+03
    4743,-1.575225099738e+03,-3.439882620063e+02,-5.588375109985e+03
    4744,-1.527865480002e+03,-5.175395819826e+02,-5.505602995995e+03
    4745,-5.827687760076e+02,-1.510606541932e+03,-1.688513259002e+03
    4746,-5.239494180084e+02,-1.531973640045e+03,-1.534375084996e+03
    4747,-6.434166819920e+02,-1.485674325933e+03,-1.485564487601e+03
    4748,1.221009978404e+03,1.060635147997e+03,7.201646709987e+02
    4749,1.317686655192e+03,9.377603116024e+02,6.781040428002e+02
    4750,1.281629468194e+03,9.863987215971e+02,5.789706617988e+02
    4751,1.180434421397e+03,1.105580432600e+03,6.210322245986e+02
    4752,-1.554700560045e+03,-4.314689840030e+02,-4.750732974011e+03
    4753,-1.542493039983e+03,-4.733223819962e+02,-4.894400416006e+03
    4754,-1.510400020041e+03,-5.690453860157e+02,-4.707989590000e+03
    4755,-1.041366588005e+02,-1.614573324018e+03,-2.011127888041e+02
    4756,-9.796711419934e+01,-1.614898899997e+03,-8.729171820046e+01
    4757,1.317203245964e+03,-9.404262399589e+02,-7.053644681997e+03
    4758,4.149355074054e+02,-1.564376863981e+03,-2.574610634008e+03
    4759,4.156777600012e+02,-1.564033953991e+03,-2.437382170003e+03
    4760,-6.694688799870e+02,1.487582120241e+03,-6.180626081202e+03
    4761,-6.655570198910e+02,1.491343839736e+03,-6.040787682201e+03
    4762,1.513531820140e+03,5.810307000548e+02,-4.756819744006e+03
    4763,1.557628979963e+03,4.445378720186e+02,-4.802531734008e+03
    4764,1.543452000054e+03,4.914839279995e+02,-4.908769552024e+03
    4765,1.495229920077e+03,6.265688960352e+02,-4.863060498014e+03
    4766,7.735364040170e+02,-1.421139067999e+03,-3.383649936012e+03
    4767,-5.953239745961e+02,-1.504416735999e+03,3.849543284010e+02
    4768,-1.191901430000e+03,-1.092792365969e+03,-3.781191787994e+03
    4769,-1.265248392018e+03,-1.006436792022e+03,-3.668614258007e+03
    4770,-1.334172793934e+03,-9.122362100045e+02,-3.763886086010e+03
    4771,-1.267263845953e+03,-1.003663971989e+03,-3.876468480012e+03
    4772,-2.445223200343e+02,1.609623599482e+03,-6.091648124068e+03
    4773,2.408108288009e+02,-1.601149717971e+03,-2.850681166005e+03
    4774,1.797178312604e+02,-1.609377052058e+03,-2.982382379998e+03
    4775,3.504530593984e+02,-1.580543111992e+03,-2.885038506002e+03
    4776,1.350770290007e+03,8.893222073986e+02,5.230528592016e+02
    4777,1.297469868002e+03,9.653124439958e+02,3.951191475972e+02
    4778,1.222882615996e+03,1.058269045006e+03,4.510382485981e+02
    4779,8.864309120220e+02,-1.358724600044e+03,-6.740428958013e+03
    4780,9.754367559662e+02,-1.295290179994e+03,-6.620064332002e+03
    4781,8.885930580048e+02,-1.356888559879e+03,-6.536224327997e+03
    4782,7.955658299357e+02,-1.414236979717e+03,-6.656609331997e+03
    4783,-1.122423526401e+03,-1.164536670200e+03,7.493916960007e+02
    4784,-9.341525553199e+02,-1.320590759198e+03,7.527694187995e+02
    4785,1.543748039897e+03,-4.702007539582e+02,-3.306563153206e+03
    4786,1.496084540077e+03,-6.052906660316e+02,-3.214301561805e+03
    4787,1.514090900083e+03,-5.583311199304e+02,-3.421035375208e+03
    4788,-5.801474597212e+02,1.553418601056e+03,-5.308283139953e+03
    4789,-4.831064001159e+02,1.610392799026e+03,-5.366557633953e+03
    4790,-1.259150979757e+02,-1.616173619940e+03,-5.773578998005e+03
    4791,-1.589223979724e+03,2.541126460180e+02,-6.912933293991e+03
    4792,-1.563971040080e+03,3.796050199583e+02,-6.911222791802e+03
    4793,-3.348538539910e+02,-1.583962655997e+03,-1.402605324999e+03
    4794,-1.408515860057e+02,-1.612644928072e+03,-1.471115877607e+03
    4795,-7.002464500087e+02,-1.459610818007e+03,-1.283684518800e+03
    4796,-7.583844239988e+02,-1.430246581952e+03,-1.437145540801e+03
    4797,-8.697086284004e+02,-1.365132147998e+03,-1.368487816160e+03
    4798,2.188360550079e+02,-1.603751276007e+03,-2.158598048001e+03
    4799,3.573564319964e+02,-1.578356979975e+03,-2.234958438007e+03
    4800,4.033060759986e+02,-1.566974727982e+03,-2.109270640006e+03
    4801,2.986021789981e+02,-1.591000863958e+03,-2.561885069996e+03
    4802,2.672442800021e+02,-1.596780928054e+03,-2.718516890001e+03
    4803,3.840852356004e+02,-1.572479218046e+03,-2.731238599993e+03
    4804,-1.598011660136e+03,-2.014802199402e+02,-7.053611677995e+03
    4805,-1.600230499998e+03,-1.795383360019e+02,-7.240039367984e+03
    4806,-1.581714659881e+03,-3.040477219474e+02,-7.282430438007e+03
    4807,-1.577812540094e+03,-3.257323500089e+02,-7.095991799993e+03
    4808,-4.506741140088e+02,-1.554845354020e+03,-1.028996957803e+03
    4809,-5.802774820073e+02,-1.511249471991e+03,-9.736557565964e+02
    4810,-6.448296920032e+02,-1.484907737935e+03,-1.129946982800e+03
    4811,7.609497059686e+02,-1.433586980255e+03,-6.820730816001e+03
    4812,6.660621679318e+02,-1.480099640269e+03,-6.629732058010e+03
    4813,-1.588981259870e+03,-2.776388579834e+02,-3.163892619989e+03
    4814,-1.597718959915e+03,-2.197162599885e+02,-3.306695901992e+03
    4815,-1.574909179865e+03,-3.504495920099e+02,-3.343099045999e+03
    4816,-1.561435980070e+03,-4.074609440055e+02,-3.200282580001e+03
    4817,1.169427583979e+03,1.115941211997e+03,-6.305192539935e+02
    4818,1.235833953977e+03,1.041726092020e+03,-8.070228736052e+02
    4819,1.120864243986e+03,1.164457597985e+03,-8.753222419967e+02
    4820,1.047177899984e+03,1.231436821985e+03,-6.988086074037e+02
    4821,-3.941230011387e+02,1.636564002180e+03,-5.315743491930e+03
    4822,-1.077381236395e+03,1.214127739786e+03,-7.250455928797e+03
    4823,-1.171271858004e+03,1.120754620107e+03,-7.074556126801e+03
    4824,1.380657738006e+03,-8.428387999072e+02,-7.156957209997e+03
    4825,1.437914459971e+03,-7.389835400134e+02,-7.267545297797e+03
    4826,4.156048200653e+02,1.560997510055e+03,-2.814815904402e+03
    4827,3.122311019825e+02,1.585723023996e+03,-2.809535311999e+03
    4828,3.229172999833e+02,1.583618465986e+03,-2.701398594802e+03
    4829,4.261362400438e+02,1.558264507953e+03,-2.706665669397e+03
    4830,9.574779799475e+02,1.298617280017e+03,-6.619492373799e+03
    4831,1.093308539862e+03,1.188205056066e+03,-6.669252525995e+03
    4832,1.213908943937e+03,-1.066062284045e+03,-2.367393813700e+03
    4833,1.271036553988e+03,-9.976094760404e+02,-2.329674882199e+03
    4834,1.224554939979e+03,-1.054195386048e+03,-2.208406866840e+03
    4835,1.252379379961e+03,-1.020495540029e+03,-2.474418665720e+03
    4836,1.317640114014e+03,-9.350909279315e+02,-2.505975584602e+03
    4837,1.334798747985e+03,-9.110805339646e+02,-2.361222807600e+03
    4838,1.202377069963e+03,-1.078819170060e+03,-2.516005366200e+03
    4839,1.503948620004e+03,5.947423879917e+02,-1.848497226003e+02
    4840,1.427565378002e+03,7.597101320061e+02,4.135755601207e+00
    4841,1.513852132400e+03,5.691868479946e+02,-3.247215400041e+01
    4842,-1.530483040057e+03,-5.140827359825e+02,-2.116372331994e+03
    4843,-1.558195880012e+03,-4.210148440288e+02,-2.235387393993e+03
    4844,-1.522283080144e+03,-5.379504319998e+02,-2.326127157987e+03
    4845,-1.487642219984e+03,-6.286662580029e+02,-2.207109870018e+03
    4846,-1.091506700036e+03,-1.190376565000e+03,-7.181338346016e+03
    4847,-1.018977999922e+03,-1.253779273988e+03,-7.080199885988e+03
    4848,-6.252857440209e+02,1.493167884015e+03,-1.113121811988e+03
    4849,-4.854194360245e+02,1.544098071971e+03,-1.162872881994e+03
    4850,-5.302455279800e+02,1.529568024028e+03,-1.314578588005e+03
    4851,-6.685727359852e+02,1.474588749931e+03,-1.264830353985e+03
    4852,7.580476749500e+02,1.428885017980e+03,7.707111150008e+02
    4853,-1.101734660106e+02,-1.617273039950e+03,-5.520202177995e+03
    4854,-1.453561420042e+03,-7.048606839967e+02,-2.126884406003e+03
    4855,-1.394416235952e+03,-8.168649211992e+02,-1.993992464000e+03
    4856,-1.461933960065e+03,-6.871549639945e+02,-2.010207716000e+03
    4857,-1.412035659962e+03,-7.856007645955e+02,-2.879322980006e+03
    4858,-1.456658099961e+03,-6.982492362005e+02,-3.042119280010e+03
    4859,-1.403781617960e+03,-8.003946199975e+02,-3.096289632014e+03
    4860,-1.353038241968e+03,-8.843381399937e+02,-2.933480229997e+03
    4861,-1.157813120081e+03,-1.125154154005e+03,-7.283503930003e+03
    4862,-1.315799779922e+03,-9.335043940303e+02,-7.283042558013e+03
    4863,-2.216006659985e+02,-1.602374375802e+03,7.885794372000e+02
    4864,-3.339567526014e+02,-1.582857690406e+03,6.806439256021e+02
    4865,1.496327102006e+03,6.133111379919e+02,-6.326606440039e+02
    4866,1.537486021620e+03,5.020916900069e+02,-7.251310239988e+02
    4867,1.499182714007e+03,6.062517160083e+02,-8.371895389998e+02
    4868,1.450500205986e+03,7.143875320137e+02,-7.447200773959e+02
    4869,1.613742939859e+03,-4.231673800396e+01,-5.726907335972e+03
    4870,1.612547840049e+03,-7.836430000505e+01,-5.582445876005e+03
    4871,1.599685780034e+03,-2.153220900053e+02,-5.620695814016e+03
    4872,8.458558199993e+02,1.375219640031e+03,-2.249824383993e+03
    4873,9.069605000103e+02,1.335333239948e+03,-2.352910787985e+03
    4874,8.145373399875e+02,1.393595380078e+03,-2.445195733996e+03
    4875,4.441522401693e+01,1.617113073991e+03,-1.230836295407e+03
    4876,2.017146419898e+02,1.604767801001e+03,-1.212343118399e+03
    4877,2.344716240182e+02,1.600258466998e+03,-1.356905349601e+03
    4878,7.746076002107e+01,1.615862230002e+03,-1.375403724399e+03
    4879,2.522142899772e+02,1.597329014004e+03,-2.047204357200e+03
    4880,1.731312120272e+02,1.608179703399e+03,-1.936934573397e+03
    4881,2.713717520293e+02,1.594183528004e+03,-1.867962844400e+03
    4882,3.496418000261e+02,1.578485640004e+03,-1.978231780000e+03
    4883,-9.330695734011e+02,-1.322615219968e+03,-2.302117047199e+03
    4884,-1.045707379992e+03,-1.235006873997e+03,-2.156542329204e+03
    4885,-1.124643410013e+03,-1.163108801995e+03,-2.290183262796e+03
    4886,-1.018074518005e+03,-1.258000258009e+03,-2.435759054999e+03
    4887,1.533411229200e+03,5.143920400016e+02,-1.018146837798e+03
    4888,1.563262128005e+03,4.162272739863e+02,-1.116597997401e+03
    4889,1.537454979404e+03,5.024837060140e+02,-1.224574583602e+03
    4890,1.502174412793e+03,5.988325700010e+02,-1.126124549401e+03
    4891,1.911808120087e+02,-1.606440209995e+03,-9.774248062044e+02
    4892,4.207068919968e+02,-1.561558765009e+03,-1.040488253402e+03
    4893,3.060277160028e+02,-1.588250407980e+03,-8.957726265981e+02
    4894,9.729898800480e+01,-1.615018768009e+03,-9.037009519964e+02
    4895,-1.317847026007e+03,9.385799779962e+02,1.040090275987e+02
    4896,-1.408651041990e+03,7.962526659921e+02,-7.690576539869e+01
    4897,1.229845599969e+03,1.047063719967e+03,-3.814584731602e+03
    4898,1.205167418026e+03,1.073818059872e+03,-3.634525244197e+03
    4899,1.288972767982e+03,9.746849740661e+02,-3.605259398201e+03
    4900,1.121761379939e+03,1.158557440052e+03,-3.667331984003e+03
    4901,1.091954659895e+03,1.186110900125e+03,-3.531957560001e+03
    4902,1.177273760067e+03,1.103296720088e+03,-3.499156385408e+03
    4903,1.395624871986e+03,-8.147827120183e+02,-2.690501021402e+03
    4904,1.402055633967e+03,-8.044298660047e+02,-2.532916740602e+03
    4905,1.393747428050e+03,-8.172209219974e+02,-2.838010997601e+03
    4906,1.460649019998e+03,-6.920971719908e+02,-2.841257354200e+03
    4907,1.462571612001e+03,-6.896772520061e+02,-2.693721231997e+03
    4908,6.930817540049e+02,-1.460970764003e+03,-2.190501224003e+03
    4909,5.883779059819e+02,-1.506579613999e+03,-2.127908082005e+03
    4910,1.125109936046e+03,-1.159367225978e+03,-2.698047233996e+03
    4911,-9.745637199827e+02,-1.288867086016e+03,-7.283176765993e+03
    4912,8.919432105982e+01,-1.616928262050e+03,-2.822126808007e+03
    4913,3.235649920011e+02,-1.585854727992e+03,-2.363948520004e+03
    4914,-1.955981001445e+02,1.613973419803e+03,-6.674365628012e+03
    4915,-4.077485996982e+01,1.622997519752e+03,-6.665798752026e+03
    4916,2.098090400010e+02,-1.605152001993e+03,-2.359235236004e+03
    4917,1.104978259991e+03,1.176223504023e+03,-7.173073949995e+03
    4918,1.145067840011e+03,1.137794162008e+03,-7.001144070005e+03
    4919,1.314103514025e+03,-9.391870819711e+02,-2.990528028600e+03
    4920,1.392907154021e+03,-8.176521899328e+02,-2.989229345804e+03
    4921,1.158720119979e+03,1.127295850024e+03,-3.337411512016e+02
    4922,1.143134681984e+03,1.142974357996e+03,-4.885700486005e+02
    4923,1.018361661976e+03,1.255554162005e+03,-4.748456821997e+02
    4924,1.209630003300e+03,-1.073637136595e+03,-1.895905018201e+02
    4925,1.162814695997e+03,-1.123978576000e+03,-3.310044929719e+02
    4926,1.276915018598e+03,-9.928063234078e+02,-4.081386303002e+02
    4927,1.318036471202e+03,-9.377256950000e+02,-2.667216788202e+02
    4928,-1.466897260288e+03,6.696956800348e+02,-5.381620913001e+03
    4929,-1.422916700254e+03,7.591199979857e+02,-5.489441341601e+03
    4930,-1.457190619860e+03,6.911073520245e+02,-5.572528650402e+03
    4931,-1.496918199738e+03,5.996843679724e+02,-5.464696842798e+03
    4932,-4.687155287986e+02,-1.548434656005e+03,5.321754638004e+02
    4933,1.553360213995e+03,-4.545674687971e+02,-2.820397053799e+03
    4934,1.555607380031e+03,-4.495536994021e+02,-2.713398804402e+03
    4935,1.518433254013e+03,-5.594090299998e+02,-2.713346052397e+03
    4936,1.515855970996e+03,-5.643023479870e+02,-2.820341089404e+03
    4937,-1.292460758003e+02,-1.612920378000e+03,-4.258885803959e+02
    4938,1.545741790004e+03,-4.791649047979e+02,-6.581053137979e+02
    4939,1.570384306005e+03,-3.914971180089e+02,-7.869123640003e+02
    4940,1.594122101972e+03,-2.795574479994e+02,-7.206217628014e+02
    4941,1.575758964032e+03,-3.687482399941e+02,-5.918110807988e+02
    4942,-3.828333900117e+02,1.573020232017e+03,-1.590625109988e+03
    4943,-4.415259959721e+02,1.557839743951e+03,-1.681851433982e+03
    4944,-5.372883339666e+02,1.527591532048e+03,-1.616545881986e+03
    4945,-4.796591979798e+02,1.546371801981e+03,-1.525324721991e+03
    4946,1.592818486017e+03,-2.877087319961e+02,-9.200520255999e+02
    4947,1.541550713997e+03,-4.927832019925e+02,-8.664955725992e+02
    4948,1.570732149968e+03,-3.906788440077e+02,-9.996324495990e+02
    4949,1.531067640117e+03,-5.124066060020e+02,-7.267960337404e+03
    4950,1.485899799928e+03,-6.338458880587e+02,-7.150568303398e+03
    4951,-6.277745401742e+01,1.617775711962e+03,-2.756003187998e+03
    4952,-8.869895005455e+01,1.616589707994e+03,-2.607630713987e+03
    4953,4.544162401470e+01,1.617522436009e+03,-2.581912088001e+03
    4954,7.136137997864e+01,1.616444927988e+03,-2.730302583192e+03
    4955,5.404838719981e+02,-1.523946459989e+03,-9.294062468003e+02
    4956,6.146126940002e+02,-1.495465542016e+03,-8.151172795990e+02
    4957,4.936927639992e+02,-1.539829100017e+03,-7.218076261994e+02
    4958,4.175424340049e+02,-1.562364648001e+03,-8.360978391992e+02
    4959,-4.451559179872e+02,-1.557257919931e+03,-3.752659942602e+03
    4960,-2.201427459976e+02,-1.604966380059e+03,-3.758720036192e+03
    4961,-1.270105560109e+02,-1.615199699987e+03,-3.950229703994e+03
    4962,3.545667600683e+02,1.576262749984e+03,-2.944033392000e+03
    4963,2.159058639563e+02,1.602401782015e+03,-2.850035631602e+03
    4964,-1.211384525992e+03,1.072506029996e+03,8.335752999938e+01
    4965,-9.060222198588e+02,-1.338620412024e+03,-7.174322248007e+03
    4966,-8.224207999667e+02,-1.392653205972e+03,-6.270794306791e+03
    4967,-7.102126000184e+02,-1.453840007956e+03,-6.151981479003e+03
    4968,-2.377892200761e+02,1.605293280122e+03,-3.863262361996e+03
    4969,-9.688770014125e+01,1.617889979949e+03,-3.934586818002e+03
    4970,-1.506476200702e+02,1.614917080028e+03,-4.041501576008e+03
    4971,-2.910576799488e+02,1.597675020010e+03,-3.970183016001e+03
    4972,-1.364878700276e+03,8.591957460321e+02,-6.493460725003e+03
    4973,-1.429540839969e+03,7.436299980509e+02,-6.649933077002e+03
    4974,8.786477400002e+02,1.351583279889e+03,-5.088905250801e+03
    4975,9.740409999911e+02,1.288661660053e+03,-5.085417369804e+03
    4976,1.120410980072e+03,1.170037713997e+03,-5.121337807398e+03
    4977,1.019662066017e+03,1.257417865993e+03,-5.193755443207e+03
    4978,1.054825844199e+03,-1.225977302393e+03,2.178419202999e+02
    4979,9.410671261972e+02,-1.315220240004e+03,2.209826840197e+02
    4980,9.411025705964e+02,-1.315128301999e+03,8.365823724009e+01
    4981,1.054860471203e+03,-1.225882831994e+03,8.051629216017e+01
    4982,1.576503002007e+03,3.625967659916e+02,-5.538211427995e+02
    4983,1.606405855995e+03,1.929046619971e+02,-5.526282904001e+02
    4984,1.574458634009e+03,3.714837779927e+02,-7.013111332196e+02
    4985,-1.562844579940e+03,3.928316760110e+02,-4.974294234001e+03
    4986,-1.584870100105e+03,2.914512039968e+02,-4.844904492002e+03
    4987,-1.625282805964e+02,-1.611653519958e+03,-3.307621169797e+03
    4988,-4.603127491956e+02,-1.552758959985e+03,-3.300817259802e+03
    4989,-8.311229998035e+02,1.400632239446e+03,-4.064080766033e+03
    4990,-9.622754400225e+02,1.312096499841e+03,-3.989024215996e+03
    4991,-9.155432799709e+02,1.345085839712e+03,-3.865042287986e+03
    4992,-7.810635800907e+02,1.428439840138e+03,-3.940127917991e+03
    4993,-2.816247639912e+02,-1.594347009950e+03,-1.605913821801e+03
    4994,9.689451261989e+02,1.295123331920e+03,7.767309239980e+02
    4995,8.868323499203e+02,1.352707186940e+03,6.799675907984e+02
    4996,-1.516479854597e+03,-5.621972356014e+02,7.176423462019e+02
    4997,6.063868399928e+02,1.494855479875e+03,-6.276675345979e+03
    4998,5.561456398803e+02,1.514908739985e+03,-6.372999481970e+03
    4999,-1.290971533999e+03,9.794032798650e+02,-2.831006776604e+03
    5000,-1.253983261952e+03,1.027063020069e+03,-2.704483277009e+03
    5001,-1.168470340048e+03,1.124732320021e+03,-2.748802601992e+03
    5002,-1.209327291929e+03,1.080327960115e+03,-2.875319517992e+03
    5003,7.302336000706e+02,1.437428219945e+03,-6.191458408025e+03
    5004,7.182296201201e+02,1.443394700079e+03,-6.301213860022e+03
    5005,-1.258308645968e+03,1.021911620069e+03,-3.004484143804e+03
    5006,-1.315284097989e+03,9.455829201341e+02,-3.127436161199e+03
    5007,-1.364924644594e+03,8.704713599716e+02,-3.061504298598e+03
    5008,-1.312362564014e+03,9.499091999869e+02,-2.938556930199e+03
    5009,7.039737799619e+02,1.450547659867e+03,-6.425803396018e+03
    5010,-1.060086800009e+03,1.232246600230e+03,-4.676581942008e+03
    5011,-9.250626597878e+02,1.342843920208e+03,-4.749209759992e+03
    5012,-9.698947599310e+02,1.307543820202e+03,-4.888780005994e+03
    5013,-3.957830799969e+02,1.572990699936e+03,-3.084802450035e+03
    5014,-4.967057399195e+02,1.544771720062e+03,-3.071340705971e+03
    5015,-4.718399799576e+02,1.552056619987e+03,-2.972731564035e+03
    5016,-3.704847399643e+02,1.578681140141e+03,-2.986197104002e+03
    5017,-7.458834799405e+02,1.456289860361e+03,-5.777210650001e+03
    5018,-8.437121839886e+02,1.389746880544e+03,-5.719687749989e+03
    5019,-8.086153280046e+02,1.415220840542e+03,-5.607663876002e+03
    5020,-7.108432002141e+02,1.483206799748e+03,-5.665097580013e+03
    5021,-1.211427225967e+03,-1.071657307993e+03,-1.804914885602e+03
    5022,-1.233127285973e+03,-1.046386890015e+03,-1.621487000795e+03
    5023,-1.342349768059e+03,-9.006872825982e+02,-1.649268217992e+03
    5024,-1.323629325996e+03,-9.282367539969e+02,-1.832684474003e+03
    5025,-9.772911306007e+02,-1.289199786007e+03,2.646011439600e+02
    5026,-1.607614859979e+03,1.544227180161e+02,-1.656548986009e+03
    5027,-1.614612059867e+03,-5.522988029273e+00,-1.591691629990e+03
    5028,-1.614245320111e+03,4.806232201155e+01,-1.477997434014e+03
    5029,-1.602040960056e+03,2.076988239769e+02,-1.542844746011e+03
    5030,1.589123180055e+03,-2.760181820725e+02,-7.275162479997e+03
    5031,1.611805179728e+03,-2.992147602375e+01,-7.281911168035e+03
    5032,1.602585060282e+03,-1.784892139801e+02,-7.171483933995e+03
    5033,-1.566912900061e+03,-3.856132720049e+02,-3.736716706015e+03
    5034,-1.531629940037e+03,-5.100392800017e+02,-3.586474750016e+03
    5035,-1.571821459963e+03,-3.645154659819e+02,-3.602786423999e+03
    5036,1.024508099973e+03,-1.249701948031e+03,-2.709251217799e+03
    5037,-1.232309458033e+03,1.053871999946e+03,-3.171422856604e+03
    5038,-1.177161300051e+03,1.116169279935e+03,-3.063726962008e+03
    5039,-1.093276679869e+03,1.199863960289e+03,-3.147928474017e+03
    5040,-1.152996160029e+03,1.141922180092e+03,-3.255608854001e+03
    5041,-8.149647496047e+02,-1.398582597950e+03,-1.236355972000e+03
    5042,-9.524443941997e+02,-1.308460914011e+03,-1.316454316000e+03
    5043,8.289366133960e+02,-1.388677674005e+03,4.107506576997e+02
    5044,9.359489495998e+02,-1.319031318602e+03,5.541463172199e+02
    5045,8.233329899996e+02,-1.392107681599e+03,6.493960695398e+02
    5046,7.109201715988e+02,-1.452661112993e+03,5.060031354580e+02
    5047,-1.509137989971e+03,-5.772500880094e+02,-6.386255140016e+02
    5048,-1.491584554035e+03,-6.211714999978e+02,-7.824170300049e+02
    5049,1.469599684193e+03,-6.756602480069e+02,-2.556181698797e+03
    5050,-1.579405951968e+03,3.460655660290e+02,-1.033908765998e+03
    5051,-1.600140503992e+03,2.278161220187e+02,-1.079601234002e+03
    5052,-1.604339266005e+03,1.963080079715e+02,-9.761700180013e+02
    5053,-1.585898641969e+03,3.149381940228e+02,-9.304773280023e+02
    5054,6.167590200012e+02,1.494245590027e+03,-1.291632986200e+03
    5055,5.413588900052e+02,1.523428138016e+03,-1.191842072800e+03
    5056,6.435745159863e+02,1.483032647991e+03,-1.119024811002e+03
    5057,7.168223839793e+02,1.448786380023e+03,-1.218819121398e+03
    5058,1.295708420066e+03,-9.642692760581e+02,-3.284960338820e+03
    5059,1.236708111945e+03,-1.039456391964e+03,-3.362404082998e+03
    5060,3.254178620324e+02,1.583258057991e+03,-2.549682323200e+03
    5061,1.950894499315e+02,1.605317523592e+03,-2.705981396801e+03
    5062,1.976091940716e+02,1.605053295401e+03,-2.554270666199e+03
    5063,1.329799980064e+03,-9.158655900123e+02,-3.942988365402e+03
    5064,1.804530399695e+01,1.618165825978e+03,-2.438063138006e+03
    5065,1.402128799971e+03,-8.007397400408e+02,-3.142026974200e+03
    5066,1.294923582025e+03,-9.654255639652e+02,-3.157584843560e+03
    5067,-5.444066999846e+02,1.528359220038e+03,-2.914534473974e+03
    5068,-6.175157000938e+02,1.501152100092e+03,-3.036234291989e+03
    5069,-7.239679000642e+02,1.453052320248e+03,-2.982257308023e+03
    5070,-6.530756199449e+02,1.485526380029e+03,-2.860535899986e+03
    5071,1.212678146044e+03,-1.067519255979e+03,-3.140835341199e+03
    5072,-9.457701197845e+02,1.311808019923e+03,-5.652949519998e+03
    5073,-1.022371520253e+03,1.248084573998e+03,-5.549758492003e+03
    5074,-9.674256001821e+02,1.294800920091e+03,-5.462715031999e+03
    5075,-8.884364000978e+02,1.355931239836e+03,-5.565905324014e+03
    5076,1.475290218010e+03,-6.648464639999e+02,-1.246106240199e+03
    5077,1.468890262009e+03,-6.787556547998e+02,-1.066951516199e+03
    5078,1.407007182005e+03,-7.985036992009e+02,-1.060316532080e+03
    5079,1.414517545991e+03,-7.851548033980e+02,-1.239471666380e+03
    5080,-2.389052759891e+02,1.602251199982e+03,-2.629905885985e+03
    5081,-1.879613380209e+02,1.608958540024e+03,-2.785377968007e+03
    5082,-3.094075000142e+02,1.591011599904e+03,-2.844913355998e+03
    5083,-3.596971939696e+02,1.580370580016e+03,-2.689463683995e+03
    5084,1.174014456045e+03,-1.110403684002e+03,-3.814185418006e+03
    5085,1.262323840025e+03,-1.007691257979e+03,-3.880266439198e+03
    5086,1.118655487986e+03,-1.168236388013e+03,-5.005407334017e+03
    5087,1.207971245989e+03,-1.074236706003e+03,-4.914253529992e+03
    5088,1.136750948008e+03,-1.150016807999e+03,-4.788002154004e+03
    5089,1.041596917965e+03,-1.238092389969e+03,-4.879166131982e+03
    5090,-1.616005251989e+03,-5.079004201564e+01,-1.233107880159e+02
    5091,-1.602837590011e+03,-2.076177680060e+02,-1.961809200055e+02
    5092,-9.418787659842e+02,1.317603715928e+03,-1.322286030000e+03
    5093,-1.063040528010e+03,1.222160452057e+03,-1.357219778005e+03
    5094,-1.082656165973e+03,1.204574768025e+03,-1.232352029993e+03
    5095,-9.630675859956e+02,1.301996409946e+03,-1.197409039997e+03
    5096,1.298789479863e+03,9.721200999178e+02,-5.366079182017e+03
    5097,1.341860480016e+03,9.100901000193e+02,-5.507428730009e+03
    5098,1.264059860102e+03,1.017613679973e+03,-5.573675420000e+03
    5099,1.215841959932e+03,1.075740660116e+03,-5.432285285992e+03
    5100,-1.506501719951e+03,5.818190720482e+02,-3.102394801986e+03
    5101,-1.425625300061e+03,7.637089799973e+02,-3.079975485002e+03
    5102,-1.428013826005e+03,7.582409200307e+02,-3.255054402004e+03
    5103,-1.508133800104e+03,5.760162760161e+02,-3.277463202009e+03
    5104,1.318504160078e+03,9.435592200295e+02,-5.720089088003e+03
    5105,1.241021339995e+03,1.044722579920e+03,-5.789753137999e+03
    5106,1.058274093987e+03,1.222549170005e+03,-6.110014704015e+03
    5107,9.632511079970e+02,1.296454500000e+03,-6.114006896401e+03
    5108,1.617570559003e+03,-6.129840399494e+00,7.617419493395e+02
    5109,-2.596578360135e+02,1.596922896012e+03,-8.440416739926e+02
    5110,-2.548653019861e+02,1.597704567994e+03,-6.883494239958e+02
    5111,-1.647973019929e+02,1.609295063393e+03,-7.069129840022e+02
    5112,-1.696380539978e+02,1.608836795994e+03,-8.626165599911e+02
    5113,-1.526398416602e+03,5.349145290042e+02,3.590562829984e+02
    5114,-1.606464860009e+03,1.710128460019e+02,-1.392864025982e+03
    5115,-1.587036978022e+03,3.057576300100e+02,-1.357382519987e+03
    5116,-1.579594293971e+03,3.419724880189e+02,-1.507358745985e+03
    5117,-1.567619533199e+03,3.992151979911e+02,2.302003005990e+02
    5118,-1.611404340034e+03,8.957161402789e+01,-2.125981746012e+03
    5119,-1.596237680103e+03,2.425378059706e+02,-2.110468088014e+03
    5120,-1.593449939871e+03,2.590203760334e+02,-2.244712592013e+03
    5121,-1.610183040037e+03,1.062170119893e+02,-2.260225848015e+03
    5122,1.060289797597e+03,-1.221137462000e+03,-3.067602848009e+01
    5123,9.592117936060e+02,-1.301879185986e+03,-1.102458093199e+02
    5124,1.027637330405e+03,-1.248575271994e+03,-2.274271221199e+02
    5125,1.124254137403e+03,-1.162550559997e+03,-1.478546495999e+02
    5126,1.466139855989e+03,-6.840718794027e+02,-7.908361019945e+01
    5127,1.521255244001e+03,-5.509533951979e+02,-5.009158719981e+01
    5128,1.508584744006e+03,-5.845175868035e+02,1.057878376007e+02
    5129,8.025124760159e+02,-1.403398573984e+03,-2.281349117202e+03
    5130,1.515957724006e+03,-5.659484984086e+02,-5.219745582020e+02
    5131,1.555686397983e+03,-4.454957236004e+02,-4.642169462013e+02
    5132,1.531663928013e+03,-5.217844916009e+02,-3.336120734003e+02
    5133,1.486015081992e+03,-6.401200305982e+02,-3.913708136020e+02
    5134,1.522722743797e+03,5.451230418004e+02,1.195587142019e+02
    5135,1.578112679600e+03,3.549506592045e+02,6.539996970024e+01
    5136,1.531972601994e+03,-5.200791719965e+02,2.004859042016e+02
    5137,1.562345118007e+03,-4.199643859972e+02,3.115741888021e+02
    5138,1.493197439991e+03,-6.225532882034e+02,2.967936462019e+02
    5139,8.710395200143e+02,-1.361916243980e+03,-8.113231104004e+02
    5140,9.726449599940e+02,-1.291453070019e+03,-7.020635742397e+02
    5141,8.870068719888e+02,-1.351726409978e+03,-5.920456299796e+02
    5142,7.810820340108e+02,-1.415514210006e+03,-7.013031098006e+02
    5143,1.412342766012e+02,-1.612670444003e+03,-2.234149337992e+03
    5144,-4.361648199189e+02,1.591821200120e+03,-5.172569992050e+03
    5145,-2.967224600464e+02,1.615200599603e+03,-5.119100913984e+03
    5146,-1.478841700110e+03,-6.460765640076e+02,-5.429436755988e+03
    5147,-1.416055579965e+03,-7.754497779974e+02,-5.375801068005e+03
    5148,-1.442960819854e+03,-7.237638939994e+02,-5.254601504017e+03
    5149,1.021460840058e+03,1.246590899778e+03,-4.429929050602e+03
    5150,-1.513558877990e+03,-5.660307720095e+02,-3.027743279998e+02
    5151,-1.507442945935e+03,-5.823550179910e+02,-7.394187799745e+01
    5152,-1.565305123942e+03,-4.011572740091e+02,-2.898181040060e+02
    5153,-6.033139400008e+02,1.508697020166e+03,-3.463264835982e+03
    5154,-7.421825200470e+02,1.446006160145e+03,-3.441227571967e+03
    5155,-7.221808000985e+02,1.455416119792e+03,-3.316514525967e+03
    5156,-5.824480799564e+02,1.516151719864e+03,-3.338565978027e+03
    5157,2.386148720133e+02,1.599621984202e+03,-1.492841078599e+03
    5158,2.769845160049e+02,1.593288494005e+03,-1.619068671400e+03
    5159,1.522097840232e+02,1.610387136398e+03,-1.645498832999e+03
    5160,1.134607199872e+02,1.613679451995e+03,-1.519274390802e+03
    5161,-1.607838095931e+03,-1.588001120006e+02,-7.382527040039e+02
    5162,-1.586184451965e+03,-3.066933580109e+02,-6.991239920024e+02
    5163,-1.592863190028e+03,-2.712950060026e+02,-5.275567279833e+02
    5164,7.115297019372e+02,-1.457761280075e+03,-6.098294522014e+03
    5165,7.985506300084e+02,-1.411267299964e+03,-5.974458891990e+03
    5166,6.985945760309e+02,-1.463689219872e+03,-5.880183094001e+03
    5167,7.693872759712e+02,-1.426990920005e+03,-5.677602838000e+03
    5168,6.364224239829e+02,-1.491806419869e+03,-5.753992971987e+03
    5169,8.286771600060e+02,-1.393250280137e+03,-5.803800039994e+03
    5170,9.282470940308e+02,-1.328613379931e+03,-6.010004531988e+03
    5171,9.565164640149e+02,-1.307755479991e+03,-5.839363238002e+03
    5172,-1.579315999930e+03,-3.393695339791e+02,-8.653434120028e+02
    5173,-1.543896353950e+03,-4.755776239911e+02,-8.269607499897e+02
    5174,-1.553528121979e+03,-4.435871420046e+02,-6.607432919876e+02
    5175,9.582600859992e+02,-1.302379152000e+03,-3.999493716580e+02
    5176,6.470269140058e+02,-1.481971175990e+03,-5.837820002022e+01
    5177,6.228980060026e+02,-1.492198068012e+03,-2.478686894005e+02
    5178,7.997995320032e+02,-1.405253073992e+03,-3.003040737195e+02
    5179,8.225135140079e+02,-1.392197117997e+03,-1.108097898600e+02
    5180,-1.543741633600e+03,4.837383419769e+02,-7.524346417911e+02
    5181,-1.509940904003e+03,5.814810839655e+02,-8.532868752019e+02
    5182,-1.540212506202e+03,4.944580099986e+02,-9.452849132012e+02
    5183,-1.568354685988e+03,3.949450000246e+02,-8.444273740075e+02
    5184,1.246780288400e+03,-1.030054315990e+03,-7.740504110640e+02
    5185,1.143320941996e+03,-1.143379992006e+03,-8.186390083999e+02
    5186,1.181787924002e+03,-1.103567093988e+03,-9.713041032200e+02
    5187,1.281350624599e+03,-9.867962019941e+02,-9.267155244940e+02
    5188,2.206740598992e+02,1.597777320019e+03,-4.475309052603e+03
    5189,7.628214014501e+01,1.615128172012e+03,-4.453419066003e+03
    5190,8.430063991620e+01,1.614886787997e+03,-4.304853979799e+03
    5191,2.286557999487e+02,1.597313360001e+03,-4.326730678200e+03
    5192,1.002007459887e+03,1.262863700078e+03,-4.729799171000e+03
    5193,1.011690679979e+03,1.254708400064e+03,-4.584566444820e+03
    5194,-1.145508694002e+03,1.148416939856e+03,-4.593300501220e+03
    5195,-1.080377780045e+03,1.213977280135e+03,-4.470949497997e+03
    5196,-9.901736800335e+02,1.292633599742e+03,-4.554190164014e+03
    5197,-1.579707488009e+03,3.499566860163e+02,2.199523240379e+01
    5198,5.858889999460e+02,1.497254079744e+03,-4.325922274014e+03
    5199,7.334735799253e+02,1.429937199713e+03,-4.400134448010e+03
    5200,-1.293223319909e+03,9.709842199307e+02,-7.056004664000e+03
    5201,-1.450265251977e+03,-7.139398799966e+02,2.273960955913e+02
    5202,-1.401008020018e+03,8.000762999508e+02,-7.012942555604e+03
    5203,-1.327430139887e+03,9.210584799683e+02,-6.942685517994e+03
    5204,8.337776200004e+01,-1.615369972620e+03,6.519968308004e+02
    5205,1.590391220129e+03,-3.090892500007e+02,-2.770130061600e+03
    5206,1.599153660052e+03,-2.629222440171e+02,-2.679707495199e+03
    5207,1.327139285203e+03,-9.247152460039e+02,-7.283401330002e+02
    5208,1.292269860198e+03,-9.727176615994e+02,-6.085005767198e+02
    5209,-7.186254799329e+02,-1.449436326031e+03,-6.860599108396e+03
    5210,-1.342457896047e+03,-9.005391139855e+02,-2.529834644001e+03
    5211,-1.281883522008e+03,-9.856262059833e+02,-2.377988233999e+03
    5212,-1.405684759967e+03,-7.970662333979e+02,-2.435973339996e+03
    5213,1.331281680063e+03,9.220636879976e+02,-4.175423039996e+03
    5214,1.279159126027e+03,9.897574139824e+02,-4.031197577600e+03
    5215,7.309141800046e+02,-1.442024356028e+03,-8.629969224001e+02
    5216,6.667008160020e+02,-1.472955552011e+03,-6.534253460019e+02
    5217,1.484599719939e+03,6.529126879876e+02,-3.823022852002e+03
    5218,1.509971279887e+03,5.932011820700e+02,-3.968719748000e+03
    5219,-7.960204200524e+02,1.415630339935e+03,-3.115955906018e+03
    5220,-9.104977798705e+02,1.344625859713e+03,-3.059884562030e+03
    5221,-8.419484200566e+02,1.388046819776e+03,-2.926157034027e+03
    5222,7.897894600249e+02,1.410695391993e+03,-8.550595841943e+02
    5223,6.896276940239e+02,1.462324760013e+03,-9.441018703993e+02
    5224,7.217042879866e+02,1.446889959989e+03,-7.778519867994e+02
    5225,1.604204000103e+03,1.821392352198e+02,-6.035684114011e+03
    5226,1.612884220134e+03,4.961560100804e+01,-6.204646365972e+03
    5227,1.604026360046e+03,1.794185624036e+02,-6.316425710002e+03
    5228,1.584882319900e+03,3.108267352009e+02,-6.147434345989e+03
    5229,-1.468242699933e+03,6.628079299935e+02,-6.141230391601e+03
    5230,-1.443900040184e+03,7.158665280282e+02,-5.997951869800e+03
    5231,-1.370901500060e+03,8.483517359869e+02,-6.057519971202e+03
    5232,-1.400224919826e+03,7.979036160072e+02,-6.200802238802e+03
    5233,8.838113379937e+02,1.353682204043e+03,-5.826072361639e+03
    5234,9.029749259832e+02,1.340354267977e+03,-5.943957690100e+03
    5235,7.648818200644e+02,1.419090460065e+03,-5.962522440006e+03
    5236,1.156547859933e+03,1.137327039992e+03,-5.855519212017e+03
    5237,1.071521539977e+03,1.215447750017e+03,-5.917630433984e+03
    5238,9.986605400237e+02,1.277300280057e+03,-5.765893283006e+03
    5239,1.548523167001e+03,4.673448559859e+02,-9.037342611993e+02
    5240,1.599118628022e+03,-2.484803380072e+02,-5.353130130020e+02
    5241,1.584938946023e+03,-3.265248942004e+02,-4.077164615996e+02
    5242,1.381870425996e+03,-8.410864030034e+02,-8.938483115602e+02
    5243,1.451143817984e+03,-7.156383589997e+02,-8.285253994005e+02
    5244,1.404018725993e+03,-8.037753520901e+02,-6.630194492009e+02
    5245,-1.498812400001e+03,-6.007517697984e+02,-3.921803026018e+03
    5246,-1.436350900020e+03,-7.391760012016e+02,-3.857834629996e+03
    5247,-1.080593172007e+03,1.204021672005e+03,5.555836750001e+02
    5248,1.360909739946e+03,8.798895899745e+02,-4.281671885797e+03
    5249,1.306910940049e+03,9.564380422040e+02,-4.335190590196e+03
    5250,9.170622939816e+02,1.330875480016e+03,-1.106121905993e+03
    5251,8.071991959998e+02,1.400345182016e+03,-1.165333677992e+03
    5252,7.536783339917e+02,1.430131509974e+03,-1.048419384006e+03
    5253,8.660947559947e+02,1.364868601969e+03,-9.892161619912e+02
    5254,1.028961186017e+03,1.246239430034e+03,-1.069659266006e+03
    5255,1.058419776034e+03,1.221030752021e+03,-1.205682084006e+03
    5256,9.485625559727e+02,1.308304277967e+03,-1.242158388002e+03
    5257,-1.574947420092e+03,-3.438444640038e+02,-6.282848943984e+03
    5258,-1.547745040268e+03,-4.523830920018e+02,-6.150046432000e+03
    5259,-1.574456200163e+03,-3.465310819644e+02,-6.065818891994e+03
    5260,-1.594289680187e+03,-2.364047820342e+02,-6.198625295994e+03
    5261,1.582570309985e+03,3.359477779936e+02,-8.799148954398e+02
    5262,5.089722020169e+02,-1.534887986016e+03,-1.186467912796e+03
    5263,-9.859717140016e+02,1.283560807992e+03,-5.421329819992e+02
    5264,-8.699067839862e+02,1.364839748020e+03,-5.127172860005e+02
    5265,-8.493847620314e+02,1.377898114033e+03,-6.722273679921e+02
    5266,-9.666884459765e+02,1.298425645982e+03,-7.016424900086e+02
    5267,-8.260713259791e+02,1.392203092000e+03,-8.448853939981e+02
    5268,-7.324413080024e+02,1.443355289992e+03,-6.373427480035e+02
    5269,-7.080007620272e+02,1.455607454031e+03,-8.099999879955e+02
    5270,-9.205848200181e+02,-1.330887907991e+03,-3.732326439597e+03
    5271,-9.496594680166e+02,-1.310084998018e+03,-3.862827082999e+03
    5272,-7.736589440004e+02,-1.421904926045e+03,-3.772857990398e+03
    5273,-1.556097119779e+03,4.210695020040e+02,-5.547838447996e+03
    5274,-1.542931220177e+03,4.669353820217e+02,-5.682864033996e+03
    5275,-1.570506859836e+03,3.617588440239e+02,-5.734431571993e+03
    5276,-1.580592399943e+03,3.151316459926e+02,-5.599405686004e+03
    5277,-1.382686999957e+03,-8.350256314004e+02,-4.615322690017e+03
    5278,-1.453013920040e+03,-7.041521719913e+02,-4.659905881987e+03
    5279,-1.397282779965e+03,-8.115565180080e+02,-3.569234643992e+03
    5280,-1.476295879979e+03,-6.550180269978e+02,-3.567498569996e+03
    5281,-1.401787559945e+03,-8.035446100024e+02,-3.714755369990e+03
    5282,1.152568763597e+03,1.134704835000e+03,7.859670851996e+02
    5283,1.076996043201e+03,1.206683267999e+03,6.952351446014e+02
    5284,1.333517500295e+02,-1.615926599873e+03,-5.109264206003e+03
    5285,-1.602060799869e+03,1.755913019912e+02,-4.753100166004e+03
    5286,-1.609253579747e+03,9.220765402449e+01,-4.835723003998e+03
    5287,1.593073206400e+03,2.802630867980e+02,4.257028718040e+02
    5288,1.569969323360e+03,3.891086569996e+02,5.041961230796e+02
    5289,9.145912400968e+02,1.325929019715e+03,-3.568911138002e+03
    5290,1.023858499907e+03,1.244352439882e+03,-3.573753577992e+03
    5291,1.021610580083e+03,1.245970120176e+03,-3.682956717998e+03
    5292,9.121034999855e+02,1.327242940045e+03,-3.678120861985e+03
    5293,1.029314675985e+03,-1.245716739978e+03,-1.901165451200e+03
    5294,9.385334600240e+02,-1.315634125979e+03,-1.885713795800e+03
    5295,1.137811777982e+03,-1.147528492036e+03,-1.903865168960e+03
    5296,1.219147646031e+03,-1.060713184013e+03,-2.065788879440e+03
    5297,1.244054896019e+03,-1.031858382015e+03,-1.911067507780e+03
    5298,1.578698257000e+03,3.522124728036e+02,3.387184264200e+02
    5299,1.605092322996e+03,2.007881758040e+02,3.386669859403e+02
    5300,1.594311807797e+03,2.733636581994e+02,2.516843002879e+02
    5301,7.710316999196e+02,1.415624120132e+03,-3.251486185996e+03
    5302,8.487038600829e+02,1.370003899860e+03,-3.312229674017e+03
    5303,7.972795601205e+02,1.400271540117e+03,-3.402973543990e+03
    5304,7.180386599442e+02,1.443098760039e+03,-3.342222417995e+03
    5305,6.249585398892e+02,1.486418659856e+03,-3.336240494004e+03
    5306,7.033884400968e+02,1.449879139875e+03,-3.460436339991e+03
    5307,-1.573293280115e+03,-3.550208280310e+02,-5.078853448007e+03
    5308,-1.532745879997e+03,-5.039673920048e+02,-5.038076189988e+03
    5309,-1.580105859968e+03,-3.236046739786e+02,-4.935165479997e+03
    5310,1.460265842799e+03,6.950357720083e+02,1.918265132012e+02
    5311,1.484914217804e+03,6.408694089989e+02,3.384029712005e+02
    5312,1.541798802201e+03,4.887567384020e+02,2.661331036010e+02
    5313,-1.611843440152e+03,-1.579485198450e+01,-5.128671065987e+03
    5314,-1.599449900131e+03,1.984357860116e+02,-5.196576980007e+03
    5315,-1.611136179981e+03,4.389779600129e+01,-5.253658629993e+03
    5316,-1.531725819978e+03,4.968198500486e+02,-7.274891015840e+03
    5317,-1.580070959761e+03,3.178590179709e+02,-5.155239607993e+03
    5318,-1.570772020103e+03,3.615293479829e+02,-5.256082779995e+03
    5319,-1.593345159976e+03,2.426671560000e+02,-5.297413601995e+03
    5320,-1.147064162070e+03,1.145116420067e+03,-2.032011236001e+03
    5321,-1.233746268018e+03,1.050511519988e+03,-1.986319017995e+03
    5322,-1.203489253932e+03,1.084995639886e+03,-1.849166614009e+03
    5323,-1.114085412059e+03,1.177020400024e+03,-1.894858874000e+03
    5324,1.617641005994e+03,-1.486088997642e+01,-4.148088864009e+03
    5325,1.607063159984e+03,2.049213080126e+02,-4.097596751991e+03
    5326,1.617837033976e+03,5.802974001026e+01,-4.013100752014e+03
    5327,-1.084379038058e+03,1.204035319994e+03,-1.699160919996e+03
    5328,-9.564832780357e+02,1.307942139958e+03,-1.722576912011e+03
    5329,-9.888785199486e+02,1.284143940013e+03,-1.918258630007e+03
    5330,1.463816583940e+03,6.926416260041e+02,-5.361479061989e+03
    5331,1.406285900022e+03,8.047864020535e+02,-5.428678891999e+03
    5332,1.377723639971e+03,8.545586199948e+02,-5.310841253999e+03
    5333,1.439277579983e+03,7.445484819859e+02,-5.243662672004e+03
    5334,1.612513747999e+03,-1.285876856013e+02,6.525166248011e+02
    5335,1.598399696397e+03,-2.486653314007e+02,7.582926418010e+02
    5336,1.618097469992e+03,5.395652607267e+00,-4.435710943993e+02
    5337,1.617368658028e+03,5.030541199685e+01,-5.763814976011e+02
    5338,1.568768030180e+03,3.940078414042e+02,2.198943540005e+02
    5339,1.554257652000e+03,4.476456884020e+02,3.849596622008e+02
    5340,-1.601726399877e+03,1.689651279758e+02,-6.262374010004e+03
    5341,-1.589005400098e+03,2.638061780174e+02,-6.113865206016e+03
    5342,-1.584881999874e+03,2.848837439871e+02,-6.316272494005e+03
    5343,1.563343538010e+03,-4.157895219881e+02,-2.909483515197e+03
    5344,2.356905400569e+02,1.605384019916e+03,-7.275243689946e+03
    5345,3.313040799312e+02,1.586448219890e+03,-7.160905018030e+03
    5346,-3.805326200400e+02,1.583513279949e+03,-4.477939836025e+03
    5347,-5.363968998226e+02,1.541241999724e+03,-4.556256136004e+03
    5348,-4.589820398839e+02,1.562712080011e+03,-4.331978247971e+03
    5349,-2.331195001152e+02,1.608382839958e+03,-4.447954427967e+03
    5350,-1.801286599993e+02,1.614182000153e+03,-4.625039986028e+03
    5351,1.419751538008e+03,-7.757077550019e+02,-4.325165295992e+02
    5352,1.464157539999e+03,-6.884240467969e+02,-2.698042328004e+02
    5353,1.393504748006e+03,-8.217712853008e+02,-3.109504788003e+02
    5354,-1.350614697988e+03,-8.881934597978e+02,-1.122521561998e+03
    5355,-1.314288766019e+03,-9.414928924000e+02,-1.269386261805e+03
    5356,-1.227563181996e+03,-1.052860629988e+03,-1.195536171602e+03
    5357,-1.268382605987e+03,-1.002921805403e+03,-1.048671511204e+03
    5358,-6.979292159849e+02,-1.460185971954e+03,-5.389725491796e+03
    5359,-8.252808780505e+02,-1.391527724035e+03,-5.349777872204e+03
    5360,-8.285198600273e+02,-1.389467723945e+03,-5.526024764591e+03
    5361,1.617683298005e+03,8.692987398413e+00,3.301828238001e+02
    5362,1.613634208009e+03,-1.147469944013e+02,4.344770776008e+02
    5363,1.604941026001e+03,-2.034018858022e+02,3.223341478020e+02
    5364,1.615793697991e+03,-8.037120399798e+01,2.180409594001e+02
    5365,4.325774180016e+02,-1.558225842001e+03,-3.731657122018e+02
    5366,5.823801619949e+02,-1.508447805998e+03,-4.270635905985e+02
    5367,-1.579017240274e+03,-3.230805780113e+02,-6.615344556007e+03
    5368,-1.576429759828e+03,-3.349169879945e+02,-6.757665989992e+03
    5369,-1.518358459991e+03,-5.425537559905e+02,-6.766522486014e+03
    5370,-1.476104060016e+03,-6.541512640068e+02,-4.510353423986e+03
    5371,-1.528859540105e+03,-5.171709439962e+02,-4.558433324018e+03
    5372,-1.542539079919e+03,-4.678953699916e+02,-6.895104422001e+03
    5373,-1.590782559835e+03,-2.555175219855e+02,-6.857608225996e+03
    5374,-1.563598500035e+03,-3.900111639881e+02,-6.995065461986e+03
    5375,-1.502327080213e+03,-5.852088399804e+02,-6.973876726012e+03
    5376,-1.472486600122e+03,-6.577791339647e+02,-6.845285890001e+03
    5377,1.508352148196e+03,5.838114863983e+02,7.207378372010e+02
    5378,1.419009623597e+03,7.759351221999e+02,5.971717014019e+02
    5379,1.400508788600e+03,8.089334488020e+02,7.439137694021e+02
    5380,1.292915958196e+03,9.717118066036e+02,8.016547422004e+02
    5381,-1.534831380022e+03,4.890152600174e+02,-4.409584181998e+03
    5382,-1.566259239856e+03,3.764110739957e+02,-4.319036027988e+03
    5383,-1.373722219987e+03,-8.508131699922e+02,-3.906968955982e+03
    5384,-1.525173986033e+03,5.348197260070e+02,-2.315435147995e+03
    5385,-1.469785376021e+03,6.753594960454e+02,-2.314196767204e+03
    5386,-1.466190186036e+03,6.829289579359e+02,-2.440073654207e+03
    5387,-1.522231833959e+03,5.426503480388e+02,-2.441312956007e+03
    5388,-1.607363099965e+03,-1.034442120619e+02,-6.789521685985e+03
    5389,-1.609436860143e+03,-4.894238794628e+01,-6.985509466007e+03
    5390,-1.347616940053e+03,-8.917385599941e+02,-4.046558916001e+03
    5391,-1.319576822029e+03,-9.331820240099e+02,-3.940632244017e+03
    5392,1.347113431408e+03,-8.945523600177e+02,-1.762496198800e+03
    5393,1.251991483983e+03,-1.022574338012e+03,-1.754697622920e+03
    5394,1.148251305965e+03,-1.137323136022e+03,-1.753743887580e+03
    5395,-1.584857132196e+03,3.246149679943e+02,-3.046771920024e+02
    5396,-1.606034856608e+03,1.913780640031e+02,-2.878978239972e+02
    5397,-1.605026505199e+03,2.012248519935e+02,-1.958921060040e+02
    5398,-1.582984736001e+03,3.343198440069e+02,-2.126656420018e+02
    5399,4.453410598425e+02,1.547027060191e+03,-4.267077513997e+03
    5400,6.403065800988e+02,1.475292959991e+03,-4.201613418010e+03
    5401,-1.598910600080e+03,-2.062399199940e+02,-5.277142757988e+03
    5402,-1.610598759924e+03,-6.173974400590e+01,-5.324037074003e+03
    5403,-1.607225619898e+03,-1.202270340082e+02,-5.494111031982e+03
    5404,1.117904240596e+03,1.168751211397e+03,5.190164992005e+02
    5405,1.167673392000e+03,1.118819217997e+03,3.399449541957e+02
    5406,-1.576190540263e+03,3.372907299826e+02,-5.401028089992e+03
    5407,-1.533186579939e+03,4.980023659774e+02,-5.273221828007e+03
    5408,-1.540847540066e+03,4.743666560301e+02,-5.418166909993e+03
    5409,-3.515061798007e+02,1.593729519958e+03,-4.982457842008e+03
    5410,-2.557179798548e+02,1.607033779976e+03,-4.931483767968e+03
    5411,-1.991586002547e+02,1.619589520567e+03,-5.068335131201e+03
    5412,-5.370573197407e+02,1.559102399266e+03,-5.198557919968e+03
    5413,-5.665169600864e+02,1.536920499514e+03,-5.056198082027e+03
    5414,-4.656710199523e+02,1.569150480356e+03,-5.030236609928e+03
    5415,-1.441651460003e+03,7.274921859999e+02,-3.750749033997e+03
    5416,-1.366983679961e+03,8.639280798565e+02,-3.793276621397e+03
    5417,-1.401668520092e+03,8.029331760598e+02,-3.943732720001e+03
    5418,-1.470598300148e+03,6.635189259859e+02,-3.901161599986e+03
    5419,1.606794400019e+03,2.019911259967e+02,-2.648155980599e+03
    5420,1.616084200093e+03,1.120698080077e+02,-2.500600601201e+03
    5421,-1.538985399875e+03,-4.869183680154e+02,-3.330332057984e+03
    5422,-1.573118700033e+03,-3.586552240098e+02,-3.458327319997e+03
    5423,-1.536487979943e+03,-4.949348319922e+02,-3.445562768009e+03
    5424,-1.612647939915e+03,-2.501560601145e+01,-2.614377384009e+03
    5425,-1.600938239905e+03,-1.970558479781e+02,-2.659108608000e+03
    5426,-1.595414540106e+03,-2.395733259814e+02,-2.478274063983e+03
    5427,-1.611688599870e+03,-6.790505800156e+01,-2.433534737998e+03
    5428,-1.572766260008e+03,-3.605784479679e+02,-2.703317889999e+03
    5429,-1.531433020033e+03,-5.105847180177e+02,-2.754434867992e+03
    5430,-1.516289240109e+03,-5.546799219915e+02,-2.615974178010e+03
    5431,-1.561939520086e+03,-4.059298160307e+02,-2.564859620000e+03
    5432,9.729374724023e+02,-1.291924939201e+03,3.687493808402e+02
    5433,1.053881756200e+03,-1.226827048799e+03,3.173580683400e+02
    5434,1.102807202201e+03,-1.183128524599e+03,4.146483110801e+02
    5435,1.024561950799e+03,-1.251455858399e+03,4.660394856000e+02
    5436,1.482343109954e+03,6.427246456016e+02,-6.810846374022e+03
    5437,1.527216379987e+03,5.257519140079e+02,-6.787378576014e+03
    5438,-5.179326639902e+02,-1.534191179976e+03,-5.244908092720e+03
    5439,-6.789811179905e+02,-1.469268746013e+03,-5.210440553600e+03
    5440,-7.562254359804e+02,-1.431096993942e+03,-4.376175191999e+03
    5441,-7.445778119705e+02,-1.437298835937e+03,-4.227033110999e+03
    5442,-8.724645420207e+02,-1.362897266051e+03,-4.214096961402e+03
    5443,-7.402566659844e+02,-1.439414137990e+03,-4.532132999999e+03
    5444,-6.285225540285e+02,-1.492046540017e+03,-4.526823523800e+03
    5445,-6.450782279743e+02,-1.484949399967e+03,-4.370867161601e+03
    5446,1.112184382440e+03,-1.174376385999e+03,5.702162198740e+02
    5447,1.178098596020e+03,-1.108286183799e+03,4.606310215600e+02
    5448,1.485023546598e+03,6.397875840182e+02,-1.778759103803e+03
    5449,1.492954168002e+03,6.213261640313e+02,-1.909924938599e+03
    5450,1.412202539971e+03,7.858978440287e+02,-1.952892101605e+03
    5451,1.598940980073e+03,2.049209899709e+02,-7.287523110007e+03
    5452,-1.599131394008e+03,2.454849359843e+02,-5.223131200367e+01
    5453,-1.557832698015e+03,4.375713459905e+02,-1.384458898018e+02
    5454,-9.019920899493e+02,-1.343124052067e+03,-4.664452515796e+03
    5455,-7.541842859662e+02,-1.432026584001e+03,-4.686816202397e+03
    5456,1.470152259993e+02,-1.611727095974e+03,-1.725020660207e+03
    5457,-1.002039533927e+03,-1.269697682034e+03,-4.620630353999e+03
    5458,-1.043870539986e+03,-1.235176254011e+03,-4.764107655993e+03
    5459,-9.463427219466e+02,-1.311917059973e+03,-4.807931549996e+03
    5460,-1.312530152006e+03,9.468298020340e+02,-3.870770863992e+02
    5461,-1.380233836012e+03,8.450951920211e+02,-3.781625371982e+02
    5462,-1.377358258017e+03,8.495003559966e+02,-2.261939046007e+02
    5463,1.113223867978e+03,-1.171678793992e+03,-3.231638782199e+03
    5464,-1.556863780219e+03,4.080733539755e+02,-6.772151253804e+03
    5465,-1.511149159875e+03,5.551953179950e+02,-6.790103524799e+03
    5466,7.013969519811e+02,1.456121724021e+03,-1.387465062800e+03
    5467,6.116506939985e+02,1.496167950012e+03,-1.467151908198e+03
    5468,1.543428212015e+03,-4.888967567910e+02,-2.277105890180e+03
    5469,1.476298690004e+03,-6.616324220076e+02,-2.406156439001e+03
    5470,1.593739089976e+03,-2.835085600085e+02,-1.129665506598e+03
    5471,1.609185657954e+03,-1.770309940079e+02,-1.258905035798e+03
    5472,1.608410796025e+03,-1.822145239938e+02,-1.044653928402e+03
    5473,1.078102206016e+03,-1.206879049934e+03,-5.322750691997e+03
    5474,9.618186479983e+02,-1.302449060068e+03,-5.198468554016e+03
    5475,8.706155740058e+02,-1.366132419892e+03,-5.317241610014e+03
    5476,9.932404632025e+02,-1.278827179952e+03,-5.441508214007e+03
    5477,-1.160909043973e+03,1.131411619730e+03,-6.611709952016e+03
    5478,1.076177115999e+03,-1.209114819960e+03,-5.549167901988e+03
    5479,1.097420350017e+03,-1.189937700040e+03,-5.704346423986e+03
    5480,1.190194592028e+03,-1.095697025937e+03,-5.688864165989e+03
    5481,1.170620913965e+03,-1.116542798059e+03,-5.533692894006e+03
    5482,8.793530359924e+02,-1.360969240054e+03,-5.574333113984e+03
    5483,9.680759659921e+02,-1.298755699908e+03,-5.681978763986e+03
    5484,1.297211179937e+03,-9.619708259742e+02,-4.029549675001e+03
    5485,1.220768330030e+03,-1.058348586006e+03,-4.104187654999e+03
    5486,1.226595141983e+03,-1.051402417990e+03,-3.966827861197e+03
    5487,1.512793265920e+03,5.718847359808e+02,-1.504930659202e+03
    5488,1.560301690017e+03,4.277715340002e+02,-1.493373389399e+03
    5489,1.561537414004e+03,4.235400960037e+02,-1.602823182200e+03
    5490,1.514384711398e+03,5.677694619809e+02,-1.614381044800e+03
    5491,-1.445412286017e+03,7.282640160419e+02,-1.177515285200e+03
    5492,-1.505751833400e+03,5.917795359827e+02,-1.232198880196e+03
    5493,-1.520489747598e+03,5.525803520211e+02,-1.071524276804e+03
    5494,-1.463660399999e+03,6.905614460079e+02,-1.016844983402e+03
    5495,-1.565253856007e+03,4.057769480015e+02,-1.160158422002e+03
    5496,-1.319757459939e+03,-9.323069740046e+02,-4.430890638005e+03
    5497,-1.223210100000e+03,-1.056751708002e+03,-4.399880178005e+03
    5498,-1.241715425939e+03,-1.034921459995e+03,-4.258310366016e+03
    5499,1.541992858004e+03,-4.888858688008e+02,7.505368823995e+02
    5500,-2.002562560123e+02,1.605892367993e+03,-1.392911592005e+03
    5501,-2.032368780068e+02,1.605386080000e+03,-1.248622286008e+03
    5502,-8.419380999183e+01,1.615797399983e+03,-1.252012591997e+03
    5503,-8.119091797128e+01,1.616048265998e+03,-1.396307721998e+03
    5504,5.917084604002e+02,-1.507342853990e+03,-3.823417217985e+03
    5505,9.543891780071e+02,-1.307584270003e+03,-4.989256605994e+03
    5506,8.737646765406e+02,-1.363346759944e+03,-4.904559948017e+03
    5507,6.996002939936e+02,-1.461421500100e+03,-4.826498810014e+03
    5508,7.439377739834e+02,-1.439304280021e+03,-4.960611645997e+03
    5509,-1.563548044006e+03,4.157282900062e+02,-3.998821181954e+02
    5510,-1.525766590004e+03,5.390645879829e+02,-2.783424254001e+02
    5511,-1.475430615990e+03,6.649065500126e+02,-4.315360819999e+02
    5512,-1.523466535999e+03,5.451992559759e+02,-5.530760547969e+02
    5513,-1.582047439984e+03,-3.158194759905e+02,-4.477691996007e+03
    5514,-1.596726839983e+03,-2.282585299951e+02,-4.363639249984e+03
    5515,-1.608406759723e+03,-1.149574480052e+02,-4.443347818000e+03
    5516,-1.599951579931e+03,-2.033328100103e+02,-4.557404138009e+03
    5517,-1.122795183959e+03,-1.163654763996e+03,-4.372274638005e+03
    5518,-1.205803384063e+03,-1.076582413995e+03,-4.540480055988e+03
    5519,-1.103673550056e+03,-1.181839459979e+03,-4.512873114001e+03
    5520,3.226481020081e+02,-1.584845041796e+03,-6.799064192022e+02
    5521,5.234879240085e+02,-1.529918200004e+03,-5.880921463990e+02
    5522,3.533385339910e+02,-1.578206858002e+03,-5.461904995975e+02
    5523,8.853553120369e+02,1.351438777976e+03,-1.560764202005e+03
    5524,9.748824860634e+02,1.288268296003e+03,-1.508322859994e+03
    5525,1.020808613935e+03,1.251907614046e+03,-1.616053061996e+03
    5526,9.336132439407e+02,1.318253162040e+03,-1.668500567998e+03
    5527,2.169459913981e+02,-1.602815644599e+03,3.871340340014e+02
    5528,-3.598626890002e+02,-1.579031039995e+03,-2.770421667596e+03
    5529,-2.422910806013e+02,-1.601289220050e+03,-2.690303827205e+03
    5530,1.613866643965e+03,1.201641559948e+02,-9.591294786020e+02
    5531,1.594475597968e+03,2.752833380164e+02,-1.026201553800e+03
    5532,9.919097400153e+02,1.272435179855e+03,-2.741029471990e+03
    5533,9.103348599425e+02,1.331487800090e+03,-2.879274840013e+03
    5534,8.399871400610e+02,1.377254280050e+03,-2.808708553986e+03
    5535,9.244564400750e+02,1.322398199987e+03,-2.670473438005e+03
    5536,6.532729920614e+02,1.477420728010e+03,-2.092904037994e+03
    5537,5.446672459365e+02,1.521385489976e+03,-2.003048762996e+03
    5538,6.277967719409e+02,1.488884759948e+03,-1.877052074604e+03
    5539,9.084987920091e+02,-1.337133933992e+03,-9.408119095999e+02
    5540,1.076327846015e+03,-1.206284060035e+03,-1.015227122040e+03
    5541,1.026593066012e+03,-1.248918023984e+03,-8.754647251001e+02
    5542,-7.201707300121e+02,1.449122528016e+03,-3.506059480444e+01
    5543,-8.151600139885e+02,1.397805582000e+03,-5.535941400281e+01
    5544,-5.171559095965e+02,-1.534498301985e+03,-2.301558007597e+03
    5545,1.066209759860e+03,1.222812959934e+03,-5.342833839800e+03
    5546,1.167088740026e+03,1.127287059894e+03,-5.283412193199e+03
    5547,1.249034679984e+03,1.024505252015e+03,-6.818385264018e+03
    5548,9.551764819669e+02,1.303230642047e+03,-1.373360241992e+03
    5549,1.077127361969e+03,1.204270564029e+03,-1.348073277994e+03
    5550,1.591348479986e+03,-2.916499127981e+02,2.101804377991e+02
    5551,1.506840479895e+03,-5.793143000072e+02,-6.245762228799e+03
    5552,1.433541319901e+03,-7.450362640006e+02,-6.401368421399e+03
    5553,1.490499520118e+03,-6.211988439799e+02,-6.576943751601e+03
    5554,1.549698740093e+03,-4.499247779860e+02,-6.421349780002e+03
    5555,-1.575197980028e+03,-3.434677620084e+02,-5.838940662013e+03
    5556,-1.540854559859e+03,-4.763649219771e+02,-5.724159336010e+03
    5557,-1.598237879775e+03,-2.086656039924e+02,-5.703158556017e+03
    5558,1.567044673987e+03,-4.033813806020e+02,-2.785056902012e+02
    5559,1.545943199993e+03,-4.775908586013e+02,-1.522932833996e+02
    5560,1.504949699993e+03,-5.941674159997e+02,-2.074010564021e+02
    5561,5.721762779916e+02,-1.516422779944e+03,-4.837367488009e+03
    5562,1.573801764007e+03,-3.756648372038e+02,-9.082674020156e+01
    5563,1.553976523987e+03,-4.504824437968e+02,1.137599039976e+01
    5564,1.273955583988e+03,9.940558619851e+02,-1.296364846004e+03
    5565,1.287970043980e+03,9.756573180463e+02,-1.438726711996e+03
    5566,1.179836157951e+03,1.103884903999e+03,-1.322350318004e+03
    5567,1.517734940038e+03,-5.522249399478e+02,-3.042543859407e+03
    5568,1.471363959860e+03,-6.645113460714e+02,-3.117198550993e+03
    5569,1.537695279915e+03,-4.911646540094e+02,-3.139627448001e+03
    5570,8.202481759952e+02,1.388977859991e+03,-5.470422030005e+03
    5571,7.222125999318e+02,1.432738639743e+03,-5.571840194003e+03
    5572,7.378858400976e+02,1.426372380503e+03,-5.377337176006e+03
    5573,7.394467199446e+02,1.432651980141e+03,-6.068043484015e+03
    5574,7.912481499658e+02,1.403820740040e+03,-5.684908004003e+03
    5575,-1.056314636042e+03,1.230379860243e+03,-6.096972998018e+03
    5576,-1.042951739930e+03,1.237845560079e+03,-5.934790521999e+03
    5577,-1.167605019872e+03,1.119299060082e+03,-6.088205643986e+03
    5578,-1.326443460177e+03,9.182714580217e+02,-6.232563780004e+03
    5579,-1.344409879922e+03,8.914368580658e+02,-6.372583210009e+03
    5580,-1.524480585980e+03,-5.368514240140e+02,2.060130713978e+02
    5581,-1.488053954001e+03,-6.306724220004e+02,9.137752559570e+01
    5582,1.255622401111e+02,1.609525759968e+03,-4.706135949400e+03
    5583,1.938347801191e+02,1.600094800121e+03,-4.837739494201e+03
    5584,6.731627984155e+01,1.614158499995e+03,-4.904467214802e+03
    5585,-1.249949992979e+00,1.618244806021e+03,-4.772842745999e+03
    5586,-1.318646919812e+03,9.292601920296e+02,-6.117923013994e+03
    5587,-1.245462880079e+03,1.028631059857e+03,-6.138364095991e+03
    5588,1.304223500064e+03,-9.540609863986e+02,-5.177416649000e+03
    5589,1.262132081978e+03,-1.009478042807e+03,-5.036332380004e+03
    5590,1.181925261962e+03,-1.103494027975e+03,-5.092614576006e+03
    5591,1.228129425994e+03,-1.051444611993e+03,-5.233701255997e+03
    5592,7.312961986673e+01,1.615896476004e+03,-4.190409915002e+03
    5593,-3.695065988831e+01,1.619461220014e+03,-4.087470423997e+03
    5594,4.142407994926e+01,1.617849071989e+03,-4.012621600000e+03
    5595,1.512151601341e+02,1.608991622027e+03,-4.115552066601e+03
    5596,-8.671192462022e+02,-1.366942510048e+03,-1.951172854999e+03
    5597,-1.446051980006e+03,-7.202631625923e+02,-2.314633718007e+03
    5598,-1.484044900004e+03,-6.371425220009e+02,-2.391779991999e+03
    5599,-1.448085819945e+03,-7.161056205986e+02,-2.513119583993e+03
    5600,1.265022021980e+03,-1.007039891996e+03,-5.680257075996e+03
    5601,1.333997360035e+03,-9.124701539788e+02,-5.742105744195e+03
    5602,1.357415160002e+03,-8.765828459985e+02,-5.644198073998e+03
    5603,1.290939032062e+03,-9.729270499927e+02,-5.582345552005e+03
    5604,1.537383922015e+03,5.061450220167e+02,-5.198592273977e+03
    5605,1.509253473967e+03,5.855090539759e+02,-5.278199809971e+03
    5606,1.483683231965e+03,6.498742559548e+02,-5.209213120005e+03
    5607,1.515189998019e+03,5.717654660337e+02,-5.129616819982e+03
    5608,1.493369239894e+03,-6.129642380717e+02,-4.249588852996e+03
    5609,1.530325939941e+03,-5.143057080301e+02,-4.163232746003e+03
    5610,-1.497601211986e+03,6.130237020031e+02,-6.664701314008e+02
    5611,-1.442821473985e+03,7.333115859854e+02,-6.896654946199e+02
    5612,-1.457810118010e+03,7.029404219964e+02,-8.764800547984e+02
    5613,-1.344603524010e+03,9.013790039748e+02,-7.568141398039e+02
    5614,-1.420731463990e+03,7.752240579776e+02,-5.172625803992e+02
    5615,-1.317511281970e+03,9.402660739848e+02,-5.844230951985e+02
    5616,-1.216393635998e+03,1.070607759999e+03,-4.300975610980e+03
    5617,-1.152824042023e+03,1.141754679756e+03,-4.392508556796e+03
    5618,-1.207126525991e+03,1.080310580043e+03,-4.479183025401e+03
    5619,-1.267114440001e+03,1.006157880042e+03,-4.387624989201e+03
    5620,-1.267576357970e+03,1.007160720053e+03,-4.193881069802e+03
    5621,-1.322878460135e+03,9.288709800151e+02,-4.291337922196e+03
    5622,-1.370163499913e+03,8.552521800633e+02,-4.209897673994e+03
    5623,-1.318940760029e+03,9.362900199069e+02,-4.112472161801e+03
    5624,1.572122760104e+03,-3.653508840072e+02,-5.630826212004e+03
    5625,1.536676659892e+03,-4.940422992034e+02,-5.646954197996e+03
    5626,1.542988820139e+03,-4.735158417977e+02,-5.842447764001e+03
    5627,-1.586474199924e+03,2.704067459770e+02,-7.287014799596e+03
    5628,1.162650424027e+03,1.122215809972e+03,-1.179962923994e+03
    5629,1.533358639884e+03,5.304650299441e+02,-3.772392183990e+03
    5630,1.427224231991e+03,-7.619053681956e+02,-1.413437197800e+03
    5631,1.331384978399e+03,-9.182644259827e+02,-1.253104973280e+03
    5632,1.346237509740e+03,-8.963258599911e+02,-1.427060392580e+03
    5633,-1.089694029955e+03,-1.195228911997e+03,-4.000489847996e+03
    5634,-1.154378678024e+03,-1.132521197983e+03,-3.890722379999e+03
    5635,-1.221164258021e+03,-1.059574875988e+03,-3.960824923993e+03
    5636,-1.160433398036e+03,-1.126116718014e+03,-4.070595332004e+03
    5637,6.573127279842e+02,-1.482256860012e+03,-5.525911772003e+03
    5638,5.582588819655e+02,-1.522478220137e+03,-5.391178271983e+03
    5639,4.460381200069e+02,-1.559395820115e+03,-5.477665659994e+03
    5640,5.478126540224e+02,-1.526627420029e+03,-5.612390534002e+03
    5641,1.587174467976e+03,3.168650200113e+02,-2.734720106603e+03
    5642,1.568093647974e+03,3.996612299701e+02,-2.602389391797e+03
    5643,1.593604026065e+03,2.859496999995e+02,-2.515847889998e+03
    5644,1.428366619959e+03,7.686119519916e+02,-4.858624454014e+03
    5645,1.323860059973e+03,9.360878599608e+02,-4.729771030991e+03
    5646,1.424329079973e+03,7.764618180251e+02,-4.706458590008e+03
    5647,1.568092804034e+03,4.006416239945e+02,-2.299105738801e+03
    5648,1.581944079971e+03,3.434007620067e+02,-2.418632124001e+03
    5649,1.550798440004e+03,4.614953560134e+02,-2.480954973199e+03
    5650,1.532726601983e+03,5.175427739689e+02,-2.361428075403e+03
    5651,-1.276588962068e+03,-9.915097959924e+02,-4.024981145999e+03
    5652,1.038726580171e+02,1.620337360018e+03,-7.170660649998e+03
    5653,2.098477800568e+02,1.608017339971e+03,-7.044412788025e+03
    5654,1.406312945660e+03,7.999164920266e+02,-6.481382043976e+03
    5655,1.472193822199e+03,6.708863559814e+02,-6.274844964026e+03
    5656,1.481232129989e+03,6.490363879863e+02,-6.470985876018e+03
    5657,-1.546831920106e+03,4.525185420310e+02,-5.102665702006e+03
    5658,-1.467821700032e+03,6.667211500117e+02,-5.235990382396e+03
    5659,-9.025595280011e+02,1.343093319991e+03,-2.120499379978e+02
    5660,-8.871795560118e+02,1.353472808022e+03,-3.598955059976e+02
    5661,-1.000916747988e+03,1.271659541987e+03,-3.784358580042e+02
    5662,-1.015334088013e+03,1.259965282015e+03,-2.305895720023e+02
    5663,-1.413789820153e+03,7.754716679922e+02,-4.480798130007e+03
    5664,-1.359524520056e+03,8.690418859453e+02,-4.581121954000e+03
    5665,-1.450153000223e+03,7.028434180030e+02,-4.561626784009e+03
    5666,-7.469385639959e+02,1.435831545985e+03,-4.853764760033e+02
    5667,5.035046719980e+02,1.536138229969e+03,-1.563032654603e+03
    5668,7.017864120204e+02,1.455676957993e+03,-1.570069057395e+03
    5669,5.962818560180e+02,1.502165122022e+03,-1.665959001993e+03
    5670,-1.441456799778e+03,-7.223659680271e+02,-7.282991983993e+03
    5671,4.231790959948e+02,1.561225183997e+03,-5.827400955997e+02
    5672,5.722982759965e+02,1.512797213600e+03,-5.593759781982e+02
    5673,5.895299899938e+02,1.505888299996e+03,-6.758986861977e+02
    5674,1.126560381976e+03,1.162645283980e+03,-6.055061646010e+03
    5675,1.217181479976e+03,1.069526020043e+03,-6.009644803995e+03
    5676,4.321490999693e+02,-1.563598599979e+03,-5.695632717997e+03
    5677,-2.184005971992e+02,-1.603461104017e+03,-5.065366866036e+02
    5678,1.290493220026e+03,9.735390999868e+02,-5.998601510032e+02
    5679,1.267469494025e+03,1.003430665973e+03,-4.579165165926e+02
    5680,-1.402363399889e+03,-8.014615868010e+02,-4.467761419999e+03
    5681,-1.043877519803e+02,-1.617272780056e+03,-4.718783224005e+03
    5682,-7.939203400785e+01,-1.618599579910e+03,-4.471343535994e+03
    5683,8.067005398949e+02,1.391709540225e+03,-4.104356853988e+03
    5684,8.134038800248e+02,1.388421719758e+03,-3.963623682004e+03
    5685,9.337687399923e+02,1.311451239990e+03,-3.964800647997e+03
    5686,1.618224938030e+03,-1.724836799173e+01,-7.029848695993e+02
    5687,1.617201384002e+03,-5.914950999262e+01,-6.049881922015e+02
    5688,1.247612709992e+03,1.028232050004e+03,-2.216147970029e+02
    5689,1.191223294004e+03,1.093104629992e+03,-1.245227005994e+02
    5690,1.275743463997e+03,9.933494700133e+02,-5.808431500245e+01
    5691,1.252160894019e+03,1.019613739925e+03,-3.442799083993e+03
    5692,1.338009734796e+03,9.071489459581e+02,-3.381823936998e+03
    5693,1.611392319888e+03,4.985140402153e+01,-7.183528182012e+03
    5694,1.612405939903e+03,8.566653978199e+00,-6.980898123999e+03
    5695,1.610600640118e+03,-7.468447796454e+01,-7.076080154034e+03
    5696,5.772785499718e+02,1.510279632008e+03,-1.014701722602e+03
    5697,4.607223639755e+02,1.549929191985e+03,-1.077076760600e+03
    5698,3.974392999953e+02,1.567456133997e+03,-9.676630187992e+02
    5699,1.240562756201e+03,-1.037870742198e+03,-6.869308001982e+01
    5700,1.348120149603e+03,-8.940667905797e+02,-9.725940791948e+01
    5701,1.251583642001e+03,-1.024611732397e+03,8.615442940008e+01
    5702,1.578290940030e+03,-3.634807179822e+02,-2.282538854601e+03
    5703,1.575964898007e+03,-3.725474879901e+02,-2.134903307999e+03
    5704,1.540475284059e+03,-4.977838807991e+02,-2.129462666960e+03
    5705,5.630164545955e+02,1.516989488009e+03,7.537218960077e+01
    5706,4.403263215959e+02,1.557021425990e+03,1.624406169801e+02
    5707,6.596420550800e+02,1.477080167997e+03,1.817062066020e+02
    5708,-1.282066058021e+03,-9.852750359953e+02,-1.429354603192e+03
    5709,-1.396059574008e+03,-8.142093813943e+02,-1.329289715991e+03
    5710,-1.368040976049e+03,-8.607972616005e+02,-1.489257826004e+03
    5711,1.109187134004e+03,1.176713002002e+03,2.194335634036e+02
    5712,1.026410671991e+03,1.249479743993e+03,9.204166880114e+01
    5713,8.946480699981e+02,1.347281585002e+03,1.758495339971e+02
    5714,3.367520439755e+02,1.581682860007e+03,-1.164390188740e+03
    5715,-1.516043472072e+03,-5.591187260136e+02,-4.693751760042e+02
    5716,1.009090584599e+03,1.264035147800e+03,5.932239539999e+02
    5717,1.370067782038e+03,8.644694219728e+02,-5.856551500017e+03
    5718,1.296450339928e+03,9.724910999846e+02,-5.943873738015e+03
    5719,-1.017114245990e+03,1.258381429984e+03,-8.503539059157e+01
    5720,-1.021300507996e+03,1.254926348005e+03,2.209228179405e+01
    5721,-9.253882579928e+02,1.327339158003e+03,-8.054577399266e+01
    5722,-1.108320021995e+03,1.178730948001e+03,6.707308220396e+01
    5723,-1.221726037998e+02,-1.614778472034e+03,-2.522983677802e+03
    5724,1.566832399951e+03,4.158641580619e+02,-4.378063091999e+03
    5725,1.550636399948e+03,4.753671739717e+02,-4.241584197993e+03
    5726,1.584922459919e+03,3.404590579912e+02,-4.172302591991e+03
    5727,1.557827199928e+03,4.457282059394e+02,-4.676761614017e+03
    5728,1.589752462000e+03,3.065943979916e+02,-4.658402122035e+03
    5729,1.589473202017e+03,3.053875980263e+02,-4.784162074020e+03
    5730,-5.240539739672e+02,-1.532263439958e+03,-4.421615064400e+03
    5731,-5.595349100065e+02,-1.519491500015e+03,-4.627869338262e+03
    5732,3.663216399848e+02,1.576816304025e+03,5.186011144003e+01
    5733,-8.240979891996e+02,-1.393440191982e+03,-2.429032309999e+03
    5734,-9.111472505983e+02,-1.337862110030e+03,-2.547833181400e+03
    5735,-7.992595335974e+02,-1.407867922049e+03,-2.672175471401e+03
    5736,-8.127426859771e+02,-1.399157866026e+03,-5.018569936204e+03
    5737,-8.231097059420e+02,-1.392933346035e+03,-5.184561367607e+03
    5738,-6.680384180341e+02,-1.474404388025e+03,-5.044450279202e+03
    5739,-9.557365500309e+02,-1.304782804014e+03,-5.158021954000e+03
    5740,-6.703080397513e+02,1.494485699993e+03,-5.129361570011e+03
    5741,-5.442804939717e+02,1.525356440040e+03,-1.741353506016e+03
    5742,-6.501721200602e+02,1.483590358065e+03,-1.735817723991e+03
    5743,-6.433617740360e+02,1.486291169988e+03,-1.611010208009e+03
    5744,1.600668431194e+03,2.337108660001e+02,9.719151170017e+01
    5745,8.605596379795e+02,1.367731123968e+03,-1.383914622003e+03
    5746,8.536128339879e+02,1.372313412016e+03,-1.252702344006e+03
    5747,-1.442074359966e+03,7.192310179794e+02,-6.807551468797e+03
    5748,1.584939669962e+03,-3.131760159740e+02,-3.945466439996e+03
    5749,1.563841019949e+03,-4.029729019741e+02,-4.056530735992e+03
    5750,1.558034060116e+03,-4.234179899937e+02,-3.508989195994e+03
    5751,1.419712277989e+03,-7.756831098007e+02,-1.414876809989e+02
    5752,-1.611837639965e+03,-2.870487396552e+01,-4.966788556000e+03
    5753,-1.611947300059e+03,-2.695756597931e+01,-4.830263201987e+03
    5754,6.582787100117e+02,-1.481446400063e+03,-5.294425019994e+03
    5755,5.498131039989e+02,-1.525241360131e+03,-5.166250405988e+03
    5756,4.470599240019e+02,-1.558826920083e+03,-5.263023046000e+03
    5757,-1.006860780007e+03,1.277788780238e+03,-4.103066208005e+03
    5758,-9.163715399088e+02,1.346206999669e+03,-4.168916912006e+03
    5759,-9.701917400213e+02,1.307387460315e+03,-4.273084270004e+03
    5760,-1.604210999797e+03,-1.636779100200e+02,-4.824230229986e+03
    5761,-1.604153319982e+03,-1.650137979956e+02,-4.709785272003e+03
    5762,-1.611965440047e+03,-2.829765000690e+01,-4.715809744015e+03
    5763,1.547808216840e+03,4.694657800055e+02,-3.568955298017e+02
    5764,1.066250179863e+03,1.210520419856e+03,-2.941799284009e+03
    5765,1.161416239949e+03,1.120597019984e+03,-2.873605399998e+03
    5766,1.204490020015e+03,1.074488939991e+03,-2.989014767998e+03
    5767,1.112776099887e+03,1.167923479896e+03,-3.057213663998e+03
    5768,-9.116510203081e+01,-1.618409500100e+03,-5.274963730008e+03
    5769,-1.378734119904e+03,8.381957799356e+02,-6.834452211208e+03
    5770,-1.566500019941e+03,-3.862766460136e+02,-4.617364274003e+03
    5771,-1.592303859966e+03,-2.571747680356e+02,-4.661065670002e+03
    5772,-1.584229020013e+03,-3.031685359791e+02,-4.794447177984e+03
    5773,-1.608675279932e+03,-1.108244339753e+02,-4.606122014008e+03
    5774,-3.715070780017e+02,1.574871151990e+03,-7.034030279925e+02
    5775,1.530910157799e+03,5.216649920108e+02,-5.177898346012e+02
    5776,1.443178161997e+03,7.291860619894e+02,-5.494293252013e+02
    5777,1.158653343984e+03,1.127753530007e+03,3.234770519976e+01
    5778,1.220866214012e+03,1.060268540004e+03,1.543449093980e+02
    5779,1.330160158018e+03,9.194461479887e+02,6.391775280271e+01
    5780,-1.509380059879e+03,-5.688689439640e+02,-6.071380376005e+03
    5781,-1.518994539903e+03,-5.419529599788e+02,-6.292223168012e+03
    5782,1.337633224017e+03,-9.074288399652e+02,-2.213148820002e+03
    5783,1.607493965986e+03,-1.710636559968e+02,-4.047281905984e+03
    5784,1.593960544006e+03,-2.634812380024e+02,-4.199911036017e+03
    5785,1.612869522008e+03,-1.081127059776e+02,-4.300735196007e+03
    5786,1.608522326025e+03,-1.536819260322e+02,-4.442205749991e+03
    5787,1.616798312013e+03,2.321055403253e+01,-4.508709267984e+03
    5788,-1.392473060049e+03,-8.178185293993e+02,-5.081938954005e+03
    5789,5.707658140016e+02,1.513878255996e+03,-4.113246268024e+02
    5790,3.838902502000e+02,1.572048817987e+03,-4.588006301802e+02
    5791,3.721442240001e+02,1.575645680037e+03,-3.428439188600e+02
    5792,7.681504364005e+02,1.423459764799e+03,2.837248753999e+02
    5793,6.593750530403e+02,1.477394185987e+03,-4.757050010867e-01
    5794,4.611771919923e+02,1.551737480042e+03,-3.258721924002e+01
    5795,1.543383960009e+03,4.770228087988e+02,-6.636071146007e+03
    5796,1.575696680033e+03,3.515179880149e+02,-6.674676287986e+03
    5797,1.330224667940e+03,9.166659559786e+02,-1.997327503999e+03
    5798,1.426966275991e+03,7.589888280216e+02,-2.080012024204e+03
    5799,1.347425319955e+03,8.912582339286e+02,-2.124446177207e+03
    5800,1.478082939991e+03,6.554392719659e+02,-2.040738162397e+03
    5801,1.439906100026e+03,7.344277319553e+02,-2.188292557401e+03
    5802,1.217114610007e+03,-1.064492946001e+03,-1.116285908920e+03
    5803,-9.654831599456e+02,-1.297028848011e+03,-5.767631139994e+03
    5804,-9.696228399439e+02,-1.294044108029e+03,-5.609577766005e+03
    5805,-1.071508620004e+03,-1.210369251974e+03,-5.604612550001e+03
    5806,-9.417003260009e+02,1.322459319797e+03,-5.189184635199e+03
    5807,-9.312534400358e+02,1.333951700063e+03,-5.070561467602e+03
    5808,-8.136040599231e+02,1.414678900540e+03,-5.083950444014e+03
    5809,1.613234580083e+03,5.296847534013e+01,-5.971241878013e+03
    5810,1.614006779903e+03,-1.964434119905e+01,-5.850679540012e+03
    5811,1.612692659878e+03,-5.586566220024e+01,-6.047084517997e+03
    5812,1.546993250013e+03,4.737235160159e+02,-1.930176932799e+03
    5813,1.485355660139e+03,6.485333319438e+02,-5.011340708008e+03
    5814,1.416516080114e+03,7.896356920242e+02,-5.006906757992e+03
    5815,1.558355059857e+03,4.442427288012e+02,-3.111136742006e+03
    5816,1.570763059981e+03,4.055781499787e+02,-3.230803998004e+03
    5817,1.466758888013e+03,-6.830936512033e+02,-5.914011123985e+02
    5818,1.349400226008e+03,-8.921152558007e+02,-5.041336868596e+02
    5819,3.506600840330e+02,1.578535456008e+03,-1.494439955820e+03
    5820,-1.576906459992e+03,-3.341931619652e+02,-6.427895484015e+03
    5821,1.434642966015e+03,-7.478242179976e+02,-1.601525823300e+03
    5822,1.518206382022e+03,-5.609855506018e+02,-1.600548339799e+03
    5823,1.512540276011e+03,-5.758612044041e+02,-1.412471273000e+03
    5824,-1.611985319807e+03,-1.874046197458e+01,-4.347114092015e+03
    5825,-1.612064460107e+03,-1.922299002467e+01,-4.537554195988e+03
    5826,-1.223382056001e+03,-1.057946298011e+03,-2.196670968200e+03
    5827,-1.189394864032e+03,-1.096319716023e+03,-2.471512353597e+03
    5828,1.500519371202e+03,6.035695727991e+02,5.459440378003e+02
    5829,1.545746047801e+03,4.761781856008e+02,5.575977153994e+02
    5830,1.464285090009e+03,-6.825127680279e+02,-2.964398838199e+03
    5831,-5.523212199298e+02,1.532775939428e+03,-6.204032489196e+03
    5832,-5.391578598624e+02,1.544253639956e+03,-6.023652829940e+03
    5833,-3.811472401233e+02,1.588447560576e+03,-6.056141164004e+03
    5834,-3.946181999513e+02,1.577789879949e+03,-6.236621502012e+03
    5835,-3.882060880070e+02,-1.571860815948e+03,-1.563324847799e+03
    5836,-4.646846139991e+02,-1.551063943992e+03,-1.764143648001e+03
    5837,-1.267451060004e+03,-1.003143180017e+03,-4.125223425993e+03
    5838,1.428802085995e+03,7.613684099851e+02,-5.770976299976e+03
    5839,1.475568341990e+03,6.642057619968e+02,-5.670293350022e+03
    5840,1.512229927994e+03,5.734103820098e+02,-5.782259074031e+03
    5841,1.209927203980e+03,1.070084710039e+03,-1.736423418002e+03
    5842,1.299859127990e+03,9.595886760353e+02,-1.580167098004e+03
    5843,8.884765198903e+02,1.341090280267e+03,-4.719186473400e+03
    5844,-1.275201046016e+03,9.995098799724e+02,-2.093713255403e+03
    5845,-1.268198880059e+03,-1.000505835008e+03,-5.705591180008e+03
    5846,-1.174642279875e+03,-1.109783077988e+03,-5.592733127983e+03
    5847,-1.272525240070e+03,-9.951054402052e+02,-5.588275643987e+03
    5848,-1.329963899932e+03,-9.159726340001e+02,-5.775109219984e+03
    5849,1.399604100063e+03,-8.075748479952e+02,-6.196664618397e+03
    5850,1.303449329986e+03,-9.574808300372e+02,-6.278642924003e+03
    5851,1.344102773982e+03,-8.990509360039e+02,-6.483345158005e+03
    5852,-1.597881040224e+03,2.048852059681e+02,-6.016828239988e+03
    5853,-1.580343879899e+03,3.135004999980e+02,-5.932961424006e+03
    5854,-1.592299879949e+03,2.466358859876e+02,-5.812005200017e+03
    5855,-1.606781159860e+03,1.184312039884e+02,-5.894475043998e+03
    5856,-1.610786720214e+03,3.982353598565e+01,-5.767225806015e+03
    5857,-1.602511600040e+03,1.685793840353e+02,-5.684748518006e+03
    5858,-5.645713598609e+02,1.528790660003e+03,-6.326090241596e+03
    5859,-3.696597399979e+02,1.575303391999e+03,-8.517867579991e+02
    5860,-4.811691360106e+02,1.545123264003e+03,-8.684185880048e+02
    5861,-4.829724180089e+02,1.544534010000e+03,-7.200375459916e+02
    5862,1.610109880102e+03,9.258325002551e+01,-6.862518878031e+03
    5863,1.612620719984e+03,-8.877939991191e+00,-6.778771476019e+03
    5864,1.609798819942e+03,-9.288159396697e+01,-6.897129851999e+03
    5865,1.600767280093e+03,2.011201780029e+02,-6.769734952024e+03
    5866,1.526777911800e+03,5.337452409956e+02,4.383590633997e+02
    5867,1.375814513982e+03,8.471511719349e+02,-2.248436691392e+03
    5868,1.296776963936e+03,9.627830239411e+02,-2.312755908003e+03
    5869,1.264725844056e+03,1.004300912046e+03,-2.188765284006e+03
    5870,-6.663837519820e+02,-1.475593950047e+03,-3.718923917000e+03
    5871,1.253965865933e+03,1.017428919974e+03,-2.503671714002e+03
    5872,1.213265091938e+03,1.065361900033e+03,-2.387025283994e+03
    5873,1.333479197944e+03,9.117266939679e+02,-2.429410662595e+03
    5874,8.035807060269e+02,-1.409041840033e+03,-6.319895971999e+03
    5875,8.580486499944e+02,-1.375863299871e+03,-6.159275082008e+03
    5876,1.240061699824e+02,1.612542138401e+03,-7.453371482015e+02
    5877,2.748243480001e+02,1.593950026000e+03,-6.310821807978e+02
    5878,1.076320270392e+03,-1.210603320030e+03,-6.223752424011e+03
    5879,9.572517240146e+02,-1.308067519867e+03,-6.220519615988e+03
    5880,9.444010839748e+02,-1.317843459991e+03,-6.377798508001e+03
    5881,1.064448729998e+03,-1.221584879889e+03,-6.381025862004e+03
    5882,1.144630273000e+03,-1.142739066203e+03,3.160534691740e+02
    5883,1.217189667002e+03,-1.065241700999e+03,3.620360938598e+02
    5884,-1.605446120044e+03,-1.367413660144e+02,-6.434700074000e+03
    5885,-1.606109519720e+03,-1.254255639695e+02,-6.622149981995e+03
    5886,1.244989162799e+03,-1.032637704802e+03,2.184575698603e+02
    5887,1.145510916380e+03,-1.141826265198e+03,2.165372614360e+02
    5888,1.152800702600e+03,-1.134427990199e+03,8.423418955000e+01
    5889,1.577391119908e+03,3.462391696023e+02,-6.415108552022e+03
    5890,1.610004179980e+03,1.054497259823e+02,-6.447586185985e+03
    5891,1.590887200037e+03,2.732796160024e+02,-6.546295183981e+03
    5892,-3.464281000608e+02,1.590209059932e+03,-6.632737405977e+03
    5893,-3.178071000473e+02,1.594892440276e+03,-6.466251916035e+03
    5894,-5.384723398672e+02,1.538045240490e+03,-6.540965284008e+03
    5895,7.439950340170e+02,-1.441980119993e+03,-6.478334247998e+03
    5896,-6.447593359638e+02,-1.484894716053e+03,-4.907153581998e+03
    5897,-6.047452100297e+02,-1.501864120047e+03,-4.741237004601e+03
    5898,-7.922610959520e+02,-1.411053803962e+03,-4.852732797004e+03
    5899,6.770060618029e+02,-1.468579222012e+03,9.045212152018e+01
    5900,8.031716809975e+02,-1.403555788015e+03,8.309311026404e+01
    5901,7.947508752019e+02,-1.408436078004e+03,2.629863636201e+02
    5902,-1.095631426040e+03,-1.189005665983e+03,-4.966632463992e+03
    5903,-1.127930771938e+03,-1.158302795964e+03,-4.814719635994e+03
    5904,1.292368100017e+03,9.686418260088e+02,-2.615515172000e+03
    5905,1.209589931954e+03,1.069260380018e+03,-2.692401889996e+03
    5906,1.617707792014e+03,-2.216143560187e+01,9.710773399506e+00
    5907,1.617255260005e+03,4.046610519807e+01,1.390877098011e+02
    5908,1.611558295987e+03,-1.428525928034e+02,8.866279500159e+01
    5909,-1.601879819977e+03,-1.843846959706e+02,-4.964959718017e+03
    5910,-1.609797800213e+03,-9.446496016238e+00,-7.130906634013e+03
    5911,-1.608886480156e+03,4.504124594617e+01,-7.276275532016e+03
    5912,-1.606753139901e+03,9.819469001010e+01,-6.930881449988e+03
    5913,1.410057388014e+03,-7.910692100001e+02,-2.382905818598e+03
    5914,-1.157230314015e+03,-1.129861246025e+03,-3.586914866005e+03
    5915,-1.205092408019e+03,-1.078427210021e+03,-3.453575796003e+03
    5916,-1.307630655978e+03,-9.504136440044e+02,-3.535271323998e+03
    5917,-3.332549380157e+02,1.583793607995e+03,-1.284112933988e+03
    5918,-3.625467099973e+02,1.577264990036e+03,-1.164870016005e+03
    5919,1.434023540070e+03,-7.457252520326e+02,-7.023292239195e+03
    5920,1.377415964053e+03,-8.474171599918e+02,-6.919963604006e+03
    5921,-2.745116500096e+02,1.595118857996e+03,-1.488880401991e+03
    5922,-4.063465499889e+02,1.566880598003e+03,-1.380077489997e+03
    5923,1.483261460032e+03,-6.393178299974e+02,-6.896095024000e+03
    5924,-1.599607120020e+03,-2.050371619873e+02,-3.604037563999e+03
    5925,-1.611844019873e+03,-4.558314025171e+00,-3.611829921995e+03
    5926,-1.611535999771e+03,-3.659666596620e+01,-3.778687818003e+03
    5927,-1.595411000058e+03,-2.367989679967e+02,-3.770892223992e+03
    5928,1.348972958022e+03,-8.920714720018e+02,-6.659142317996e+03
    5929,1.421019740038e+03,-7.698776840713e+02,-6.733684383204e+03
    5930,-1.591138259749e+03,2.460217039896e+02,-6.477173976009e+03
    5931,-1.537273699805e+03,4.788282760296e+02,-6.311484387209e+03
    5932,-9.910280160112e+02,-1.278762886058e+03,-4.031435550201e+03
    5933,-1.012290398032e+03,-1.261775966016e+03,-4.189303780004e+03
    5934,1.453762989397e+03,7.086554905975e+02,4.459879559997e+02
    5935,1.390891919993e+03,8.250965899930e+02,3.718672798003e+02
    5936,1.370135988000e+03,8.589865039971e+02,2.516094054026e+02
    5937,1.273295513998e+03,9.968573160007e+02,2.748607106043e+02
    5938,-8.785574400809e+02,1.374300439606e+03,-4.942354413986e+03
    5939,-7.243538397910e+02,1.466067020135e+03,-5.028656206008e+03
    5940,-1.516513159738e+03,5.478340220175e+02,-5.594359922193e+03
    5941,-1.489962500218e+03,6.165981219689e+02,-5.678255018006e+03
    5942,-1.519993599881e+03,5.369822940013e+02,-5.766761406001e+03
    5943,1.225548252005e+03,1.052590940030e+03,-3.942748382397e+03
    5944,1.135203300103e+03,1.145943400078e+03,-3.800456402006e+03
    5945,-2.060676198840e+02,1.608508820114e+03,-3.605214335990e+03
    5946,-8.012381994363e+01,1.617987060072e+03,-3.534449324004e+03
    5947,-1.410357991741e+01,1.619139848065e+03,-3.613603657992e+03
    5948,-1.403413399035e+02,1.614901380112e+03,-3.684357221986e+03
    5949,-1.615610769996e+03,7.281884399718e+01,-1.406273919838e+02
    5950,1.495232880049e+03,-6.087924780219e+02,-4.746598438003e+03
    5951,1.458411219993e+03,-6.926997239983e+02,-4.821864673799e+03
    5952,1.488125039983e+03,-6.260601020173e+02,-4.907900783601e+03
    5953,1.521182279914e+03,-5.405985480293e+02,-4.832636042005e+03
    5954,1.482262400113e+03,-6.399408800169e+02,-5.095193613196e+03
    5955,1.520794100117e+03,-5.416240480272e+02,-5.011963187992e+03
    5956,1.444228119943e+03,-7.221006820177e+02,-4.991132813799e+03
    5957,1.056767660065e+03,1.217235379885e+03,-3.430195637998e+03
    5958,9.995532999797e+02,1.264467320071e+03,-3.317858522001e+03
    5959,1.079685979996e+03,1.197678099939e+03,-3.249065453992e+03
    5960,1.133886560130e+03,1.146992459975e+03,-3.361398560009e+03
    5961,-1.119127002014e+03,1.168576353985e+03,-8.624304119501e+01
    5962,-1.117494125997e+03,1.170317882006e+03,-2.318004157913e+02
    5963,4.014882059712e+02,1.566168785996e+03,-1.606815966199e+03
    5964,1.046592910005e+03,-1.234218168041e+03,-5.096316009994e+03
    5965,1.113668779964e+03,-1.173407860031e+03,-5.183516170003e+03
    5966,1.196168389993e+03,-1.088401625992e+03,-5.372929273994e+03
    5967,1.106578171991e+03,1.178755908017e+03,-8.720371740246e+01
    5968,1.154282614009e+03,1.131920995995e+03,-2.287430950067e+02
    5969,-1.614518940121e+03,-3.675123403237e+01,-1.362989368000e+03
    5970,-1.607348479868e+03,-1.521482839966e+02,-1.505380157991e+03
    5971,-1.605665879992e+03,-1.721515379758e+02,-1.275255735988e+03
    5972,-1.597149020106e+03,2.242087180322e+02,-2.884910057993e+03
    5973,-1.604460619921e+03,1.648863279876e+02,-2.739364477992e+03
    5974,-1.588767800075e+03,2.815002820162e+02,-2.690322912017e+03
    5975,-1.577255140110e+03,3.401782860315e+02,-2.835863556008e+03
    5976,-1.610691860167e+03,6.335464798121e+01,-4.647248278012e+03
    5977,-3.658320900052e+02,-1.578055619908e+03,-5.012849182803e+03
    5978,-5.452407219838e+02,-1.524627760034e+03,-5.072611196062e+03
    5979,1.035845060000e+03,1.234271080021e+03,-3.816080501992e+03
    5980,2.209155759961e+02,-1.602286348000e+03,-1.299284356014e+02
    5981,2.128699432052e+02,-1.603423134380e+03,-3.325238677988e+02
    5982,3.136257031963e+02,-1.586634901602e+03,-3.400904014012e+02
    5983,1.249415707987e+03,1.024848928025e+03,-1.174285124001e+03
    5984,1.336956956017e+03,9.081340819813e+02,-1.125882704607e+03
    5985,1.358673411974e+03,8.752863760045e+02,-1.247968576993e+03
    5986,1.589532380005e+03,2.972654379983e+02,-5.164557315997e+03
    5987,1.570601704010e+03,3.857450200013e+02,-5.287377070004e+03
    5988,1.563110025990e+03,4.193531440184e+02,-5.075789050000e+03
    5989,-1.307002400140e+03,9.484842080266e+02,-4.652725687408e+03
    5990,-1.203422127955e+03,1.083034680118e+03,-4.662015971800e+03
    5991,-1.306499880154e+03,9.481521879433e+02,-4.769427255591e+03
    5992,1.561089280106e+03,-4.102628340276e+02,-3.186179379197e+03
    5993,1.580888719998e+03,-3.292232719565e+02,-3.371329605997e+03
    5994,-1.086807863988e+03,-1.196977242021e+03,-5.150897660008e+03
    5995,-9.653512100702e+02,-1.297774745974e+03,-4.973758780009e+03
    5996,1.159334053971e+03,1.125905553979e+03,-1.025440839993e+03
    5997,1.246375881989e+03,1.028778320013e+03,-1.019755550004e+03
    5998,-1.131156770004e+03,1.162896960097e+03,-6.744501827993e+03
    5999,8.768286399292e+02,1.348474539752e+03,-4.428201066192e+03
    6000,7.731247602379e+02,1.409929539807e+03,-4.235075836008e+03
    6001,1.531514465993e+03,5.206083859954e+02,-1.733387002802e+03
    6002,1.587589351978e+03,3.143061959889e+02,-1.631552645960e+03
    6003,1.564439172035e+03,4.132473460064e+02,-1.762113124600e+03
    6004,1.464252192001e+03,6.854646740311e+02,-1.659763470600e+03
    6005,1.196603976026e+03,1.084625383953e+03,-1.896831217992e+03
    6006,1.214315426028e+03,1.064593355964e+03,-2.042127083993e+03
    6007,-1.563753843601e+03,4.139665060192e+02,-6.390364640026e+02
    6008,1.588749032058e+03,3.105932900086e+02,-2.105846859400e+03
    6009,1.597934429977e+03,2.612647119888e+02,-2.250392231141e+03
    6010,-8.852044320040e+02,-1.355205376006e+03,-2.778536510996e+03
    6011,-7.796852279925e+02,-1.418817982017e+03,-2.893138760800e+03
    6012,-6.899716077995e+02,-1.464763462011e+03,-2.786786734160e+03
    6013,-1.213466332009e+03,1.070820636020e+03,-4.009297795943e+02
    6014,5.130466399138e+02,1.521464960505e+03,-4.768455463993e+03
    6015,3.904893398466e+02,1.559563739828e+03,-4.702290719982e+03
    6016,2.242529799025e+02,1.595948299740e+03,-4.684744897402e+03
    6017,3.061882601546e+02,1.580619460142e+03,-4.609698001996e+03
    6018,3.094569399684e+02,1.579027959909e+03,-4.777362462001e+03
    6019,1.450000639965e+03,7.272652220083e+02,-4.366323558012e+03
    6020,1.386988840084e+03,8.400105320444e+02,-4.414963198000e+03
    6021,-1.131631466048e+03,-1.155153636008e+03,-4.203689800003e+03
    6022,1.028666128399e+03,-1.248156200204e+03,6.583213380399e+02
    6023,-1.457417379946e+03,-6.966456549967e+02,-2.634297839986e+03
    6024,-1.476644540065e+03,-6.542951967977e+02,-2.820012620002e+03
    6025,-1.389049593995e+03,-8.260343545959e+02,-2.693594460002e+03
    6026,1.527261898008e+03,5.300090859934e+02,-6.316489481965e+03
    6027,1.566160940021e+03,3.964294927994e+02,-6.266908659990e+03
    6028,1.542682470049e+03,4.809633413983e+02,-6.464698890007e+03
    6029,7.720902399637e+02,-1.425031539857e+03,-5.422628935983e+03
    6030,7.611576720084e+02,-1.430551319952e+03,-5.189025438001e+03
    6031,1.613324260136e+03,-1.478685119906e+02,-2.293660405801e+03
    6032,1.603759140026e+03,-2.275057040158e+02,-2.189868747200e+03
    6033,1.608122599994e+03,-1.932821620052e+02,-2.077115027398e+03
    6034,1.583529533950e+03,-3.388986299854e+02,-2.022141854601e+03
    6035,6.567273597903e+02,1.464641880047e+03,-4.808261525986e+03
    6036,7.850529202726e+02,1.401596800192e+03,-4.733876800804e+03
    6037,8.659434202765e+02,1.354998020206e+03,-4.582832775198e+03
    6038,9.690076939842e+02,1.294428490004e+03,-2.750467500076e+01
    6039,8.583779320066e+02,1.370571825801e+03,-1.213327179616e+01
    6040,1.579098640020e+03,-3.372852939968e+02,-4.667972194008e+03
    6041,1.598297779993e+03,-2.312533480250e+02,-4.783063157991e+03
    6042,1.608838080057e+03,-1.454832440017e+02,-4.710019150013e+03
    6043,1.595242179965e+03,-2.523880219674e+02,-4.594934491994e+03
    6044,1.164504460067e+03,1.118319619956e+03,-2.272215849998e+03
    6045,1.108760379938e+03,1.173684459943e+03,-2.125569887994e+03
    6046,8.648531028025e+02,-1.369414100101e+03,-5.091420192009e+03
    6047,6.353126219929e+02,-1.491165039960e+03,-5.058230645986e+03
    6048,-1.552192100277e+03,-4.326541100157e+02,-7.181190037988e+03
    6049,-1.533630239943e+03,-4.958071300187e+02,-7.080255810005e+03
    6050,1.068272959988e+03,1.210153839930e+03,-2.362047127993e+03
    6051,1.023720841999e+03,-1.255666800141e+03,-6.071259991983e+03
    6052,-1.530856000065e+03,-5.032204900508e+02,-7.284295878006e+03
    6053,1.168654685998e+03,-1.120161600054e+03,-6.167753268006e+03
    6054,1.119872449993e+03,-1.169284359991e+03,-6.015243233985e+03
    6055,1.602138940111e+03,-1.854779939923e+02,-6.513157693989e+03
    6056,1.575042320020e+03,-3.488507959822e+02,-6.523064697983e+03
    6057,1.602942419863e+03,-1.772466839908e+02,-6.650294805982e+03
    6058,1.407192379960e+03,-7.915237480081e+02,-4.382199967040e+03
    6059,1.446900540114e+03,-7.158962859797e+02,-4.298570686601e+03
    6060,1.478019639857e+03,-6.492909319688e+02,-4.438119049600e+03
    6061,1.519828160017e+03,-5.443796919781e+02,-4.389143226009e+03
    6062,-5.211777799724e+02,-1.533148319943e+03,-4.935314948061e+03
    6063,-1.591606980182e+03,2.399124879800e+02,-6.770556669991e+03
    6064,-1.590175900131e+03,2.504582879749e+02,-6.625392130001e+03
    6065,1.535531193973e+03,5.053944819849e+02,-6.169567175983e+03
    6066,-1.607815600067e+03,8.385189595142e+01,-6.788494494001e+03
    6067,-9.861956799394e+02,1.281462679898e+03,-5.777907623995e+03
    6068,-1.144281199903e+03,1.138344418048e+03,-5.848428605999e+03
    6069,-1.091947539856e+03,1.186699531600e+03,-5.691566271998e+03
    6070,1.608405580006e+03,-1.468896820135e+02,-4.918003886007e+03
    6071,1.613333519974e+03,-7.665840000756e+01,-5.092663786016e+03
    6072,1.614386079990e+03,7.146151799198e+01,-5.041610037979e+03
    6073,1.615916320013e+03,1.045339983107e+00,-4.866958420011e+03
    6074,1.560093262054e+03,4.212664940050e+02,-6.050106484029e+03
    6075,1.617746844007e+03,2.180549879734e+01,-1.168934379991e+02
    6076,1.609934160001e+03,1.586424875955e+02,6.553007940791e+00
    6077,9.857978880018e+02,1.281279439981e+03,-5.892787936010e+02
    6078,8.474318199919e+02,1.377019444014e+03,-5.431538294055e+02
    6079,7.233030039941e+02,-1.446029611998e+03,-4.923940484008e+02
    6080,1.157828551398e+03,-1.129250793997e+03,-2.695828711400e+01
    6081,1.120633160001e+02,-1.613624859020e+03,4.293464222012e+02
    6082,-1.467442322010e+03,6.821226099961e+02,-1.431377504806e+02
    6083,-1.112448267982e+03,1.175379739976e+03,-3.978995300048e+02
    6084,1.266878700073e+03,1.013353639947e+03,-5.227699607998e+03
    6085,1.350072339981e+03,8.987655199622e+02,-5.172492877992e+03
    6086,-5.817150700018e+02,-1.511218591969e+03,-2.922978020999e+03
    6087,-6.821744852004e+02,-1.468414060032e+03,-2.974341310304e+03
    6088,-5.928839846037e+02,-1.506861710014e+03,-3.115108796999e+03
    6089,-7.529401379932e+02,-1.433233787953e+03,-3.068845878400e+03
    6090,1.251626900017e+03,1.023243523986e+03,-3.266122403985e+02
    6091,1.613519758794e+03,1.160085840001e+02,2.297275576006e+02
    6092,1.421139090006e+03,7.713398999827e+02,-6.650795213985e+03
    6093,1.336776181967e+03,9.095124139961e+02,-6.663091985969e+03
    6094,1.319205492199e+03,9.363760960055e+02,-6.493677624016e+03
    6095,1.091129719977e+03,1.190678403949e+03,-6.498224770001e+03
    6096,9.713506801130e+02,1.288277900089e+03,-6.487390743600e+03
    6097,1.216741493991e+03,1.064579245000e+03,-6.507849158014e+03
    6098,9.415166003996e+02,-1.315139117199e+03,7.609793332199e+02
    6099,1.395154292000e+03,8.168363280238e+02,-6.885456680029e+02
    6100,1.307255942021e+03,9.508090400236e+02,-7.127826517938e+02
    6101,1.380697547995e+03,8.411038160053e+02,-5.756270792037e+02
    6102,1.431879429985e+03,-7.528979433960e+02,-1.770717867700e+03
    6103,1.350445473800e+03,-8.898166819856e+02,-1.593297469901e+03
    6104,7.911191659746e+02,1.408724061928e+03,-1.665648808007e+03
    6105,7.994064879772e+02,1.404349428015e+03,-1.465195044005e+03
    6106,7.113539759426e+02,1.450703533998e+03,-1.767009321992e+03
    6107,8.842129999914e+02,1.351830549957e+03,-1.755909451994e+03
    6108,1.600758345984e+03,2.409805999856e+02,-1.788667041940e+03
    6109,1.590101165986e+03,3.030305119854e+02,-1.956717813600e+03
    6110,7.914560333970e+02,1.410532326819e+03,7.382539660250e+01
    6111,1.614656076041e+03,1.224278720176e+02,-1.945305679201e+03
    6112,1.614214429982e+03,1.301178539893e+02,-2.094431259999e+03
    6113,1.604136360266e+03,-1.651288760093e+02,-6.778867818014e+03
    6114,1.600714200229e+03,-1.953060939767e+02,-6.956542647999e+03
    6115,8.527540360092e+02,-1.375032791993e+03,-3.640250127988e+03
    6116,7.962026600029e+02,-1.409038449976e+03,-3.777362176015e+03
    6117,9.095478080153e+02,-1.338022742001e+03,-3.835774754006e+03
    6118,1.518257693990e+03,-5.542087859844e+02,-2.943501966800e+03
    6119,2.845583800896e+02,1.587786879898e+03,-4.198911345604e+03
    6120,1.361054870014e+03,8.719371320077e+02,-3.158462651403e+03
    6121,1.405572615973e+03,8.013682599716e+02,-3.302529360199e+03
    6122,1.288327279980e+03,9.741900999934e+02,-3.237776400805e+03
    6123,9.358683001048e+02,1.321413933994e+03,-5.397835270400e+03
    6124,9.121809400286e+02,1.337620346004e+03,-5.624693321800e+03
    6125,1.571625146017e+03,-3.842379223983e+02,1.060728465989e+02
    6126,1.600530256011e+03,-2.368783693957e+02,-1.544122079866e+01
    6127,1.595903179948e+03,-2.345822680040e+02,-6.371701025996e+03
    6128,1.577730020088e+03,-3.371965399941e+02,-6.269989689988e+03
    6129,-8.441289640329e+02,-1.379866226020e+03,-5.657237428795e+03
    6130,1.612554419924e+03,-3.748680599171e+01,-6.456445241965e+03
    6131,1.610778699974e+03,-8.697419600629e+01,-6.314988142000e+03
    6132,-1.098342875991e+03,-1.186742894009e+03,-4.629096530009e+03
    6133,-6.019748319693e+02,-1.503126579985e+03,-4.229130143880e+03
    6134,1.553388999906e+03,-4.373023469980e+02,-6.100263524001e+03
    6135,1.601842700058e+03,-1.920472954033e+02,-6.157413910018e+03
    6136,6.553967199329e+02,1.474928820007e+03,-2.754499254003e+03
    6137,6.033553401329e+02,1.496892340088e+03,-2.894205254006e+03
    6138,5.072255599481e+02,1.532900259943e+03,-2.857690092003e+03
    6139,5.605408199866e+02,1.514169640024e+03,-2.717992759994e+03
    6140,7.506199800450e+02,1.428636240064e+03,-2.664458222010e+03
    6141,7.478403599963e+02,1.429377440054e+03,-2.898767575984e+03
    6142,2.097753799991e+02,-1.603955453596e+03,-7.395837205990e+02
    6143,1.458298459974e+03,-6.934783667199e+02,-5.638547276200e+03
    6144,1.420167539882e+03,-7.694878099914e+02,-5.744213607198e+03
    6145,1.127425637983e+02,-1.613842404002e+03,-6.445299387973e+02
    6146,-1.440424785990e+03,7.376799799641e+02,-2.924285412805e+02
    6147,-1.602396380020e+03,-2.043079559922e+02,-9.083360320151e+02
    6148,-1.595728879951e+03,-2.494080699735e+02,-1.082207479992e+03
    6149,-1.336523680246e+03,9.022622940080e+02,-5.955128815003e+03
    6150,-1.281071100215e+03,9.810128159557e+02,-6.015524441993e+03
    6151,-1.232633360143e+03,1.039026487991e+03,-5.724605739998e+03
    6152,-1.205811819928e+03,1.073783494072e+03,-5.965349935988e+03
    6153,-1.288534940061e+03,9.696270139759e+02,-5.841513997601e+03
    6154,-6.535820399204e+02,1.497342920327e+03,-4.628858643964e+03
    6155,-9.927478440448e+01,-1.616757599934e+03,-3.234721429997e+03
    6156,1.016214303984e+03,1.255415606056e+03,-1.731710555996e+03
    6157,1.100933179988e+03,1.181773045931e+03,-1.732935700004e+03
    6158,-8.019934797334e+02,1.422950840258e+03,-4.650443030006e+03
    6159,7.649142439949e+02,1.423755282030e+03,-1.306191950006e+03
    6160,-1.178846346029e+03,-1.106141325966e+03,-4.679695522011e+03
    6161,-1.296968540052e+03,-9.638491159991e+02,-4.578449512014e+03
    6162,-1.161215165987e+03,-1.126281186022e+03,-2.717526819998e+03
    6163,-1.222996853998e+03,-1.058311806021e+03,-2.858241930004e+03
    6164,-1.132177448012e+03,-1.155568462003e+03,-2.945810673800e+03
    6165,-1.064999939989e+03,-1.218200822014e+03,-2.805092999401e+03
    6166,-6.779013197486e+02,1.490264260185e+03,-5.923546348405e+03
    6167,6.249548602509e+02,1.478213899668e+03,-4.939305172005e+03
    6168,7.436432400764e+02,1.424884519724e+03,-5.092030712440e+03
    6169,7.969309880082e+02,-1.408210298020e+03,-3.491825967996e+03
    6170,-7.140832280141e+02,-1.452993123977e+03,-3.571960691798e+03
    6171,-8.195534759829e+02,-1.395830361955e+03,-3.625893129802e+03
    6172,-1.261518140087e+03,1.011973519965e+03,-4.547878183799e+03
    6173,1.000137181990e+03,1.271737514396e+03,-5.972583061998e+03
    6174,8.644491999515e+02,1.362734079861e+03,-6.085337961404e+03
    6175,5.100106080043e+02,1.533762906024e+03,-1.775990996201e+03
    6176,-1.561024320084e+03,4.005188160072e+02,-3.772098859993e+03
    6177,-1.537032140146e+03,4.872408159920e+02,-3.638351770009e+03
    6178,-1.494676920022e+03,6.073377320266e+02,-3.704231226008e+03
    6179,-1.525046959910e+03,5.226633580034e+02,-3.837998047989e+03
    6180,3.255056899826e+02,-1.589300500119e+03,-5.763252941997e+03
    6181,-1.597054799988e+03,-2.470272139943e+02,-3.258849780013e+02
    6182,-1.558885932039e+03,-4.249501059996e+02,-4.914918140037e+02
    6183,-1.317523340119e+03,9.349114799740e+02,-4.476291393996e+03
    6184,1.426608000029e+03,7.699970699814e+02,-5.141276990010e+03
    6185,-6.097537840124e+02,1.499228285993e+03,-6.057052379944e+02
    6186,-6.006290319897e+02,1.502897460019e+03,-7.512279760045e+02
    6187,-1.208624443990e+02,-1.615018639941e+03,-2.781107386008e+03
    6188,8.853212219958e+02,1.350511339860e+03,-5.248833418000e+03
    6189,-4.437398900026e+02,-1.557650179891e+03,-4.842820281000e+03
    6190,-3.969235400173e+02,-1.570406499967e+03,-4.729463028796e+03
    6191,1.321707659963e+03,9.382840719915e+02,-4.582945738404e+03
    6192,1.307334879963e+03,9.567193800005e+02,-4.445388962404e+03
    6193,1.399322119903e+03,8.202078619600e+02,-4.552539402008e+03
    6194,2.852761599431e+02,1.572735139871e+03,-5.127376917680e+03
    6195,-4.558318399530e+02,1.562947539912e+03,-6.400913336017e+03
    6196,-1.603090579734e+03,-1.715471800350e+02,-5.126843509991e+03
    6197,1.438897440031e+03,7.428247720053e+02,-3.387314233799e+03
    6198,-2.863317959643e+02,-1.594679240125e+03,-4.920355120795e+03
    6199,5.174005440268e+02,-1.536289260069e+03,-4.930306729999e+03
    6200,-1.664565080352e+02,-1.611951000115e+03,-4.814783017996e+03
    6201,-1.202736880085e+02,-1.616291520129e+03,-5.040319419992e+03
    6202,1.202506943988e+03,-1.083601299938e+03,-6.332645074012e+03
    6203,1.090071903995e+03,-1.198869079903e+03,-6.548646348001e+03
    6204,1.225150739994e+03,-1.057965459935e+03,-6.500268844013e+03
    6205,1.442318414016e+03,7.356958759992e+02,-5.555758110006e+03
    6206,1.383031540062e+03,8.439310540369e+02,-5.634530675997e+03
    6207,1.273457750055e+03,-9.972314240261e+02,-6.113754399997e+03
    6208,1.192047994059e+03,-1.091586882999e+03,-4.611990745999e+03
    6209,1.088408481966e+03,-1.196288032011e+03,-4.686382591991e+03
    6210,1.235999626058e+03,-1.041138109397e+03,-4.713616989996e+03
    6211,1.241065090047e+03,-1.034719553985e+03,-4.516100430803e+03
    6212,1.106676575978e+03,-1.178976551993e+03,-4.541879587995e+03
    6213,1.606022964009e+03,-1.979174637954e+02,-3.539198088008e+02
    6214,1.594391468012e+03,-2.759609352025e+02,-2.247054305996e+02
    6215,1.616886072013e+03,-6.203581479898e+01,-3.119629755979e+02
    6216,1.612942374025e+03,-1.308224424062e+02,-4.855248006003e+02
    6217,-9.656954799022e+02,1.298633200129e+03,-5.348877412399e+03
    6218,-1.075691700145e+03,1.204422160019e+03,-5.313616442300e+03
    6219,-1.345239280162e+02,-1.614721079993e+03,-4.214480437993e+03
    6220,7.494202999585e+02,1.422152419994e+03,-5.251876225198e+03
    6221,-4.372291399924e+02,1.565681960217e+03,-3.904356404007e+03
    6222,-6.038455400821e+02,1.510402100137e+03,-3.814148531993e+03
    6223,-5.447228199425e+02,1.531485919953e+03,-3.678613840035e+03
    6224,-3.760605200156e+02,1.580117420271e+03,-3.768861433976e+03
    6225,-1.279605707930e+03,9.941612000460e+02,-2.399858912008e+03
    6226,-1.242613095935e+03,1.040413220141e+03,-2.288761261995e+03
    6227,-1.169878211984e+03,1.122373280141e+03,-2.348225418006e+03
    6228,-1.210014653931e+03,1.078811720113e+03,-2.459327845992e+03
    6229,-1.195181545989e+03,1.094819480008e+03,-2.171639791995e+03
    6230,-1.318190798032e+03,9.415437601213e+02,-2.210830630797e+03
    6231,2.331113846033e+02,-1.600614281801e+03,-5.131152707955e+02
    6232,1.208232827970e+02,-1.613154980599e+03,-4.193592348036e+02
    6233,-1.485461555955e+03,-6.350454500069e+02,-1.229169538005e+03
    6234,-1.481883959972e+03,-6.436375780062e+02,-1.083939014006e+03
    6235,-1.527402819985e+03,-5.252656799872e+02,-1.240953587996e+03
    6236,-1.471771992000e+03,-6.661933739825e+02,-1.378255900008e+03
    6237,-1.412815929980e+03,-7.845955279913e+02,-1.180194435996e+03
    6238,1.562206709981e+03,-4.136026019889e+02,-3.008546810803e+03
    6239,1.576382320050e+03,-3.480799920175e+02,-5.173078623987e+03
    6240,1.543395260106e+03,-4.732498199826e+02,-5.098772567992e+03
    6241,1.524848839863e+03,-5.300007939829e+02,-5.199530714006e+03
    6242,1.547129048003e+03,4.723481079971e+02,-1.337345856600e+03
    6243,1.504773556400e+03,5.923696300039e+02,-1.370315816400e+03
    6244,1.492786932003e+03,6.216653380121e+02,-1.257544126799e+03
    6245,8.381174201074e+02,1.377367740096e+03,-6.459836091984e+03
    6246,7.274567059971e+02,1.444294718005e+03,-5.478657197984e+02
    6247,1.482159681995e+03,6.451729999954e+02,-6.642364123988e+03
    6248,-8.582695319654e+02,1.379219319953e+03,-5.461389544017e+03
    6249,1.551597455997e+03,-4.612174580029e+02,-1.355964249602e+03
    6250,1.521126385986e+03,-5.527403214023e+02,-1.189599734801e+03
    6251,9.257996199365e+02,1.317355820280e+03,-3.826791805994e+03
    6252,1.544265665981e+03,-4.846421999937e+02,-1.090149094999e+03
    6253,1.497711437983e+03,-6.128666685990e+02,-9.674894502000e+02
    6254,7.012830799580e+02,1.448978920208e+03,-3.857090429992e+03
    6255,5.071501001362e+02,1.529680439916e+03,-3.821503341992e+03
    6256,6.080170799073e+02,1.491770680075e+03,-3.746720816011e+03
    6257,-9.393717160169e+02,1.318568641988e+03,-8.601255799962e+02
    6258,-1.049812949981e+03,1.232626083944e+03,-8.976333200012e+02
    6259,1.362664037948e+03,8.688727119980e+02,-6.802557454017e+03
    6260,1.421357442064e+03,7.689112012003e+02,-6.819268444015e+03
    6261,1.218324407949e+03,1.061509456010e+03,-6.678904300003e+03
    6262,8.485401740121e+02,1.376221128008e+03,-6.758477625914e+02
    6263,7.285906899883e+02,1.443540489993e+03,-6.805576559978e+02
    6264,1.230907166014e+03,-1.051649559949e+03,-6.676067497994e+03
    6265,1.143545563999e+03,-1.147586720137e+03,-6.697283503982e+03
    6266,9.146983560193e+02,1.332940672012e+03,-7.853837102084e+02
    6267,1.461989899942e+03,-6.859933019929e+02,-6.099939593440e+03
    6268,1.420717279922e+03,-7.687681899821e+02,-5.953436900399e+03
    6269,1.351504499932e+03,-8.865955220095e+02,-6.050171319994e+03
    6270,1.612634020108e+03,-2.106558198783e+01,-6.650190817975e+03
    6271,-1.613098680006e+03,8.644386600570e+01,-1.277865720010e+03
    6272,1.608610480081e+03,1.218383659865e+02,-6.641342830036e+03
    6273,1.086252959985e+03,1.194964801995e+03,-1.893335065998e+03
    6274,-1.414216560032e+03,7.786470500326e+02,-4.069329041997e+03
    6275,-1.303834242025e+03,9.590035000313e+02,-3.986839987801e+03
    6276,1.029265879931e+03,1.244150840043e+03,-2.018437158003e+03
    6277,9.690603919954e+02,1.292055078016e+03,-1.819115072001e+03
    6278,1.616088721998e+03,-8.702200999685e+01,-7.708621731990e+02
    6279,1.618418131991e+03,1.982170005682e+00,-8.549822361984e+02
    6280,1.231506803964e+03,-1.049032651984e+03,-5.969724846003e+03
    6281,1.201812646007e+03,-1.083062373952e+03,-5.816192131995e+03
    6282,1.086850199996e+03,-1.200127619967e+03,-5.861716498012e+03
    6283,1.314046603930e+03,-9.417184559658e+02,-5.906133584004e+03
    6284,-1.398829760194e+03,8.016481900075e+02,-5.235266850196e+03
    6285,-1.397563759876e+03,8.044413979797e+02,-5.380880113598e+03
    6286,3.714662600889e+02,1.571488120048e+03,-3.323295069398e+03
    6287,5.064670598909e+02,1.531948039938e+03,-3.314128363998e+03
    6288,-1.084514354004e+03,-1.200625980003e+03,-1.274783580400e+03
    6289,-1.611727159833e+03,4.541007600297e+01,-2.930936687991e+03
    6290,-1.592661299790e+03,2.526082060273e+02,-3.045727611998e+03
    6291,-1.610438160265e+03,7.409630002886e+01,-3.091743354002e+03
    6292,1.532026298000e+03,5.186841259721e+02,-2.668414128603e+03
    6293,1.510038452799e+03,5.789992220240e+02,-2.546993505799e+03
    6294,1.493282649977e+03,-6.237180918809e+02,-1.953883461000e+03
    6295,1.500232300027e+03,-6.070367373970e+02,-1.791907444920e+03
    6296,1.589418027952e+03,-3.097910459824e+02,-1.884133101601e+03
    6297,1.554583530055e+03,-4.520040300087e+02,-1.842113009801e+03
    6298,1.545993106005e+03,-4.804269940037e+02,-1.980126628840e+03
    6299,2.294995120093e+02,-1.605721219928e+03,-5.612958887993e+03
    6300,3.375069440184e+02,-1.586563779977e+03,-5.545333368004e+03
    6301,1.567668131952e+03,-4.043287780055e+02,-1.650757003201e+03
    6302,-1.285998946012e+03,9.834761419482e+02,-8.433035068043e+02
    6303,-1.337723656030e+03,9.119166399951e+02,-9.636574431959e+02
    6304,-1.391727016020e+03,8.267142599938e+02,-8.771726595987e+02
    6305,-1.596087679720e+03,2.269611000031e+02,-3.205498575989e+03
    6306,-1.560274199988e+03,4.106914819748e+02,-3.070862865990e+03
    6307,-1.566065380174e+03,3.855091620010e+02,-3.230645163995e+03
    6308,-1.177588119945e+03,1.112016170053e+03,-1.283007691996e+03
    6309,-1.117252029997e+03,1.172277251976e+03,-1.093242497993e+03
    6310,8.698813199379e+02,1.359278800113e+03,-2.564134461984e+03
    6311,6.926266599375e+02,1.458197480023e+03,-2.545515492006e+03
    6312,4.447956240324e+02,1.553132257963e+03,-2.574839582598e+03
    6313,5.786926799524e+02,1.507525859927e+03,-2.586151464001e+03
    6314,1.166656499716e+02,-1.617546900042e+03,-5.543255102001e+03
    6315,1.387068020032e+03,-8.266936420279e+02,-4.506816524600e+03
    6316,1.461337159933e+03,-6.862292240317e+02,-4.562726896198e+03
    6317,1.514893840045e+03,-5.579855939668e+02,-4.623752666794e+03
    6318,1.437485900055e+03,-7.352080639886e+02,-4.685572756401e+03
    6319,1.612552905938e+03,1.413644319846e+02,-1.463993216601e+03
    6320,1.616246815953e+03,-9.388318999390e+01,-1.376377716402e+03
    6321,1.619011853929e+03,-1.201736799682e+01,-1.524233798998e+03
    6322,1.360871134009e+03,8.724272719735e+02,-8.179249113996e+02
    6323,-1.479309676010e+03,6.543365739497e+02,-2.113304157009e+03
    6324,-1.433073514799e+03,7.518258159930e+02,-2.236449207797e+03
    6325,-1.510856072005e+03,5.755908640320e+02,-2.191043472001e+03
    6326,1.431869556019e+03,7.497587480140e+02,-2.486154957399e+03
    6327,1.486926963800e+03,6.353445119811e+02,-2.425182439602e+03
    6328,-1.459496459918e+03,6.840330300269e+02,-4.383488481991e+03
    6329,-1.419765899958e+03,7.660027539966e+02,-4.282676998002e+03
    6330,-1.369307619934e+03,8.549472399486e+02,-4.379975966003e+03
    6331,1.275681980070e+03,-9.935998259711e+02,-5.807586739992e+03
    6332,1.369092839984e+03,-8.583326220056e+02,-5.840668104202e+03
    6333,2.967387819868e+02,1.589623382002e+03,-1.721544978959e+03
    6334,3.557953160201e+02,1.577200817996e+03,-1.819888041800e+03
    6335,2.117393039945e+02,1.603438211461e+03,-1.769619571200e+03
    6336,-1.311112160014e+03,9.384352700058e+02,-5.311406597601e+03
    6337,-1.508852720094e+03,-5.749435159889e+02,-2.494798128015e+03
    6338,1.620234259891e+03,2.435397999801e+01,-3.490033608003e+03
    6339,1.606162538000e+03,-1.872392399389e+02,-3.465487842010e+03
    6340,1.617754715966e+03,-6.134311398706e+01,-3.583556300017e+03
    6341,-6.613875834000e+02,-1.477910071970e+03,-2.176741990800e+03
    6342,-7.367791911994e+02,-1.441703249949e+03,-2.308553820900e+03
    6343,-1.589662039863e+03,2.779235300265e+02,-2.569377547999e+03
    6344,-1.607894840058e+03,1.297372320177e+02,-2.581294477992e+03
    6345,-1.609481060071e+03,1.119746919733e+02,-2.427431890006e+03
    6346,-1.592879680143e+03,2.603522499792e+02,-2.415513724010e+03
    6347,-9.449346100022e+02,-1.314121830003e+03,-2.059227329798e+03
    6348,-8.499271937989e+02,-1.377763720067e+03,-2.181638719001e+03
    6349,-7.685567993966e+02,-1.424930656043e+03,-2.073574411760e+03
    6350,-1.611694359967e+03,-7.366894397249e+01,-2.266332466007e+03
    6351,1.291656199936e+03,-9.706352420047e+02,-4.831950525797e+03
    6352,1.381145259928e+03,-8.369600579758e+02,-4.735356107199e+03
    6353,1.332676540059e+03,-9.125854540045e+02,-4.617002678001e+03
    6354,1.405043380009e+03,-7.960480020169e+02,-4.871643620120e+03
    6355,1.591072474057e+03,-2.830229920454e+02,-3.603102326017e+03
    6356,-1.182876720255e+03,1.094276784010e+03,-5.598751560207e+03
    6357,-1.118402800126e+03,1.160892845988e+03,-5.456919144601e+03
    6358,-1.309797840092e+03,9.400873279858e+02,-5.636668855601e+03
    6359,-1.264728559757e+03,9.992545195996e+02,-5.510799624601e+03
    6360,-1.563323639884e+03,4.064798839951e+02,-2.255204368018e+03
    6361,-1.562623300120e+03,4.077875820234e+02,-2.426009033984e+03
    6362,-2.419188997791e+01,1.618011284000e+03,-1.878687249992e+03
    6363,9.537008001131e+01,1.614948310013e+03,-1.813600319600e+03
    6364,1.939027798738e+02,1.601365399990e+03,-4.572694960798e+03
    6365,-1.403610188024e+03,-8.008093161975e+02,-1.839193220008e+03
    6366,-1.312980612031e+03,-9.433787939982e+02,-1.987485136006e+03
    6367,-1.443891709948e+03,-7.250250599835e+02,-1.536161129996e+03
    6368,-1.422112415965e+03,-7.671787459950e+02,-1.696161106001e+03
    6369,-1.372027627992e+03,-8.545225427995e+02,-1.009499564005e+03
    6370,-1.431675653986e+03,-7.494350139969e+02,-1.067171780002e+03
    6371,-1.319350846021e+03,-9.343670259989e+02,-8.921277729978e+02
    6372,1.254960993995e+03,-1.019206194001e+03,-1.597565281660e+03
    6373,1.151538945979e+03,-1.134234996009e+03,-1.596618373218e+03
    6374,-1.831263997911e+01,1.618857010069e+03,-3.178134448001e+03
    6375,-1.529509400159e+02,1.612983039875e+03,-3.171057925985e+03
    6376,-1.492704999643e+02,1.613121279975e+03,-3.056733876012e+03
    6377,-1.462348000870e+01,1.618782018001e+03,-3.063813824000e+03
    6378,9.497806009379e+01,1.613059414040e+03,-4.594077967799e+03
    6379,1.250170333990e+03,-1.025282711976e+03,-1.431331763220e+03
    6380,5.966173997139e+01,1.617100810009e+03,-3.258403046009e+03
    6381,-3.474904000621e+01,1.618894165992e+03,-3.359376773987e+03
    6382,-1.126924199795e+02,1.616070439969e+03,-3.279121136002e+03
    6383,-5.811878003392e+00,1.617430754801e+03,-7.794358039996e+02
    6384,-7.300859999328e+01,1.615932061199e+03,-8.418520820026e+02
    6385,1.596410055993e+03,2.659356479883e+02,-1.454108880240e+03
    6386,1.607571846004e+03,1.902939959914e+02,-1.641433614999e+03
    6387,-1.566455679868e+03,-3.892896179741e+02,-2.043753617993e+03
    6388,-1.508177459936e+03,-5.771389539880e+02,-2.021412847998e+03
    6389,-1.549258220069e+03,-4.539290859654e+02,-1.948806559983e+03
    6390,-1.583653539915e+03,-3.095161699798e+02,-2.342572166009e+03
    6391,-1.581646840143e+03,-3.206595660178e+02,-2.145269421991e+03
    6392,-1.600046920132e+03,-2.077741159863e+02,-2.252449173997e+03
    6393,-1.340729059929e+03,-9.002909098600e+02,-5.576870307991e+03
    6394,-1.398160460109e+03,-8.074608144089e+02,-5.476281781995e+03
    6395,-1.441029860095e+03,-7.271959440030e+02,-5.551946472007e+03
    6396,-1.388940199970e+03,-8.231162178087e+02,-5.652539787985e+03
    6397,1.031621416023e+03,-1.245323477999e+03,-3.891517317997e+03
    6398,-1.227558839888e+03,1.044857973340e+03,-5.381427133260e+03
    6399,1.463114222004e+03,6.876887160023e+02,-2.306346804998e+03
    6400,1.402672549984e+03,8.024113780400e+02,-2.366496509595e+03
    6401,1.366789127965e+03,8.615741640583e+02,-2.549064842004e+03
    6402,-4.776426780094e+02,1.547539802052e+03,-1.852103002010e+03
    6403,-3.735635820217e+02,1.575507536065e+03,-1.792610422009e+03
    6404,-4.275029659927e+02,1.562204485973e+03,-1.974371547983e+03
    6405,-5.773331439313e+02,1.513878840069e+03,-2.035256074008e+03
    6406,-6.258127519442e+02,1.494347219963e+03,-1.912989301990e+03
    6407,4.208901280229e+02,1.560939800013e+03,-1.709293475600e+03
    6408,4.459557540344e+02,1.553715571965e+03,-1.886580269396e+03
    6409,1.610048476013e+03,1.591411520329e+02,-4.590635830002e+03
    6410,1.578854579960e+03,3.635239040226e+02,-4.511113525990e+03
    6411,1.136924115958e+03,-1.148845620007e+03,-3.945575466396e+03
    6412,1.616424386018e+03,-8.368307400033e+01,-9.613121805992e+02
    6413,1.607351295972e+03,-1.899299059972e+02,-8.367068811995e+02
    6414,-1.552633420089e+03,-4.406668999894e+02,-3.877228638000e+03
    6415,-4.111630399253e+01,1.617121497000e+03,-9.561422019987e+02
    6416,-1.325893171969e+03,-9.248522939843e+02,-3.113760219992e+03
    6417,-1.419465919964e+03,-7.718807619967e+02,-3.233022622000e+03
    6418,-1.344089634060e+03,-8.978794160105e+02,-3.250505781992e+03
    6419,1.186990999507e+01,1.617641594409e+03,-1.093460034806e+03
    6420,7.861814999550e+01,1.615511161399e+03,-9.232620233956e+02
    6421,1.314906019932e+02,1.612098913998e+03,-1.060580469801e+03
    6422,-1.146047770005e+03,1.144807039958e+03,-1.417056166000e+03
    6423,-1.234767266059e+03,1.048387219965e+03,-1.467089171994e+03
    6424,-1.263545189973e+03,1.013136987940e+03,-1.333040639201e+03
    6425,-1.549157680062e+03,4.493320419756e+02,-3.329929450000e+03
    6426,-1.494440140041e+03,6.105944180022e+02,-3.411684571996e+03
    6427,-1.538301560054e+03,4.848637319851e+02,-3.464161565991e+03
    6428,-1.450201479953e+03,7.122066939472e+02,-3.435787664000e+03
    6429,-1.342269305999e+03,9.054018200820e+02,-3.287452902002e+03
    6430,-1.369229804023e+03,8.620427998861e+02,-3.468205213801e+03
    6431,1.518475579898e+03,-5.476341597957e+02,-5.954436628397e+03
    6432,5.537665059783e+02,1.517301774010e+03,-2.443583048003e+03
    6433,1.587863125999e+03,3.116117139888e+02,-1.298089809644e+03
    6434,-1.553743799855e+03,4.276012060028e+02,-5.855395478008e+03
    6435,-1.490083539841e+03,6.143518660244e+02,-5.902782204002e+03
    6436,-3.855427198368e+02,1.621464401616e+03,-5.870186871989e+03
    6437,1.340355140039e+03,-9.016796519964e+02,-4.954038232396e+03
    6438,1.385024199980e+03,-8.309055980135e+02,-5.073522270001e+03
    6439,1.438675799938e+03,-7.333563399928e+02,-5.198393466600e+03
    6440,1.488057400124e+03,-6.263029600126e+02,-5.302729419201e+03
    6441,1.608645651964e+03,-1.773072220047e+02,-6.547734445981e+02
    6442,-1.537822669980e+03,5.003934980056e+02,-1.432305014006e+03
    6443,-1.552511287968e+03,4.523621860133e+02,-1.294533011997e+03
    6444,-1.597355500029e+03,-2.235018220038e+02,-4.135192444017e+03
    6445,-1.609510340098e+03,-9.606620597044e+01,-4.227183703991e+03
    6446,-1.305106232013e+03,-9.543387859845e+02,-2.785251601996e+03
    6447,-1.251633588028e+03,-1.024067077994e+03,-2.621488583991e+03
    6448,-7.347871197358e+02,1.454385200561e+03,-4.154111429996e+03
    6449,-8.238811600675e+02,1.406417040391e+03,-4.258914002008e+03
    6450,-1.262757592010e+03,1.016262439942e+03,-3.331442238002e+03
    6451,3.444050000054e+01,1.618155354012e+03,-3.462461022009e+03
    6452,-1.491899399940e+02,1.613735859943e+03,-3.431373713999e+03
    6453,1.595579280025e+03,2.505065769993e+02,-5.882961589985e+03
    6454,1.610061079879e+03,1.218283968018e+02,-5.818526754002e+03
    6455,-1.586384539989e+03,-2.929573059929e+02,-3.911410942005e+03
    6456,-1.607450200046e+03,-1.261369239789e+02,-3.983698703993e+03
    6457,1.504668299960e+03,-5.849730440072e+02,-5.540489327998e+03
    6458,1.612346141969e+03,-1.483350019899e+02,-1.552087679199e+03
    6459,1.616769216033e+03,-9.028250198697e+01,-1.686890412399e+03
    6460,1.618464882065e+03,4.618881999700e+01,-1.659040546198e+03
    6461,-3.602894999966e+02,1.582827320008e+03,-3.578839408006e+03
    6462,-2.393600198975e+02,1.604017019931e+03,-3.506991754001e+03
    6463,-3.274401599369e+02,1.589956979722e+03,-3.677058014009e+03
    6464,1.616269610009e+03,9.729953801810e+01,-1.806269139400e+03
    6465,-7.625064000096e+02,1.432574160092e+03,-2.794038281996e+03
    6466,-6.787012999432e+02,1.473419340017e+03,-2.670150828002e+03
    6467,-5.663754600481e+02,1.519880739920e+03,-2.736672676023e+03
    6468,-9.874884400278e+02,-1.281764499962e+03,-3.637432497203e+03
    6469,-1.091817732020e+03,-1.193489630006e+03,-3.722364851992e+03
    6470,-7.657977759776e+02,1.427291375951e+03,-1.574324882012e+03
    6471,-7.256981280299e+02,1.447715311997e+03,-1.423139893989e+03
    6472,-6.016725739767e+02,1.503286209942e+03,-1.459831668013e+03
    6473,-3.980515000303e+02,1.571854160066e+03,-2.881208116015e+03
    6474,-4.716579800506e+02,1.551646400117e+03,-2.823000115984e+03
    6475,-7.857039160432e+02,1.417318179930e+03,-1.935016234010e+03
    6476,-8.087563319590e+02,1.403908679977e+03,-1.757848799996e+03
    6477,-1.174660660066e+03,-1.109924671982e+03,-5.448784967997e+03
    6478,1.165979980161e+02,-1.617381940113e+03,-5.330047851986e+03
    6479,2.483517500067e+02,-1.602563000101e+03,-5.246679193983e+03
    6480,3.417837739877e+02,-1.585429540140e+03,-5.355106621994e+03
    6481,2.316750140089e+02,-1.605225280073e+03,-5.422781368003e+03
    6482,1.503276023996e+03,-5.989179972011e+02,-7.275308121983e+02
    6483,-1.600013295971e+03,2.312207480134e+02,-8.482219199979e+02
    6484,-1.613498061947e+03,8.893811598645e+01,-9.543400959868e+02
    6485,-1.611490125947e+03,1.240729279918e+02,-8.263957860107e+02
    6486,-4.169236014310e+01,1.619516699946e+03,-4.601310567992e+03
    6487,-6.046089986260e+01,1.619602659969e+03,-4.460648163998e+03
    6488,-1.586681455984e+03,3.120437320164e+02,-7.621775220047e+02
    6489,-1.608189180227e+03,-1.025845320357e+02,-5.857709509997e+03
    6490,-1.610128280059e+03,-6.673089198237e+01,-5.612680667999e+03
    6491,9.381302801325e+02,1.311675579969e+03,-2.989525320008e+03
    6492,1.040479520030e+03,1.232935239858e+03,-2.831568798014e+03
    6493,-1.397384801774e+02,1.616695559875e+03,-4.796620038000e+03
    6494,-7.767227400017e+02,-1.420389561994e+03,-3.195392430401e+03
    6495,-9.878611339926e+02,-1.281710832026e+03,-3.226538142999e+03
    6496,-8.526065060157e+02,-1.375884400022e+03,-3.313472672399e+03
    6497,-1.354559042017e+03,8.873782199288e+02,-2.802491558530e+03
    6498,-1.422820654017e+03,7.702567800379e+02,-2.773579249802e+03
    6499,-1.407752783995e+03,7.984729799922e+02,-2.634333396999e+03
    6500,-1.337084233968e+03,9.141506798743e+02,-2.663244418599e+03
    6501,-1.474381262071e+03,6.639484320161e+02,-2.606808773999e+03
    6502,-1.484093851990e+03,6.405755460456e+02,-2.756765583997e+03
    6503,-1.532575199942e+03,5.097402659779e+02,-2.734843003991e+03
    6504,-1.524938539935e+03,5.338979679360e+02,-2.584883506004e+03
    6505,-1.344547599727e+03,8.899770399831e+02,-5.440821683441e+03
    6506,1.472010879933e+03,6.818406940428e+02,-4.499918273987e+03
    6507,1.492158360064e+03,6.356435860295e+02,-4.653832899999e+03
    6508,-9.547760799369e+02,1.312652680194e+03,-2.861621637989e+03
    6509,-8.794852399157e+02,1.363826359961e+03,-2.729484994011e+03
    6510,1.507060900028e+03,6.003651040616e+02,-4.307125128015e+03
    6511,1.524676900014e+03,5.530509320512e+02,-4.440723221996e+03
    6512,-1.372694760161e+03,8.463495799853e+02,-5.549382056280e+03
    6513,-8.973185397236e+02,1.362319879540e+03,-4.616518266009e+03
    6514,-1.585399379954e+03,-3.037332599792e+02,-1.749914972016e+03
    6515,-1.597815500011e+03,-2.303159119854e+02,-1.627770754001e+03
    6516,-1.600322019927e+03,-1.990772859899e+02,-3.459572777987e+03
    6517,-1.611033380279e+03,-6.003645201836e+01,-3.282564805985e+03
    6518,-1.611538780226e+03,-3.923628798528e+01,-3.435438046002e+03
    6519,1.833643002374e+02,1.597168240205e+03,-5.046661948005e+03
    6520,-2.613109995841e+01,1.618259513976e+03,-4.982840248000e+03
    6521,2.485498798148e+02,1.589904240238e+03,-4.940090550197e+03
    6522,3.549320000328e+01,1.617535084006e+03,-1.689483432405e+03
    6523,-1.468827400061e+03,-6.722029499879e+02,-1.873499530005e+03
    6524,-1.513987759858e+03,-5.617343600169e+02,-1.884705170010e+03
    6525,-1.093071951984e+03,-1.192994928028e+03,-2.567538315403e+03
    6526,-1.565481059917e+03,-3.939479900014e+02,-1.857989665984e+03
    6527,1.536205208017e+03,5.038094139936e+02,-5.871214295993e+03
    6528,1.572743730045e+03,3.702413419984e+02,-5.935762827999e+03
    6529,-1.199780300338e+02,1.614597983959e+03,-2.453307410008e+03
    6530,-2.698641719945e+02,1.597248259955e+03,-2.475603609993e+03
    6531,-1.260879509991e+03,1.018134359913e+03,-3.679098661998e+03
    6532,-1.307486902002e+03,9.558455600943e+02,-3.520142931700e+03
    6533,-1.233577154023e+03,1.052400959946e+03,-3.453002537403e+03
    6534,-1.182489235940e+03,1.111080159938e+03,-3.611945737997e+03
    6535,-8.421844879724e+02,1.383358844072e+03,-1.367088048013e+03
    6536,-7.874815000039e+02,1.414833627989e+03,-1.208769465995e+03
    6537,-1.251999261964e+03,-1.023382101977e+03,-3.199416997992e+03
    6538,-1.197609827966e+03,-1.087051403976e+03,-3.092127769997e+03
    6539,-1.276526553995e+03,-9.924928040027e+02,-3.006473700000e+03
    6540,-1.542426080067e+03,4.651107880150e+02,-4.194799483998e+03
    6541,-1.323737655962e+03,-9.278037460031e+02,-3.366955858008e+03
    6542,-1.228847993990e+03,-1.051195217995e+03,-3.315865931991e+03
    6543,-1.545369019891e+03,-4.608732759973e+02,-5.950257389985e+03
    6544,-1.595670000052e+03,-2.272698319879e+02,-5.954495922014e+03
    6545,1.294854509999e+03,9.673311720002e+02,-9.121707368079e+02
    6546,1.357734007993e+03,8.777474660089e+02,-4.407482606024e+02
    6547,-1.480851155928e+03,-6.462504679997e+02,-9.350981340012e+02
    6548,3.464258159680e+02,1.578780903975e+03,-2.445073969202e+03
    6549,4.654103639626e+02,1.547132480039e+03,-2.470216485399e+03
    6550,-1.609496079983e+03,1.241742900198e+02,-1.991128952004e+03
    6551,-1.601402379884e+03,2.076187519695e+02,-1.899182572001e+03
    6552,-1.582148940135e+03,3.251695079905e+02,-2.018520714002e+03
    6553,1.619146999971e+03,5.386362200464e+01,-2.391199652200e+03
    6554,1.619777420044e+03,-2.343324601117e+01,-2.243016893799e+03
    6555,-1.587793579989e+03,2.981555880058e+02,-1.753019293987e+03
    6556,-1.613198040117e+03,6.301570596468e+01,-1.802697031988e+03
    6557,-1.612714279887e+03,-5.594210003206e+01,-2.084518208008e+03
    6558,-1.613820100014e+03,-2.128409601125e+01,-1.949672324014e+03
    6559,1.611775159999e+03,9.919715300177e+01,-5.694756248026e+03
    6560,-1.276784039802e+03,9.970018199104e+02,-3.808768343480e+03
    6561,-1.172903208066e+03,1.121509559876e+03,-3.847840467795e+03
    6562,-1.203839438015e+03,1.086662899974e+03,-4.025930254601e+03
    6563,3.926863799179e+02,1.564729419947e+03,-3.768414455998e+03
    6564,2.010329199996e+02,1.603354791976e+03,-3.816587532200e+03
    6565,1.535412600974e+02,1.609503866014e+03,-3.704039883202e+03
    6566,1.702782400581e+02,1.607937816002e+03,-3.391339738601e+03
    6567,1.110058400885e+02,1.613713271996e+03,-3.582014663996e+03
    6568,6.033378319616e+02,1.498535695965e+03,-2.186937859994e+03
    6569,5.347763160615e+02,1.524389994025e+03,-2.339021864198e+03
    6570,5.121706120246e+02,1.532460091971e+03,-2.212536784008e+03
    6571,7.572985180150e+02,1.426367044002e+03,-2.158532617999e+03
    6572,-9.250324799427e+02,1.332547000118e+03,-2.503650506002e+03
    6573,-1.018510180004e+03,1.262030740067e+03,-2.372701180001e+03
    6574,-9.075079400260e+02,1.343760380034e+03,-2.257533097996e+03
    6575,-8.083110200658e+02,1.405917059937e+03,-2.388497385989e+03
    6576,1.619278340018e+03,-3.873632400140e+01,-2.099256055400e+03
    6577,1.613046040054e+03,1.453648879976e+02,-2.238199636600e+03
    6578,-7.265333900363e+02,1.446727074009e+03,-1.042928178015e+03
    6579,-6.815093859888e+02,1.468259342013e+03,-9.272442780160e+02
    6580,-5.788770559835e+02,1.511539766026e+03,-9.974423180109e+02
    6581,-5.732797559907e+02,1.513547167966e+03,-8.684727759969e+02
    6582,-4.868819120253e+02,1.543460326009e+03,-9.973890559935e+02
    6583,1.310947007280e+03,-9.471887079946e+02,-1.093181891302e+03
    6584,1.240111012002e+03,-1.037561692016e+03,-1.276208540700e+03
    6585,-1.452515179798e+02,1.612509067994e+03,-2.313540637983e+03
    6586,-3.044146560352e+02,1.590906480000e+03,-2.312083472004e+03
    6587,-3.140105459364e+02,1.588838037937e+03,-2.163718060008e+03
    6588,-1.549926800551e+02,1.611489382060e+03,-2.165167537992e+03
    6589,1.541488219934e+03,5.020882499699e+02,-4.573796550007e+03
    6590,-1.605576248027e+03,1.899255780148e+02,-6.506907339957e+02
    6591,-1.590514190002e+03,2.933203539906e+02,-5.275619440039e+02
    6592,-1.615820972039e+03,-1.626777999020e+01,-7.744418140012e+02
    6593,-3.934441239368e+02,1.572042860144e+03,-2.490706242007e+03
    6594,-4.273979519315e+02,1.562944260046e+03,-2.327195752011e+03
    6595,9.236841019901e+01,-1.615005309408e+03,-2.060661544032e+02
    6596,-4.564404880554e+02,1.555502700020e+03,-2.603116460014e+03
    6597,-1.608808339807e+03,9.192751401648e+01,-5.559280187990e+03
    6598,-1.593765539969e+03,2.393434560309e+02,-5.473940192012e+03
    6599,1.150105218034e+03,-1.135884949983e+03,-1.444080411124e+03
    6600,-1.606559719790e+03,1.290745300138e+02,-3.385192027991e+03
    6601,-1.603194680166e+03,1.636041920126e+02,-3.561581475997e+03
    6602,-1.386357180212e+02,1.612784007980e+03,-2.034860188012e+03
    6603,-1.373774613996e+03,8.564138999381e+02,-2.910051503998e+03
    6604,-1.433484225976e+03,7.490944800197e+02,-2.928520065996e+03
    6605,-4.755917398722e+02,1.553087939761e+03,-3.543886958022e+03
    6606,-4.420183999487e+02,1.561938379943e+03,-3.364366935996e+03
    6607,-3.261220200439e+02,1.589253440107e+03,-3.399315776017e+03
    6608,1.491750258013e+03,6.275648759755e+02,-5.468221046014e+03
    6609,1.519685985996e+03,5.538264620361e+02,-5.582738894017e+03
    6610,-2.366418401010e+02,1.603933600082e+03,-3.323692910015e+03
    6611,-3.751380000911e+01,1.618490777976e+03,-2.899738503998e+03
    6612,9.234179803738e+01,1.615232461983e+03,-2.874351504592e+03
    6613,-1.208169089987e+03,-1.075404179980e+03,-2.023764473604e+03
    6614,1.616041375990e+03,-2.899449402390e+01,-4.610702071986e+03
    6615,1.613557236006e+03,1.070669479804e+02,-4.692651778021e+03
    6616,1.615045619983e+03,-5.160371602564e+01,-4.737775707996e+03
    6617,1.609237890009e+03,1.595817020352e+02,-4.821817510027e+03
    6618,-1.459123500051e+03,6.869405140211e+02,-4.142110170002e+03
    6619,1.612299675989e+03,-1.357622458005e+02,-1.493241622019e+02
    6620,-1.503728479996e+03,5.789123160144e+02,-4.291224848006e+03
    6621,-1.505506439729e+03,5.760165440133e+02,-4.045683194009e+03
    6622,-8.737484539877e+02,1.363313695960e+03,-1.146148004007e+03
    6623,-8.149115600204e+02,1.398927661996e+03,-9.802903359868e+02
    6624,-1.015522591965e+03,1.261281408038e+03,-1.046803907987e+03
    6625,-9.288185799870e+02,1.326240846072e+03,-9.955329600050e+02
    6626,-1.884649601281e+02,1.610852419959e+03,-3.771471633991e+03
    6627,-1.966972002194e+01,1.619289632036e+03,-3.822730924011e+03
    6628,1.184928799751e+02,1.612763361996e+03,-3.900766535001e+03
    6629,-1.606494279724e+03,-1.262171020240e+02,-6.083518364001e+03
    6630,-1.610946200240e+03,-2.519375200055e+01,-6.182995528008e+03
    6631,-1.605623839723e+03,-1.359210719760e+02,-6.298106310002e+03
    6632,-1.608678320006e+03,8.587246402728e+01,-6.109074103984e+03
    6633,-1.611208200054e+03,-9.959060245395e-01,-5.986727537988e+03
    6634,-1.604655382000e+03,2.008337680028e+02,-4.323467200026e+02
    6635,-1.609721020053e+03,5.817448400868e+01,-6.336300468009e+03
    6636,-1.581787940127e+03,-3.253700819720e+02,-1.232797204015e+03
    6637,7.566159999217e+02,1.422105119954e+03,-3.559516329990e+03
    6638,7.887775398569e+02,1.403778179817e+03,-3.697622565992e+03
    6639,9.235885398773e+02,1.320335859783e+03,-3.405120873997e+03
    6640,9.275652200279e+02,1.318270799891e+03,-3.224976901983e+03
    6641,8.031092001433e+02,1.394909580180e+03,-3.846309635997e+03
    6642,1.023262900063e+03,1.246179900087e+03,-3.130100682014e+03
    6643,8.379937599472e+02,1.377505339996e+03,-3.084384980006e+03
    6644,1.573736394012e+03,-3.790628960059e+02,-1.220172477202e+03
    6645,1.595450699978e+03,-2.746301039917e+02,-1.314977450202e+03
    6646,1.607607565979e+03,-1.920672700024e+02,-1.432446887002e+03
    6647,1.578828026070e+03,-3.580819500049e+02,-1.450765838199e+03
    6648,-4.514664402641e+01,1.617452413989e+03,-1.540170342001e+03
    6649,-1.707660600005e+02,1.609401708028e+03,-1.596248632000e+03
    6650,-2.803029020158e+02,1.594360838004e+03,-1.697994109990e+03
    6651,1.614767000145e+03,1.500760020120e+02,-3.561935465995e+03
    6652,-1.184514715994e+03,-1.101435616011e+03,-1.351871386602e+03
    6653,-1.353376571975e+03,8.866555198777e+02,-3.663628560996e+03
    6654,1.618580100129e+03,7.619164002973e+01,-3.677650490004e+03
    6655,1.607937759924e+03,2.085039279775e+02,-3.759862226007e+03
    6656,-1.564537059985e+03,3.988019619748e+02,-2.569585109994e+03
    6657,-1.563364320132e+03,4.023225619849e+02,-2.690532858016e+03
    6658,-1.410957980009e+03,-7.874079679926e+02,-3.400928876013e+03
    6659,-1.489461479958e+03,-6.241407873973e+02,-3.258680107985e+03
    6660,-1.482608579927e+03,-6.404613012016e+02,-3.426583918003e+03
    6661,-1.311289700028e+03,9.505055580256e+02,-1.510862515797e+03
    6662,-1.380917773973e+03,8.453352500300e+02,-1.564666825800e+03
    6663,-1.339486453964e+03,9.099066719450e+02,-1.386375721803e+03
    6664,-1.345157320018e+03,9.017437200239e+02,-1.678520020797e+03
    6665,-1.403374959998e+03,8.071121880296e+02,-1.740019728062e+03
    6666,-6.573510720057e+02,-1.479718323985e+03,-3.372236339280e+03
    6667,-7.654018799983e+02,-1.426499645966e+03,-3.424778139399e+03
    6668,-1.362363671968e+03,8.749067720317e+02,-1.256592119196e+03
    6669,-6.179332941966e+02,-1.496710149973e+03,-3.241643920620e+03
    6670,-1.121390820014e+03,1.174531260236e+03,-3.726071933983e+03
    6671,-1.009977879881e+03,1.274158879877e+03,-3.808573639982e+03
    6672,-1.066452320090e+03,1.226453860245e+03,-3.930336597991e+03
    6673,-1.398701878030e+03,8.149333340546e+02,-1.017542786001e+03
    6674,-1.381140428028e+03,8.446165020548e+02,-1.124783042999e+03
    6675,-1.107715840134e+03,1.188231399748e+03,-4.044377171992e+03
    6676,8.486827200782e+02,1.369216479788e+03,-3.502036390013e+03
    6677,-1.050965139966e+03,-1.229774724000e+03,-3.831892729992e+03
    6678,-8.899224760134e+02,-1.351815538024e+03,-3.531001424400e+03
    6679,1.532485858002e+03,5.185834520333e+02,-5.384925126014e+03
    6680,1.585970297998e+03,3.124615939923e+02,-5.405021312033e+03
    6681,1.553988621988e+03,4.468899959924e+02,-5.502586656009e+03
    6682,-1.605149179716e+03,1.414325160051e+02,-3.827199259989e+03
    6683,-1.592287899779e+03,2.473959740148e+02,-3.681293589987e+03
    6684,-1.397742895599e+03,8.165361600527e+02,-2.467596429400e+03
    6685,-1.614590397983e+03,5.574273401729e+01,-1.134470880007e+03
    6686,-1.612395100042e+03,-9.523563996481e+01,-1.124655595995e+03
    6687,-1.614350601938e+03,-6.205473599054e+01,-9.445298499935e+02
    6688,2.416052399607e+02,1.596573999930e+03,-3.994027887802e+03
    6689,3.231925198650e+02,1.581015400033e+03,-3.909834550005e+03
    6690,-9.872972800537e+02,1.289633280134e+03,-3.210947258011e+03
    6691,-8.505021398925e+02,1.384345760068e+03,-3.270483884033e+03
    6692,-8.988851200097e+02,1.353927859830e+03,-3.389861205981e+03
    6693,-1.032073880091e+03,1.254193939757e+03,-3.330350935988e+03
    6694,-1.561257880151e+03,4.015527519940e+02,-3.561439749991e+03
    6695,-1.509727879934e+03,5.692140940292e+02,-3.541052071987e+03
    6696,-1.091437064018e+03,1.198976399995e+03,-2.248715014018e+03
    6697,-1.101460079956e+03,1.190331039940e+03,-2.472212788012e+03
    6698,-1.542944699955e+03,-4.742543060064e+02,-2.429153998009e+03
    6699,-7.676025994206e+01,1.618991179914e+03,-4.194456744012e+03
    6700,-1.903199999167e+02,1.611767320232e+03,-4.148483079994e+03
    6701,-1.118142920067e+03,1.174874080041e+03,-2.588737165995e+03
    6702,-1.225015313986e+03,1.061748559907e+03,-2.575861954004e+03
    6703,-1.580056560077e+03,3.191470719838e+02,-3.441744821992e+03
    6704,-1.591780760141e+03,2.541974279888e+02,-3.342452730012e+03
    6705,-1.143459026027e+03,-1.144128929972e+03,-3.278058465993e+03
    6706,-1.099579309989e+03,-1.186696768035e+03,-3.171122750394e+03
    6707,-9.037539796369e+01,1.615801048002e+03,-1.745552741999e+03
    6708,-1.283530499927e+02,1.613484325968e+03,-1.916756758005e+03
    6709,-1.942580000179e+02,1.606972144001e+03,-1.783629198005e+03
    6710,1.589655867955e+03,2.905473360012e+02,-5.544179109968e+03
    6711,1.604796944035e+03,1.887241019895e+02,-5.378348164007e+03
    6712,1.606849879970e+03,1.665722219971e+02,-5.517491008033e+03
    6713,-1.149028969983e+03,1.140832264024e+03,-9.440697260056e+02
    6714,1.324986162020e+03,9.243712459889e+02,-3.041012413799e+03
    6715,1.395918584000e+03,8.150260260351e+02,-2.971434725402e+03
    6716,1.614380940061e+03,1.368573800031e+02,-3.885920135995e+03
    6717,1.598314200077e+03,2.712848580047e+02,-3.963193462011e+03
    6718,1.585635139861e+03,3.420524759696e+02,-3.837100644015e+03
    6719,1.588310914000e+03,2.958199059947e+02,-5.734117301972e+03
    6720,1.571608916011e+03,3.773702460036e+02,-5.617807168021e+03
    6721,1.601877159962e+03,2.081928604087e+02,-5.660477373994e+03
    6722,1.613927460115e+03,5.735482800823e+01,-5.551774937979e+03
    6723,1.496759119878e+03,-6.050855119992e+02,-5.744999591796e+03
    6724,1.466067899989e+03,-6.768677196079e+02,-5.856988722201e+03
    6725,1.553346260099e+03,4.684583820514e+02,-3.901385868017e+03
    6726,1.570348960100e+03,4.057522040222e+02,-4.037870999992e+03
    6727,4.460466680072e+02,1.553095922002e+03,-2.365654401204e+03
    6728,1.248843566072e+03,1.023524580026e+03,-2.802715143995e+03
    6729,1.328493539978e+03,9.190464440532e+02,-2.734537027996e+03
    6730,1.363069714034e+03,8.677074679953e+02,-2.852929027001e+03
    6731,1.287423728060e+03,9.751116800674e+02,-2.921104938802e+03
    6732,1.598738179963e+03,2.568743739850e+02,-2.357329606380e+03
    6733,1.607301619985e+03,1.988787879904e+02,-2.454539735541e+03
    6734,1.613575200019e+03,1.409391119829e+02,-2.345132824660e+03
    6735,1.457610986378e+03,7.000265299908e+02,-2.908493457796e+03
    6736,-1.448273180204e+03,7.088557899957e+02,-5.769643433000e+03
    6737,-1.410919799987e+03,7.811390800331e+02,-5.663905088400e+03
    6738,-1.610802980203e+03,5.197600598667e+01,-4.032201887985e+03
    6739,-1.446307161002e+03,7.261356459783e+02,-1.816646900797e+03
    6740,-1.490177714009e+03,6.292205280562e+02,-1.905094673802e+03
    6741,-1.525821885977e+03,5.353539880303e+02,-1.785722567996e+03
    6742,-1.546047459956e+03,-4.635354380160e+02,-2.870444761985e+03
    6743,-1.580848879930e+03,-3.221230939740e+02,-2.855242695987e+03
    6744,-1.582686759904e+03,-3.125211579863e+02,-3.007341046018e+03
    6745,-1.548765120133e+03,-4.541491640102e+02,-3.022535978016e+03
    6746,-1.395674480275e+03,8.072094419790e+02,-5.864807342040e+03
    6747,-1.352620220160e+03,8.778444699787e+02,-5.751197286201e+03
    6748,-5.701626598758e+02,1.526209059675e+03,-4.234388476000e+03
    6749,-4.969779600818e+02,1.550003860259e+03,-4.142916602021e+03
    6750,-3.841323799714e+02,1.580841440246e+03,-4.240560843994e+03
    6751,-6.305131400746e+02,1.500813320043e+03,-3.990164458025e+03
    6752,-4.822039600741e+02,1.553683099997e+03,-4.027011764036e+03
    6753,-6.447776199968e+02,1.495722460156e+03,-4.106097706002e+03
    6754,-1.452578620052e+03,-7.032568740066e+02,-5.751519713996e+03
    6755,-6.763053120115e+02,-1.470207977935e+03,-5.924429308196e+03
    6756,-5.395616199292e+02,-1.526475820049e+03,-5.928304843980e+03
    6757,2.079921120158e+02,1.603814375802e+03,-8.891730248017e+02
    6758,-2.680877799601e+02,1.598703919914e+03,-3.077530692015e+03
    6759,-2.765415000726e+02,1.597656100128e+03,-3.215641920005e+03
    6760,-4.041205799686e+02,1.571364399979e+03,-3.222910084029e+03
    6761,-1.628273419516e+02,1.611726740041e+03,-2.929104376016e+03
    6762,-2.815046200176e+02,1.596215640111e+03,-2.949908597998e+03
    6763,-1.108608187983e+03,-1.178483052017e+03,-2.029480710001e+03
    6764,-9.163731640722e+02,1.335867400062e+03,-1.539047724011e+03
    6765,-1.012318109945e+03,1.264742039947e+03,-1.494250294002e+03
    6766,-1.098450136035e+03,1.190880939939e+03,-1.554082746013e+03
    6767,1.597149700129e+03,-2.366068459882e+02,-5.143576250018e+03
    6768,1.604404480128e+03,-1.808343579982e+02,-5.299331528011e+03
    6769,1.615031719972e+03,-2.042357200698e+01,-5.248414007982e+03
    6770,9.711607199650e+02,1.289068519897e+03,-2.462717847993e+03
    6771,2.674064880001e+02,1.594956973592e+03,-1.012636170401e+03
    6772,-1.021732580129e+03,1.261475219876e+03,-2.996837380010e+03
    6773,-6.066689459919e+02,-1.500647303972e+03,-6.064725850402e+03
    6774,-1.120303579931e+03,1.174898220110e+03,-3.377160927996e+03
    6775,1.588117953940e+03,-3.150745499871e+02,-1.570415305799e+03
    6776,-1.609556439992e+03,5.735572598842e+01,-6.472886893986e+03
    6777,-1.609149020180e+03,6.184545399536e+01,-6.621128045985e+03
    6778,4.471845799866e+02,1.551660259990e+03,-2.986917381407e+03
    6779,-1.468179660084e+03,6.719518099852e+02,-3.565170010000e+03
    6780,9.865483340180e+02,1.280375494020e+03,-9.195339179953e+02
    6781,-1.410213999961e+03,7.898074999761e+02,-3.611662885992e+03
    6782,-1.559113523961e+03,4.253727680130e+02,-1.891760488009e+03
    6783,-1.563391438052e+03,4.104587319885e+02,-1.646986382001e+03
    6784,-3.640422280091e+02,1.576730040003e+03,-9.993844419975e+02
    6785,3.716206280007e+02,1.576311227972e+03,-1.569365009199e+02
    6786,-1.038834711965e+03,1.244583560115e+03,-2.109091164008e+03
    6787,1.532499319869e+03,5.322773420142e+02,-4.105216744006e+03
    6788,9.871146599509e+02,1.273610319883e+03,-3.471988878010e+03
    6789,-1.370509012009e+03,8.624117000540e+02,-2.332835139100e+03
    6790,1.532183666017e+03,5.210876059721e+02,-2.971941507001e+03
    6791,1.565372904023e+03,4.112028739693e+02,-2.916057231992e+03
    6792,1.598060160138e+03,-2.280893119964e+02,-5.487901624007e+03
    6793,1.610436499858e+03,-1.153146800067e+02,-5.439363514001e+03
    6794,1.551534378011e+03,4.580539919879e+02,-2.791353695399e+03
    6795,1.509712817997e+03,5.802704939875e+02,-2.852764675000e+03
    6796,-1.287208670008e+03,9.832349400201e+02,-1.635054271202e+03
    6797,-1.262163082037e+03,1.015524660011e+03,-1.728124260806e+03
    6798,1.610973053995e+03,-1.651505579983e+02,-1.815561218198e+03
    6799,1.592674042016e+03,-2.922463860091e+02,-1.776598411200e+03
    6800,1.609162697944e+03,-1.829104240073e+02,-1.923093007001e+03
    6801,1.606665133999e+03,-2.017516420018e+02,-1.696250618000e+03
    6802,1.549794959863e+03,-4.525588639750e+02,-4.536728654006e+03
    6803,1.590182960044e+03,-2.827860639996e+02,-4.454198595988e+03
    6804,1.570180800035e+03,-3.772876919866e+02,-4.306612648015e+03
    6805,1.118703040025e+03,1.163121940049e+03,-2.763277984006e+03
    6806,1.007755179979e+03,1.261166560008e+03,-2.252261812000e+03
    6807,9.227917299585e+02,1.324900319993e+03,-2.145115596004e+03
    6808,-1.273943479862e+03,-9.935907760050e+02,-5.314369714005e+03
    6809,-1.266624080032e+03,-1.002832862006e+03,-5.454595134011e+03
    6810,-1.182768639996e+03,-1.101360222013e+03,-5.308560814007e+03
    6811,-1.335397179862e+03,-9.084272769989e+02,-5.443190297984e+03
    6812,-1.355607420031e+03,-8.778199469602e+02,-5.342701199984e+03
    6813,2.577324601059e+02,1.595364559993e+03,-3.302684847400e+03
    6814,4.041798801215e+02,1.563487720043e+03,-3.136455465004e+03
    6815,-6.702850000825e+02,1.481265039810e+03,-3.598026728012e+03
    6816,-1.491735200177e+03,-6.111098879679e+02,-7.181690642012e+03
    6817,-7.720244201320e+02,1.431513399833e+03,-3.643566728022e+03
    6818,-8.412208800318e+02,1.391095119930e+03,-3.486788808024e+03
    6819,-1.592851439954e+03,-2.598032020025e+02,-1.969127586016e+03
    6820,-1.602444660073e+03,-1.901601000020e+02,-2.070638976018e+03
    6821,-1.605192239969e+03,-1.682529960125e+02,-1.861045537983e+03
    6822,-1.612073780086e+03,-8.421230198938e+01,-1.714092558005e+03
    6823,1.542090444035e+03,4.857124099910e+02,-5.697973016000e+03
    6824,1.562051267934e+03,4.148525820030e+02,-5.786906157980e+03
    6825,-6.649613201078e+02,1.481499799714e+03,-3.162006476003e+03
    6826,-5.456076201065e+02,1.528966360088e+03,-3.197096286031e+03
    6827,-9.912708060060e+02,-1.279294190033e+03,-2.679624116201e+03
    6828,2.862743997681e+01,1.618391741979e+03,-3.735623138000e+03
    6829,-8.840280002621e+02,1.369299699545e+03,-4.340855871967e+03
    6830,1.601888504010e+03,2.213367999984e+02,-4.988096823987e+03
    6831,1.609210572027e+03,1.481700759974e+02,-5.218082387981e+03
    6832,1.576468559988e+03,3.662615279859e+02,-4.950434424016e+03
    6833,1.525839190032e+03,5.433712700067e+02,-5.034117577988e+03
    6834,-2.884066480214e+02,1.593175394065e+03,-1.878238516009e+03
    6835,-1.615676109972e+03,-5.432916199068e+01,-2.706595420098e+02
    6836,-1.615497703998e+03,6.928452799811e+01,-2.879717999831e+02
    6837,-4.426737060422e+02,1.558359420054e+03,-2.141749125988e+03
    6838,-2.985625039761e+02,1.591500438035e+03,-1.996338360006e+03
    6839,-1.521681764020e+03,5.464124500655e+02,-2.004055707994e+03
    6840,-1.552414760045e+03,4.483120419765e+02,-2.130820299984e+03
    6841,-1.496541439747e+03,5.964272380042e+02,-4.501847711991e+03
    6842,1.211729439983e+03,1.066068120117e+03,-3.305036196000e+03
    6843,1.165644419943e+03,1.115540440041e+03,-3.176183151993e+03
    6844,1.245866745943e+03,1.026812339954e+03,-3.108918652000e+03
    6845,-9.972770599391e+02,1.282920220276e+03,-3.467712570006e+03
    6846,-1.087678219986e+03,1.206120719965e+03,-3.514534711986e+03
    6847,-1.611841320278e+03,8.298635977995e+00,-4.154067176002e+03
    6848,-1.311381033975e+03,9.513068198603e+02,-2.534618505002e+03
    6849,-9.707114799421e+02,1.304494659822e+03,-3.714904236005e+03
    6850,-1.021434780027e+03,1.264133820175e+03,-3.628661339983e+03
    6851,-9.426469599759e+02,1.324477600261e+03,-3.564627440032e+03
    6852,-8.894805799138e+02,1.361511739951e+03,-3.650879179981e+03
    6853,5.832098799701e+02,1.504642520034e+03,-3.023797075997e+03
    6854,5.413985200081e+02,1.520071720082e+03,-3.173346263996e+03
    6855,7.285436199248e+02,1.438963520116e+03,-3.028362208004e+03
    6856,-1.519001840142e+03,-5.470383499837e+02,-3.128639947990e+03
    6857,-2.381293999218e+02,1.606989980151e+03,-4.296218805990e+03
    6858,-6.556077987694e+01,1.619401480099e+03,-4.308887085989e+03
    6859,-3.370141999793e+02,1.589887280011e+03,-4.092807962021e+03
    6860,-7.557264400039e+02,1.440871459961e+03,-3.764076061971e+03
    6861,6.588739199159e+02,1.471979099987e+03,-3.195452046002e+03
    6862,-8.739863998575e+02,1.372245200004e+03,-3.771392487985e+03
    6863,1.433700345994e+03,7.469629580151e+02,-1.227226130402e+03
    6864,1.444715530018e+03,7.254887540260e+02,-1.390492716204e+03
    6865,1.371545173986e+03,8.548796420321e+02,-1.411237921793e+03
    6866,-1.006557239961e+03,1.272444879860e+03,-2.639286876007e+03
    6867,-7.923883599952e+02,1.415600500109e+03,-2.593869434012e+03
    6868,-6.152155519806e+02,1.499831679994e+03,-2.354773059995e+03
    6869,-7.070910399334e+02,1.459445940097e+03,-2.470177268035e+03
    6870,-7.195774640016e+02,1.452756059995e+03,-2.273072410001e+03
    6871,-6.481048059817e+02,1.485446780013e+03,-2.141396918009e+03
    6872,-8.112722399469e+02,1.403662160019e+03,-2.210216551992e+03
    6873,-7.420863500457e+02,1.440904779949e+03,-2.078527259983e+03
    6874,1.600435109978e+03,-2.273641239729e+02,-3.821063595986e+03
    6875,1.611321530008e+03,-1.427015659772e+02,-3.701609510007e+03
    6876,1.618960722054e+03,-5.386834026201e+00,-3.795729171994e+03
    6877,1.615510667999e+03,-8.425195000010e+01,-3.922881184004e+03
    6878,-1.430437689971e+03,-7.519471779843e+02,-9.183335800085e+02
    6879,-5.901536799444e+02,1.510331620099e+03,-2.546482785973e+03
    6880,3.894266080694e+02,1.568664859969e+03,-2.278847256000e+03
    6881,3.260319859598e+02,1.583489325994e+03,-2.161013586399e+03
    6882,1.614935100126e+03,2.033876200685e+01,-5.408685781980e+03
    6883,1.382000467969e+03,8.378261519760e+02,-1.552686085796e+03
    6884,1.454494533996e+03,7.057848640359e+02,-1.525108420197e+03
    6885,-1.605179240181e+03,1.438612999785e+02,-5.370320720002e+03
    6886,-1.611095760097e+03,3.838858997959e+01,-5.440713734005e+03
    6887,-1.370881759995e+03,-8.536971503403e+02,-5.210668827985e+03
    6888,-9.413285397269e+02,1.329915420542e+03,-4.442055167996e+03
    6889,-1.024441120136e+03,1.263923259833e+03,-4.374289841983e+03
    6890,-1.216615545997e+03,1.071316359957e+03,-4.133106434800e+03
    6891,-2.558559637780e+02,-1.599282479934e+03,-2.916916519601e+03
    6892,-4.768394895940e+02,-1.547651920012e+03,-2.834684643204e+03
    6893,-1.358027700000e+02,-1.613968180002e+03,-3.007487174005e+03
    6894,1.472728040016e+03,6.761467279403e+02,-5.106838656010e+03
    6895,1.611065866029e+03,-1.229502760218e+02,-4.582949314017e+03
    6896,1.618514265948e+03,-5.347851001337e+01,-1.806202924801e+03
    6897,1.567454140079e+03,-3.864724599792e+02,-5.029006265985e+03
    6898,1.548637660111e+03,-4.559859679975e+02,-4.942187647996e+03
    6899,1.619285239955e+03,-2.829485599488e+01,-1.945235925802e+03
    6900,-1.595430888052e+03,2.582150279846e+02,-1.222991189982e+03
    6901,1.574153780119e+03,-3.588197120150e+02,-4.864557593999e+03
    6902,1.590917359979e+03,-2.755361740121e+02,-4.999503806014e+03
    6903,4.501391419817e+02,1.552265954034e+03,-2.094707384003e+03
    6904,-1.203741602096e+02,1.617540359878e+03,-4.925868320003e+03
    6905,-1.461161219942e+03,-6.860613279967e+02,-5.125869645992e+03
    6906,-1.550606659949e+03,4.486914980115e+02,-2.880196942007e+03
    6907,-1.492781559943e+03,6.184977079745e+02,-2.911699920005e+03
    6908,-1.609960300288e+03,-8.756115996818e+01,-3.126069288011e+03
    6909,-1.608703299844e+03,1.016037020319e+02,-3.248238249990e+03
    6910,-1.612569660009e+03,1.027346398812e+01,-2.772448159990e+03
    6911,-1.605018040095e+03,-1.579626019703e+02,-2.811041094013e+03
    6912,-1.607858640211e+03,-1.229529599931e+02,-2.969530994005e+03
    6913,-1.123650859951e+03,1.170484660020e+03,-2.934570048002e+03
    6914,-1.061457319947e+03,1.227306239901e+03,-2.799342441983e+03
    6915,-5.288640859293e+02,1.532290340026e+03,-2.434068826010e+03
    6916,1.551923959891e+03,-4.449574840025e+02,-4.755006371996e+03
    6917,-1.497113999939e+03,-6.015775039937e+02,-5.628127690006e+03
    6918,-1.208260020043e+03,1.079159740057e+03,-1.591269800008e+03
    6919,-9.475268679746e+02,1.315593640038e+03,-2.164705868000e+03
    6920,-8.531682860333e+02,1.378417979934e+03,-2.117392189993e+03
    6921,-8.948024919556e+02,1.351432639882e+03,-1.973887428001e+03
    6922,-5.156906800247e+02,1.536248279908e+03,-2.247885229990e+03
    6923,-1.504824299855e+03,-5.813521899803e+02,-5.847548412003e+03
    6924,-1.495676939962e+03,-6.088517819992e+02,-2.936024916007e+03
    6925,-1.195495201938e+03,1.093611660035e+03,-1.736362232009e+03
*ELEMENT, TYPE=S8R, ELSET=Eall
    81,    154,    486,    114,     10,    526,    527,    116,    194
    82,    114,    486,     73,      9,    527,    528,    113,    115
    83,    114,    487,    117,     10,    529,    530,    155,    116
    84,    114,      9,     36,    487,    115,     74,    531,    529
    85,    153,    489,     72,    488,    532,    533,    534,    535
    86,    525,     37,     38,    524,    536,     76,    537,    538
    87,    525,    524,    119,    118,    538,    539,    157,    540
    88,    524,     38,     39,    523,    537,     77,    541,    542
    89,    524,    523,    120,    119,    542,    543,    158,    539
    90,    523,     39,     40,    522,    541,     78,    544,    545
    91,    523,    522,    121,    120,    545,    546,    159,    543
    92,    522,     40,     41,    521,    544,     79,    547,    548
    93,    522,    521,    122,    121,    548,    549,    160,    546
    94,    521,     41,     42,    520,    547,     80,    550,    551
    95,    521,    520,    123,    122,    551,    552,    161,    549
    96,    519,     43,     44,    518,    553,     82,    554,    555
    97,    519,    518,    125,    124,    555,    556,    163,    557
    98,    520,     42,     43,    519,    550,     81,    553,    558
    99,    520,    519,    124,    123,    558,    557,    162,    552
   100,    518,     44,     45,    517,    554,     83,    559,    560
   101,    518,    517,    126,    125,    560,    561,    164,    556
   102,    517,     45,     46,    516,    559,     84,    562,    563
   103,    517,    516,    127,    126,    563,    564,    165,    561
   104,    515,     47,     48,    514,    565,     86,    566,    567
   105,    515,    514,    129,    128,    567,    568,    167,    569
   106,    516,     46,     47,    515,    562,     85,    565,    570
   107,    516,    515,    128,    127,    570,    569,    166,    564
   108,    514,     48,     49,    513,    566,     87,    571,    572
   109,    514,    513,    130,    129,    572,    573,    168,    568
   110,    513,    512,    131,    130,    574,    575,    169,    573
   111,    513,     49,     50,    512,    571,     88,    576,    574
   112,    511,    510,    133,    132,    577,    578,    171,    579
   113,    511,     51,     52,    510,    580,     90,    581,    577
   114,    512,     50,     51,    511,    576,     89,    580,    582
   115,    512,    511,    132,    131,    582,    579,    170,    575
   116,    509,    508,    135,    134,    583,    584,    173,    585
   117,    509,     53,     54,    508,    586,     92,    587,    583
   118,    510,     52,     53,    509,    581,     91,    586,    588
   119,    510,    509,    134,    133,    588,    585,    172,    578
   120,    508,     54,     19,    507,    587,     93,    589,    590
   121,    508,    507,    136,    135,    590,    591,    174,    584
   122,    507,     19,     55,    506,    589,     94,    592,    593
   123,    507,    506,    137,    136,    593,    594,    175,    591
   124,    506,     55,     56,    505,    592,     95,    595,    596
   125,    506,    505,    138,    137,    596,    597,    176,    594
   126,    505,    504,    139,    138,    598,    599,    177,    597
   127,    505,     56,     57,    504,    595,     96,    600,    598
   128,    503,     58,     59,    502,    601,     98,    602,    603
   129,    503,    502,    141,    140,    603,    604,    179,    605
   130,    504,    503,    140,    139,    606,    605,    178,    599
   131,    504,     57,     58,    503,    600,     97,    601,    606
   132,    502,     59,     60,    501,    602,     99,    607,    608
   133,    502,    501,    142,    141,    608,    609,    180,    604
   134,    501,     60,     61,    500,    607,    100,    610,    611
   135,    501,    500,    143,    142,    611,    612,    181,    609
   136,    500,     61,     62,    499,    610,    101,    613,    614
   137,    500,    499,    144,    143,    614,    615,    182,    612
   138,    498,     63,     64,    497,    616,    103,    617,    618
   139,    498,    497,     16,    145,    618,    619,    184,    620
   140,    499,     62,     63,    498,    613,    102,    616,    621
   141,    499,    498,    145,    144,    621,    620,    183,    615
   142,    497,     64,     65,    496,    617,    104,    622,    623
   143,    497,    496,    146,     16,    623,    624,    185,    619
   144,    495,     66,     67,    494,    625,    106,    626,    627
   145,    495,    494,    148,    147,    627,    628,    187,    629
   146,    496,     65,     66,    495,    622,    105,    625,    630
   147,    496,    495,    147,    146,    630,    629,    186,    624
   148,    494,     67,     68,    493,    626,    107,    631,    632
   149,    494,    493,    149,    148,    632,    633,    188,    628
   150,    493,     68,     69,    492,    631,    108,    634,    635
   151,    493,    492,    150,    149,    635,    636,    189,    633
   152,    492,     69,     70,    491,    634,    109,    637,    638
   153,    492,    491,    151,    150,    638,    639,    190,    636
   154,    491,     70,     71,    490,    637,    110,    640,    641
   155,    491,    490,    152,    151,    641,    642,    191,    639
   156,    490,     71,     72,    489,    640,    111,    533,    643
   157,    490,    489,    153,    152,    643,    532,    192,    642
   158,    486,    488,     72,     73,    644,    534,    112,    528
   159,    486,    154,    153,    488,    526,    193,    535,    644
   160,    118,    117,    487,    525,    156,    530,    645,    540
   161,     37,    525,    487,     36,    536,    645,    531,     75
   162,    646,    647,    649,    648,    976,    977,    978,    979
   163,    727,    728,    241,    240,    980,    981,    248,    982
   164,    732,    733,    245,    246,    983,    984,    253,    985
   165,    666,    667,    664,    668,    986,    987,    988,    989
   166,    735,    736,    761,    734,    990,    991,    992,    993
   167,    761,    767,    768,    734,    994,    995,    996,    992
   168,    776,    775,    777,    769,    997,    998,    999,   1000
   169,    730,    731,    816,    729,   1001,   1002,   1003,   1004
   170,    796,    670,    818,    774,   1005,   1006,   1007,   1008
   171,    812,    813,    744,    796,   1009,   1010,   1011,   1012
   172,    664,    667,    825,    755,    987,   1013,   1014,   1015
   173,    814,    815,    829,    755,   1016,   1017,   1018,   1019
   174,    725,    719,    718,    724,   1020,   1021,   1022,   1023
   175,    719,    712,    711,    718,   1024,   1025,   1026,   1021
   176,    706,    699,    698,    673,   1027,   1028,   1029,   1030
   177,    699,    689,    688,    698,   1031,   1032,   1033,   1028
   178,    689,    690,    831,    688,   1034,   1035,   1036,   1032
   179,    647,    657,    831,    658,   1037,   1038,   1039,   1040
   180,    652,    650,    834,    651,   1041,   1042,   1043,   1044
   181,    652,    655,    679,    654,   1045,   1046,   1047,   1048
   182,    655,    680,    682,    679,   1049,   1050,   1051,   1046
   183,    680,    683,    685,    682,   1052,   1053,   1054,   1050
   184,    683,    686,    692,    685,   1055,   1056,   1057,   1053
   185,    686,    693,    695,    692,   1058,   1059,   1060,   1056
   186,    693,    696,    701,    695,   1061,   1062,   1063,   1059
   187,    704,    703,    701,    696,   1064,   1065,   1062,   1066
   188,    709,    708,    703,    704,   1067,   1068,   1064,   1069
   189,    716,    714,    841,    715,   1070,   1071,   1072,   1073
   190,    722,    721,    714,    716,   1074,   1075,   1070,   1076
   191,    722,    845,    678,    721,   1077,   1078,   1079,   1074
   192,    806,    847,    347,    348,   1080,   1081,    367,   1082
   193,    763,    729,    816,    762,   1083,   1003,   1084,   1085
   194,    752,    753,    853,    676,   1086,   1087,   1088,   1089
   195,    750,    751,    869,    749,   1090,   1091,   1092,   1093
   196,    873,    871,    206,    207,   1094,   1095,    226,   1096
   197,    855,    853,    753,    856,   1097,   1087,   1098,   1099
   198,    858,    855,    856,    859,   1100,   1099,   1101,   1102
   199,    755,    825,    826,    814,   1014,   1103,   1104,   1019
   200,    844,    858,    859,    861,   1105,   1102,   1106,   1107
   201,    827,    844,    861,    862,   1108,   1107,   1109,   1110
   202,    803,    827,    862,    863,   1111,   1110,   1112,   1113
   203,    756,    803,    863,    867,   1114,   1113,   1115,   1116
   204,    822,    812,    819,    823,   1117,   1118,   1119,   1120
   205,    782,    756,    867,    868,   1121,   1116,   1122,   1123
   206,    809,    782,    868,    870,   1124,   1123,   1125,   1126
   207,    821,    809,    870,    872,   1127,   1126,   1128,   1129
   208,    835,    821,    872,    874,   1130,   1129,   1131,   1132
   209,    723,    886,    288,    289,   1133,   1134,    328,   1135
   210,    721,    678,    891,    890,   1079,   1136,   1137,   1138
   211,    839,    835,    874,    875,   1139,   1132,   1140,   1141
   212,    849,    839,    875,    876,   1142,   1141,   1143,   1144
   213,    724,    829,    815,    725,   1145,   1017,   1146,   1023
   214,    804,    800,    801,    805,   1147,   1148,   1149,   1150
   215,    800,    797,    798,    801,   1151,   1152,   1153,   1148
   216,    795,    866,    798,    794,   1154,   1155,   1156,   1157
   217,    666,    792,    795,    791,   1158,   1159,   1160,   1161
   218,    769,    777,    902,    900,    999,   1162,   1163,   1164
   219,    876,    896,    909,    849,   1165,   1166,   1167,   1144
   220,    785,    660,    914,    786,   1168,   1169,   1170,   1171
   221,    783,    779,    780,    784,   1172,   1173,   1174,   1175
   222,    960,    775,    776,    778,   1176,    997,   1177,   1178
   223,    770,    771,    776,    769,   1179,   1180,   1000,   1181
   224,    876,    875,    892,    893,   1143,   1182,   1183,   1184
   225,    875,    874,    889,    892,   1140,   1185,   1186,   1182
   226,    874,    872,    888,    889,   1131,   1187,   1188,   1185
   227,    724,    790,    665,    829,   1189,   1190,   1191,   1145
   228,    872,    870,    887,    888,   1128,   1192,   1193,   1187
   229,    870,    868,    885,    887,   1125,   1194,   1195,   1192
   230,    868,    867,    883,    885,   1122,   1196,   1197,   1194
   231,    867,    863,    882,    883,   1115,   1198,   1199,   1196
   232,    863,    862,    881,    882,   1112,   1200,   1201,   1198
   233,    862,    861,    879,    881,   1109,   1202,   1203,   1200
   234,    861,    859,    873,    879,   1106,   1204,   1205,   1202
   235,    859,    856,    871,    873,   1101,   1206,   1094,   1204
   236,    657,    925,    902,    917,   1207,   1208,   1209,   1210
   237,    856,    753,    754,    871,   1098,   1211,   1212,   1206
   238,    753,    752,    852,    754,   1086,   1213,   1214,   1211
   239,    690,    924,    658,    831,   1215,   1216,   1039,   1035
   240,    894,    895,    709,    710,   1217,   1218,   1219,   1220
   241,    709,    704,    705,    710,   1069,   1221,   1222,   1219
   242,    704,    696,    702,    705,   1066,   1223,   1224,   1221
   243,    693,    697,    702,    696,   1225,   1226,   1223,   1061
   244,    686,    694,    697,    693,   1227,   1228,   1225,   1058
   245,    683,    687,    694,    686,   1229,   1230,   1227,   1055
   246,    648,    927,    651,    834,   1231,   1232,   1043,   1233
   247,    680,    684,    687,    683,   1234,   1235,   1229,   1052
   248,    655,    681,    684,    680,   1236,   1237,   1234,   1049
   249,    652,    656,    681,    655,   1238,   1239,   1236,   1045
   250,    651,    653,    656,    652,   1240,   1241,   1238,   1044
   251,    926,    927,    648,    649,   1242,   1231,    978,   1243
   252,    648,    834,    929,    646,   1233,   1244,   1245,    979
   253,    658,    659,    649,    647,   1246,   1247,    977,   1040
   254,    923,    924,    690,    691,   1248,   1215,   1249,   1250
   255,    690,    689,    700,    691,   1034,   1251,   1252,   1249
   256,    689,    699,    707,    700,   1031,   1253,   1254,   1251
   257,    699,    706,    713,    707,   1027,   1255,   1256,   1253
   258,    712,    719,    726,    720,   1024,   1257,   1258,   1259
   259,    719,    725,    880,    726,   1020,   1260,   1261,   1257
   260,    725,    815,    851,    880,   1146,   1262,   1263,   1260
   261,    911,    905,    932,    910,   1264,   1265,   1266,   1267
   262,    815,    814,    878,    851,   1016,   1268,   1269,   1262
   263,    814,    826,    933,    878,   1104,   1270,   1271,   1268
   264,    819,    884,    933,    823,   1272,   1273,   1274,   1119
   265,    773,    774,    818,    772,   1275,   1007,   1276,   1277
   266,    709,    895,    715,    841,   1218,   1278,   1072,   1279
   267,    750,    768,    767,    751,   1280,    995,   1281,   1090
   268,    865,    866,    795,    864,   1282,   1154,   1283,   1284
   269,    795,    792,    904,    864,   1159,   1285,   1286,   1283
   270,    792,    903,    906,    904,   1287,   1288,   1289,   1285
   271,    908,    816,    731,    817,   1290,   1002,   1291,   1292
   272,    903,    905,    911,    906,   1293,   1264,   1294,   1288
   273,    914,    915,    913,    786,   1295,   1296,   1297,   1170
   274,    784,    916,    915,    914,   1298,   1299,   1295,   1300
   275,    776,    919,    941,    778,   1301,   1302,   1303,   1177
   276,    771,    920,    919,    776,   1304,   1305,   1301,   1180
   277,    770,    877,    920,    771,   1306,   1307,   1304,   1179
   278,    712,    706,    673,    711,   1308,   1030,   1309,   1025
   279,    674,    662,    711,    673,   1310,   1311,   1309,   1312
   280,    938,    939,    762,    669,   1313,   1314,   1315,   1316
   281,    932,    905,    663,    789,   1265,   1317,   1318,   1319
   282,    784,    914,    660,    783,   1300,   1169,   1320,   1175
   283,    661,    662,    783,    660,   1321,   1322,   1320,   1323
   284,    922,    759,    738,    921,   1324,   1325,   1326,   1327
   285,    245,    733,    953,    854,    984,   1328,   1329,   1330
   286,    949,    950,    759,    922,   1331,   1332,   1324,   1333
   287,    944,    765,    742,    955,   1334,   1335,   1336,   1337
   288,    905,    903,    668,    663,   1293,   1338,   1339,   1317
   289,    792,    666,    668,    903,   1158,    989,   1338,   1287
   290,    671,    670,    799,    672,   1340,   1341,   1342,   1343
   291,    703,    708,    959,    840,   1068,   1344,   1345,   1346
   292,    791,    793,    667,    666,   1347,   1348,    986,   1161
   293,    785,    790,    724,    787,   1349,   1189,   1350,   1351
   294,    724,    718,    661,    787,   1022,   1352,   1353,   1350
   295,    785,    787,    661,    660,   1351,   1353,   1323,   1168
   296,    960,    779,    674,    830,   1354,   1355,   1356,   1357
   297,    961,    962,    759,    950,   1358,   1359,   1332,   1360
   298,    940,    737,    738,    760,   1361,   1362,   1363,   1364
   299,    963,    964,    765,    946,   1365,   1366,   1367,   1368
   300,    785,    786,    910,    932,   1171,   1369,   1266,   1370
   301,    698,    830,    674,    673,   1371,   1356,   1312,   1029
   302,    790,    785,    932,    789,   1349,   1370,   1319,   1372
   303,    698,    688,    777,    830,   1033,   1373,   1374,   1371
   304,    945,    946,    765,    944,   1375,   1367,   1334,   1376
   305,    677,    676,    891,    678,   1377,   1378,   1136,   1379
   306,    706,    712,    720,    713,   1308,   1259,   1380,   1255
   307,    779,    960,    778,    780,   1354,   1178,   1381,   1173
   308,    918,    780,    778,    941,   1382,   1381,   1303,   1383
   309,    780,    918,    916,    784,   1382,   1384,   1298,   1174
   310,    701,    703,    840,    832,   1065,   1346,   1385,   1386
   311,    695,    701,    832,    808,   1063,   1386,   1387,   1388
   312,    958,    770,    769,    900,   1389,   1181,   1164,   1390
   313,    692,    695,    808,    764,   1060,   1388,   1391,   1392
   314,    682,    685,    788,    811,   1054,   1393,   1394,   1395
   315,    795,    794,    745,    791,   1157,   1396,   1397,   1160
   316,    685,    692,    764,    788,   1057,   1392,   1398,   1393
   317,    744,    745,    794,    746,   1399,   1396,   1400,   1401
   318,    679,    682,    811,    824,   1051,   1395,   1402,   1403
   319,    793,    791,    745,    747,   1347,   1397,   1404,   1405
   320,    654,    679,    824,    837,   1047,   1403,   1406,   1407
   321,    709,    841,    959,    708,   1279,   1408,   1344,   1067
   322,    786,    913,    911,    910,   1297,   1409,   1267,   1369
   323,    676,    853,    899,    891,   1088,   1410,   1411,   1378
   324,    860,    899,    853,    855,   1412,   1410,   1097,   1413
   325,    893,    857,    896,    876,   1414,   1415,   1165,   1184
   326,    948,    854,    953,    947,   1416,   1329,   1417,   1418
   327,    943,    748,    957,    942,   1419,   1420,   1421,   1422
   328,    951,    967,    922,    921,   1423,   1424,   1327,   1425
   329,    240,    241,    922,    967,    248,   1426,   1424,   1427
   330,    954,    968,    944,    955,   1428,   1429,   1337,   1430
   331,    246,    245,    944,    968,    253,   1431,   1429,   1432
   332,    349,    350,    737,    940,    369,   1433,   1361,   1434
   333,    961,    966,    907,    962,   1435,   1436,   1437,   1358
   334,    949,    922,    241,    242,   1333,   1426,    249,   1438
   335,    948,    244,    245,    854,   1439,    252,   1330,   1416
   336,    945,    944,    245,    244,   1376,   1431,    252,   1440
   337,    728,    748,    242,    241,   1441,   1442,    249,    981
   338,    733,    732,    255,    952,    983,   1443,   1444,   1445
   339,    921,    738,    737,    951,   1326,   1362,   1446,   1425
   340,    729,    739,    952,    730,   1447,   1448,   1449,   1004
   341,    951,    737,    350,    351,   1446,   1433,    370,   1450
   342,    731,    730,    256,    257,   1001,   1451,    296,   1452
   343,    955,    742,    741,    954,   1336,   1453,   1454,   1430
   344,    291,    292,    954,    741,    331,   1455,   1454,   1456
   345,    734,    743,    956,    735,   1457,   1458,   1459,    993
   346,    727,    956,    743,    728,   1460,   1458,   1461,    980
   347,    203,    735,    956,    202,   1462,   1459,   1463,    222
   348,    352,     14,    240,    967,    372,    247,   1427,   1464
   349,    741,    742,    765,    740,   1453,   1335,   1465,   1466
   350,    246,     15,    255,    732,    254,    294,   1443,    985
   351,    729,    763,    953,    739,   1083,   1467,   1468,   1447
   352,    952,    739,    953,    733,   1448,   1468,   1328,   1445
   353,    734,    768,    957,    743,    996,   1469,   1470,   1457
   354,    748,    728,    743,    957,   1441,   1461,   1470,   1420
   355,    293,     15,    246,    968,    333,    254,   1432,   1471
   356,    240,     14,    201,    727,    247,    220,   1472,    982
   357,    967,    951,    351,    352,   1423,   1450,    371,   1464
   358,    730,    952,    255,    256,   1449,   1444,    295,   1451
   359,    968,    954,    292,    293,   1428,   1455,    332,   1471
   360,    727,    201,    202,    956,   1472,    221,   1463,   1460
   361,    877,    965,    219,     13,   1473,   1474,    239,   1475
   362,    738,    759,    962,    760,   1325,   1359,   1476,   1363
   363,    959,    860,    843,    840,   1477,   1478,   1479,   1345
   364,    828,    843,    858,    844,   1480,   1481,   1105,   1482
   365,    749,    936,    766,    964,   1483,   1484,   1485,   1486
   366,    740,    765,    964,    766,   1465,   1366,   1485,   1487
   367,    855,    858,    843,    860,   1100,   1481,   1478,   1413
   368,    934,    741,    740,    935,   1488,   1466,   1489,   1490
   369,    828,    802,    808,    832,   1491,   1492,   1387,   1493
   370,    758,    802,    827,    803,   1494,   1495,   1111,   1496
   371,    817,    731,    257,    258,   1291,   1452,    297,   1497
   372,    758,    757,    788,    764,   1498,   1499,   1398,   1500
   373,    735,    203,    204,    736,   1462,    223,   1501,    990
   374,    781,    757,    756,    782,   1502,   1503,   1121,   1504
   375,    822,    823,    933,    826,   1120,   1274,   1270,   1505
   376,    781,    810,    824,    811,   1506,   1507,   1402,   1508
   377,    820,    810,    809,    821,   1509,   1510,   1127,   1511
   378,    820,    836,    842,    837,   1512,   1513,   1514,   1515
   379,    920,    877,     13,    334,   1307,   1475,    353,   1516
   380,    838,    836,    835,    839,   1517,   1518,   1139,   1519
   381,    857,    893,    217,    218,   1414,   1520,    237,   1521
   382,    836,    838,    850,    842,   1517,   1522,   1523,   1513
   383,    893,    892,    216,    217,   1183,   1524,    236,   1520
   384,    892,    889,    215,    216,   1186,   1525,    235,   1524
   385,    848,    838,    839,    849,   1526,   1519,   1142,   1527
   386,    889,    888,    214,    215,   1188,   1528,    234,   1525
   387,    888,    887,    213,    214,   1193,   1529,    233,   1528
   388,    887,    885,    212,    213,   1195,   1530,    232,   1529
   389,    885,    883,    211,    212,   1197,   1531,    231,   1530
   390,    883,    882,    210,    211,   1199,   1532,    230,   1531
   391,    745,    744,    813,    747,   1399,   1010,   1533,   1404
   392,    882,    881,    209,    210,   1201,   1534,    229,   1532
   393,    881,    879,    208,    209,   1203,   1535,    228,   1534
   394,    879,    873,    207,    208,   1205,   1096,    227,   1535
   395,    833,    813,    812,    822,   1536,   1009,   1117,   1537
   396,    871,    754,    205,    206,   1212,   1538,    225,   1095
   397,    754,    852,    204,    205,   1214,   1539,    224,   1538
   398,    843,    828,    832,    840,   1480,   1493,   1385,   1479
   399,    802,    828,    844,    827,   1491,   1482,   1108,   1495
   400,    936,    677,    678,    845,   1540,   1379,   1078,   1541
   401,    802,    758,    764,    808,   1494,   1500,   1391,   1492
   402,    757,    758,    803,    756,   1498,   1496,   1114,   1503
   403,    894,    710,    285,    286,   1220,   1542,    325,   1543
   404,    710,    705,    284,    285,   1222,   1544,    324,   1542
   405,    705,    702,    283,    284,   1224,   1545,    323,   1544
   406,    702,    697,    282,    283,   1226,   1546,    322,   1545
   407,    697,    694,    281,    282,   1228,   1547,    321,   1546
   408,    694,    687,    280,    281,   1230,   1548,    320,   1547
   409,    687,    684,    279,    280,   1235,   1549,    319,   1548
   410,    684,    681,    278,    279,   1237,   1550,    318,   1549
   411,    681,    656,    277,    278,   1239,   1551,    317,   1550
   412,    656,    653,    276,    277,   1241,   1552,    316,   1551
   413,    757,    781,    811,    788,   1502,   1508,   1394,   1499
   414,    926,    649,    274,    275,   1243,   1553,    314,   1554
   415,    649,    659,    273,    274,   1247,   1555,    313,   1553
   416,    810,    781,    782,    809,   1506,   1504,   1124,   1510
   417,    923,    691,    271,    272,   1250,   1556,    311,   1557
   418,    691,    700,    270,    271,   1252,   1558,    310,   1556
   419,    700,    707,    269,    270,   1254,   1559,    309,   1558
   420,    707,    713,    268,    269,   1256,   1560,    308,   1559
   421,    810,    820,    837,    824,   1509,   1515,   1406,   1507
   422,    718,    711,    662,    661,   1026,   1311,   1321,   1352
   423,    713,    720,    267,    268,   1380,   1561,    307,   1560
   424,    720,    726,    266,    267,   1258,   1562,    306,   1561
   425,    836,    820,    821,    835,   1512,   1511,   1130,   1518
   426,    755,    829,    665,    664,   1018,   1191,   1563,   1015
   427,    880,    851,    264,    265,   1263,   1564,    304,   1565
   428,    851,    878,    263,    264,   1269,   1566,    303,   1564
   429,    878,    933,    262,    263,   1271,   1567,    302,   1566
   430,    933,    884,    261,    262,   1273,   1568,    301,   1567
   431,    929,    928,    842,    850,   1569,   1570,   1523,   1571
   432,    773,    772,    259,    260,   1277,   1572,    299,   1573
   433,    772,    817,    258,    259,   1574,   1497,    298,   1572
   434,    652,    654,    928,    650,   1048,   1575,   1576,   1041
   435,    837,    842,    928,    654,   1514,   1570,   1575,   1407
   436,    800,    804,    671,    672,   1147,   1577,   1343,   1578
   437,    798,    866,    865,    901,   1155,   1282,   1579,   1580
   438,    901,    865,    345,    346,   1579,   1581,    365,   1582
   439,    865,    864,    344,    345,   1284,   1583,    364,   1581
   440,    864,    904,    343,    344,   1286,   1584,    363,   1583
   441,    904,    906,    342,    343,   1289,   1585,    362,   1584
   442,    919,    920,    334,    335,   1305,   1516,    354,   1586
   443,    906,    911,    341,    342,   1294,   1587,    361,   1585
   444,    941,    919,    335,    336,   1302,   1586,    355,   1588
   445,    665,    663,    668,    664,   1589,   1339,    988,   1563
   446,    918,    941,    336,    337,   1383,   1588,    356,   1590
   447,    916,    918,    337,    338,   1384,   1590,    357,   1591
   448,    779,    783,    662,    674,   1172,   1322,   1310,   1355
   449,    911,    913,    340,    341,   1409,   1592,    360,   1587
   450,    915,    916,    338,    339,   1299,   1591,    358,   1593
   451,    663,    665,    790,    789,   1589,   1190,   1372,   1318
   452,    913,    915,    339,    340,   1296,   1593,    359,   1592
   453,    290,    291,    741,    934,    330,   1456,   1488,   1594
   454,    964,    963,    750,    749,   1365,   1595,   1093,   1486
   455,    746,    672,    799,    744,   1596,   1342,   1597,   1401
   456,    931,    912,    958,    900,   1598,   1599,   1390,   1600
   457,    877,    770,    958,    897,   1306,   1389,   1601,   1602
   458,    715,    895,    894,    717,   1278,   1217,   1603,   1604
   459,    717,    894,    286,    287,   1603,   1543,    326,   1605
   460,    746,    797,    800,    672,   1606,   1151,   1578,   1596
   461,    658,    924,    923,    659,   1216,   1248,   1607,   1246
   462,    845,    970,    766,    936,   1608,   1609,   1484,   1541
   463,    659,    923,    272,    273,   1607,   1557,    312,   1555
   464,    898,    890,    891,    899,   1610,   1137,   1411,   1611
   465,    651,    927,    926,    653,   1232,   1242,   1612,   1240
   466,    653,    926,    275,    276,   1612,   1554,    315,   1552
   467,    838,    848,    930,    850,   1526,   1613,   1614,   1522
   468,    748,    943,    243,    242,   1419,   1615,    250,   1442
   469,    909,    912,    848,    849,   1616,   1617,   1527,   1167
   470,    942,    971,    243,    943,   1618,   1619,   1615,   1422
   471,    961,    972,    948,    947,   1620,   1621,   1418,   1622
   472,    931,    930,    848,    912,   1623,   1613,   1617,   1598
   473,    244,    948,    972,    243,   1439,   1621,   1624,    251
   474,    963,    946,    945,    971,   1368,   1375,   1625,   1626
   475,    244,    243,    971,    945,    251,   1619,   1625,   1440
   476,    961,    950,    949,    972,   1360,   1331,   1627,   1620
   477,    819,    774,    773,    884,   1628,   1275,   1629,   1272
   478,    242,    243,    972,    949,    250,   1624,   1627,   1438
   479,    884,    773,    260,    261,   1629,   1573,    300,   1568
   480,    898,    714,    721,    890,   1630,   1075,   1138,   1610
   481,    676,    677,    869,    675,   1377,   1631,   1632,   1633
   482,    722,    846,    970,    845,   1634,   1635,   1608,   1077
   483,    671,    804,    973,    907,   1577,   1636,   1637,   1638
   484,    670,    671,    938,    669,   1340,   1639,   1316,   1640
   485,    940,    760,    973,    807,   1364,   1641,   1642,   1643
   486,    218,    219,    965,    857,    238,   1474,   1644,   1521
   487,    930,    931,    925,    646,   1623,   1645,   1646,   1647
   488,    962,    907,    973,    760,   1437,   1637,   1641,   1476
   489,    966,    961,    947,    969,   1435,   1622,   1648,   1649
   490,    857,    965,    909,    896,   1644,   1650,   1166,   1415
   491,    958,    912,    909,    897,   1599,   1616,   1651,   1601
   492,    877,    897,    909,    965,   1602,   1651,   1650,   1473
   493,    762,    939,    969,    763,   1314,   1652,   1653,   1085
   494,    204,    852,    761,    736,   1539,   1654,    991,   1501
   495,    934,    935,    970,    846,   1490,   1655,   1635,   1656
   496,    677,    936,    749,    869,   1540,   1483,   1092,   1631
   497,    805,    807,    973,    804,   1657,   1642,   1636,   1150
   498,    969,    939,    938,    966,   1652,   1313,   1658,   1649
   499,    740,    766,    970,    935,   1487,   1609,   1655,   1489
   500,    671,    907,    966,    938,   1638,   1436,   1658,   1639
   501,    670,    796,    744,    799,   1005,   1011,   1597,   1341
   502,    819,    812,    796,    774,   1118,   1012,   1008,   1628
   503,    647,    646,    925,    657,    976,   1646,   1207,   1037
   504,    931,    900,    902,    925,   1600,   1163,   1208,   1645
   505,    953,    763,    969,    947,   1467,   1653,   1648,   1417
   506,    971,    942,    750,    963,   1618,   1659,   1595,   1626
   507,    676,    675,    937,    752,   1633,   1660,   1661,   1089
   508,    667,    793,    833,    825,   1348,   1662,   1663,   1013
   509,    777,    775,    960,    830,    998,   1176,   1357,   1374
   510,    646,    929,    850,    930,   1245,   1571,   1614,   1647
   511,    722,    723,    974,    846,   1664,   1665,   1666,   1634
   512,    928,    929,    834,    650,   1569,   1244,   1042,   1576
   513,    290,    974,    723,    289,   1667,   1665,   1135,    329
   514,    805,    806,    975,    807,   1668,   1669,   1670,   1657
   515,    349,    975,    806,    348,   1671,   1669,   1082,    368
   516,    761,    852,    752,    937,   1654,   1213,   1661,   1672
   517,    767,    675,    869,    751,   1673,   1632,   1091,   1281
   518,    675,    767,    761,    937,   1673,    994,   1672,   1660
   519,    670,    669,    908,    818,   1640,   1674,   1675,   1006
   520,    816,    908,    669,    762,   1290,   1674,   1315,   1084
   521,    772,    818,    908,    817,   1276,   1675,   1292,   1574
   522,    287,    288,    886,    717,    327,   1134,   1676,   1605
   523,    722,    716,    886,    723,   1076,   1677,   1133,   1664
   524,    715,    717,    886,    716,   1604,   1676,   1677,   1073
   525,    346,    347,    847,    901,    366,   1081,   1678,   1582
   526,    805,    801,    847,    806,   1149,   1679,   1080,   1668
   527,    798,    901,    847,    801,   1580,   1678,   1679,   1153
   528,    726,    880,    265,    266,   1261,   1565,    305,   1562
   529,    957,    768,    750,    942,   1469,   1280,   1659,   1421
   530,    798,    797,    746,    794,   1152,   1606,   1400,   1156
   531,    846,    974,    290,    934,   1666,   1667,   1594,   1656
   532,    959,    898,    899,    860,   1680,   1611,   1412,   1477
   533,    959,    841,    714,    898,   1408,   1071,   1630,   1680
   534,    807,    975,    349,    940,   1670,   1671,   1434,   1643
   535,    813,    833,    793,    747,   1536,   1662,   1405,   1533
   536,    826,    825,    833,    822,   1103,   1663,   1537,   1505
   537,    688,    831,    657,    917,   1036,   1038,   1210,   1681
   538,    688,    917,    902,    777,   1681,   1209,   1162,   1373
   539,   1684,   1683,   1685,   1682,   3397,   3398,   3399,   3400
   540,   1692,   1691,   1693,   1690,   3401,   3402,   3403,   3404
   541,   1697,   1698,   1699,   1969,   3405,   3406,   3407,   3408
   542,   1713,   1712,   1714,   1711,   3409,   3410,   3411,   3412
   543,   1715,   1717,   1718,   1716,   3413,   3414,   3415,   3416
   544,   1724,   1723,   1725,   1722,   3417,   3418,   3419,   3420
   545,   1726,   1728,   1731,   1727,   3421,   3422,   3423,   3424
   546,   1732,   1734,   1738,   1733,   3425,   3426,   3427,   3428
   547,   1747,   1749,   1750,   1748,   3429,   3430,   3431,   3432
   548,   1828,   1746,   1755,   1745,   3433,   3434,   3435,   3436
   549,   1776,   1778,   1779,   1777,   3437,   3438,   3439,   3440
   550,   1771,   1781,   1782,   1780,   3441,   3442,   3443,   3444
   551,   1773,   1772,   1783,   1771,   3445,   3446,   3447,   3448
   552,   1774,   1775,   1738,   1767,   3449,   3450,   3451,   3452
   553,   1756,   1784,   1788,   1758,   3453,   3454,   3455,   3456
   554,   1765,    147,    148,   1766,   3457,    187,   3458,   3459
   555,    376,   1730,   1777,   1729,   3460,   3461,   3462,   3463
   556,   1820,   1819,   1821,   1818,   3464,   3465,   3466,   3467
   557,   1829,   1781,   1831,   1830,   3468,   3469,   3470,   3471
   558,   1832,   1834,   1835,   1833,   3472,   3473,   3474,   3475
   559,   1792,   1790,    139,    140,   3476,   3477,    178,   3478
   560,   1825,   1827,   1854,   1826,   3479,   3480,   3481,   3482
   561,   1751,   1862,   1864,   1861,   3483,   3484,   3485,   3486
   562,   1869,   1871,   1872,   1870,   3487,   3488,   3489,   3490
   563,   1892,   1894,   1896,   1893,   3491,   3492,   3493,   3494
   564,   1897,   1899,   1903,   1898,   3495,   3496,   3497,   3498
   565,   1885,   1887,   1906,   1886,   3499,   3500,   3501,   3502
   566,   1878,   1877,   1908,   1876,   3503,   3504,   3505,   3506
   567,   1912,   1914,   1917,   1913,   3507,   3508,   3509,   3510
   568,   1865,   1933,   1934,   1867,   3511,   3512,   3513,   3514
   569,   1816,   1815,   1937,   1814,   3515,   3516,   3517,   3518
   570,   1843,   1842,   1940,   1841,   3519,   3520,   3521,   3522
   571,   1909,   1814,   1937,   1910,   3523,   3517,   3524,   3525
   572,   1795,   1794,   1951,   1793,   3526,   3527,   3528,   3529
   573,   1700,   1863,   1951,   1794,   3530,   3531,   3527,   3532
   574,   1955,   1954,   1920,   1953,   3533,   3534,   3535,   3536
   575,   1956,   1958,   1962,   1957,   3537,   3538,   3539,   3540
   576,   1967,   1969,   1823,   1968,   3541,   3542,   3543,   3544
   577,   1966,   1876,   1974,   1973,   3545,   3546,   3547,   3548
   578,   1976,   1975,   1831,   1783,   3549,   3550,   3551,   3552
   579,   1963,   1965,   1979,   1964,   3553,   3554,   3555,   3556
   580,   1838,   1981,   1982,   1980,   3557,   3558,   3559,   3560
   581,   1929,   1931,   1995,   1930,   3561,   3562,   3563,   3564
   582,   1965,   1963,   1999,   1740,   3553,   3565,   3566,   3567
   583,   1688,   1760,   1759,   1689,   3568,   3569,   3570,   3571
   584,   1704,   1849,   2012,   1848,   3572,   3573,   3574,   3575
   585,   1779,   1993,   1895,   1810,   3576,   3577,   3578,   3579
   586,   2026,   2028,   2030,   2027,   3580,   3581,   3582,   3583
   587,   1945,   1944,   1935,   1943,   3584,   3585,   3586,   3587
   588,   2035,   2037,   2038,   2036,   3588,   3589,   3590,   3591
   589,   1792,   1791,   2044,   1790,   3592,   3593,   3594,   3476
   590,   2039,   2041,    401,   2040,   3595,   3596,   3597,   3598
   591,   2062,   2061,   2063,   2060,   3599,   3600,   3601,   3602
   592,   2058,   2032,   2033,   2064,   3603,   3604,   3605,   3606
   593,   2027,   2065,   2068,   2026,   3607,   3608,   3609,   3583
   594,   2024,   2023,   2080,   2022,   3610,   3611,   3612,   3613
   595,   1724,   2102,   2103,   2042,   3614,   3615,   3616,   3617
   596,   2078,   2081,   2072,   2079,   3618,   3619,   3620,   3621
   597,   2058,   2059,   1732,   2032,   3622,   3623,   3624,   3603
   598,   2121,   2120,   2122,   2119,   3625,   3626,   3627,   3628
   599,   2121,   1980,   1982,   2123,   3629,   3559,   3630,   3631
   600,   2128,   2127,   2129,   2126,   3632,   3633,   3634,   3635
   601,   2131,   2130,   2137,   2132,   3636,   3637,   3638,   3639
   602,   2138,   2139,   2140,   2047,   3640,   3641,   3642,   3643
   603,   2031,   2145,   2147,   2146,   3644,   3645,   3646,   3647
   604,   2053,   2149,   2150,   2148,   3648,   3649,   3650,   3651
   605,   1947,   2053,   2148,   1946,   3652,   3651,   3653,   3654
   606,   2152,   2154,   2160,   2153,   3655,   3656,   3657,   3658
   607,   2162,      3,     23,   2161,   3659,    443,   3660,   3661
   608,   2164,   2163,   1756,   1757,   3662,   3663,   3664,   3665
   609,   2174,   2173,   1722,   2172,   3666,   3667,   3668,   3669
   610,   2184,    373,    374,   2183,   3670,    405,   3671,   3672
   611,   2180,   2182,   2187,   2181,   3673,   3674,   3675,   3676
   612,   2190,   2189,   1800,   2188,   3677,   3678,   3679,   3680
   613,   2192,   2194,   2195,   2193,   3681,   3682,   3683,   3684
   614,   1757,   2169,   2197,   2164,   3685,   3686,   3687,   3665
   615,   1974,   1876,   1908,   2196,   3546,   3505,   3688,   3689
   616,   2200,   1993,   1779,   2201,   3690,   3576,   3691,   3692
   617,   2204,   2014,   1852,   1853,   3693,   3694,   3695,   3696
   618,   2204,   1853,   2209,   2205,   3696,   3697,   3698,   3699
   619,   1761,   1763,   2212,   1762,   3700,   3701,   3702,   3703
   620,   2214,   2213,   2216,   2215,   3704,   3705,   3706,   3707
   621,   1731,   1728,   2220,   2219,   3422,   3708,   3709,   3710
   622,   2226,   2228,   2229,   2227,   3711,   3712,   3713,   3714
   623,   2226,   2123,   1982,   2230,   3715,   3630,   3716,   3717
   624,   2232,   2234,   2231,   2233,   3718,   3719,   3720,   3721
   625,   1697,   2240,    121,    122,   3722,   3723,    160,   3724
   626,   2243,   2212,   2246,   2233,   3725,   3726,   3727,   3728
   627,   2245,   2244,   2246,   2212,   3729,   3730,   3726,   3731
   628,   1688,   1689,   2019,   1886,   3571,   3732,   3733,   3734
   629,   2110,   2015,   2253,   2252,   3735,   3736,   3737,   3738
   630,   2020,   1885,   1886,   2019,   3739,   3502,   3733,   3740
   631,   2173,   2174,    393,   2259,   3666,   3741,   3742,   3743
   632,   2067,   2066,   2268,   2267,   3744,   3745,   3746,   3747
   633,   1993,   2200,   2270,   2199,   3690,   3748,   3749,   3750
   634,   2271,   2273,   2274,   2272,   3751,   3752,   3753,   3754
   635,   2278,   1817,   2107,   2279,   3755,   3756,   3757,   3758
   636,   2277,   2276,   2280,   2275,   3759,   3760,   3761,   3762
   637,   2256,   2283,   2284,   2255,   3763,   3764,   3765,   3766
   638,   1798,   2218,   2286,   2217,   3767,   3768,   3769,   3770
   639,    144,    145,   2286,   2218,    183,   3771,   3768,   3772
   640,   1861,   2287,   2288,   1751,   3773,   3774,   3775,   3486
   641,   2271,   2285,   2289,   2273,   3776,   3777,   3778,   3751
   642,   1997,   1996,   2297,   1998,   3779,   3780,   3781,   3782
   643,   2302,   2301,   2303,   2198,   3783,   3784,   3785,   3786
   644,   2196,   2198,   2303,   1974,   3787,   3785,   3788,   3689
   645,   2173,   2175,   1724,   1722,   3789,   3790,   3420,   3667
   646,   2165,   1941,   2306,   2166,   3791,   3792,   3793,   3794
   647,   1942,   1782,   2306,   1941,   3795,   3796,   3792,   3797
   648,   2311,   2223,   2312,   2310,   3798,   3799,   3800,   3801
   649,   1716,   1977,    471,   1715,   3802,   3803,   3804,   3416
   650,   2019,   2018,   2315,   2020,   3805,   3806,   3807,   3740
   651,   1996,   2316,   2168,   2297,   3808,   3809,   3810,   3780
   652,   2020,   2315,   2316,   1996,   3807,   3811,   3808,   3812
   653,   1929,   1930,   2157,   1932,   3564,   3813,   3814,   3815
   654,   1886,   1907,   2068,   1688,   3816,   3817,   3818,   3734
   655,   2324,   2325,   2178,   2091,   3819,   3820,   3821,   3822
   656,   2324,   2326,   2253,   2016,   3823,   3824,   3825,   3826
   657,   2335,   2216,    397,    398,   3827,   3828,    429,   3829
   658,   2044,   2328,   2339,   2329,   3830,   3831,   3832,   3833
   659,   1771,   1780,   1936,   1773,   3444,   3834,   3835,   3448
   660,   2346,   2238,      1,   2347,   3836,   3837,   3838,   3839
   661,   2208,   2236,   2349,   2207,   3840,   3841,   3842,   3843
   662,   2348,   2351,   2122,   2350,   3844,   3845,   3846,   3847
   663,   2261,   2260,   1790,   2043,   3848,   3849,   3850,   3851
   664,   2151,   2358,   2359,   2357,   3852,   3853,   3854,   3855
   665,   2184,   2362,    292,    293,   3856,   3857,    332,   3858
   666,   2363,    255,    256,   1702,   3859,    295,   3860,   3861
   667,   2276,   1959,   1960,   2360,   3862,   3863,   3864,   3865
   668,   2271,   2272,   2369,    258,   3754,   3866,   3867,   3868
   669,   1793,   2371,    376,    375,   3869,   3870,    407,   3871
   670,    276,   1905,   2385,    275,   3872,   3873,   3874,    315
   671,   1905,   2386,   2387,   2385,   3875,   3876,   3877,   3873
   672,   1701,    257,    258,   2369,   3878,    297,   3867,   3879
   673,   2384,   1857,   2392,   2383,   3880,   3881,   3882,   3883
   674,   1822,   2393,      3,   2162,   3884,   3885,   3659,   3886
   675,   1786,   1787,   2304,   2397,   3887,   3888,   3889,   3890
   676,   2393,   1822,   1699,   1708,   3884,   3891,   3892,   3893
   677,   2358,   2151,   1945,   1943,   3852,   3894,   3587,   3895
   678,   1719,   1721,   2293,   1720,   3896,   3897,   3898,   3899
   679,   2144,   1753,   1940,   1842,   3900,   3901,   3520,   3902
   680,   1905,   2364,   2029,   2386,   3903,   3904,   3905,   3875
   681,   2388,   2400,    198,    199,   3906,   3907,    450,   3908
   682,    127,    128,   2402,   2401,    166,   3909,   3910,   3911
   683,   2405,   2404,   2408,   2403,   3912,   3913,   3914,   3915
   684,   1906,   2394,   2414,   2396,   3916,   3917,   3918,   3919
   685,   1904,   1792,    140,    141,   3920,   3478,    179,   3921
   686,   1810,   1895,   2185,   1729,   3578,   3922,   3923,   3924
   687,   2185,   1895,   1860,   2183,   3922,   3925,   3926,   3927
   688,   1858,   1860,   1895,   1859,   3928,   3925,   3929,   3930
   689,   1694,   1695,     26,     24,   3931,   3932,    439,   3933
   690,   1945,    151,    152,   1944,   3934,    191,   3935,   3584
   691,   2417,   2416,    118,    119,   3936,   3937,    157,   3938
   692,   1709,     25,      3,   2393,   3939,    441,   3885,   3940
   693,   2278,   2279,   2418,   2415,   3758,   3941,   3942,   3943
   694,   2387,   2386,   2029,   2266,   3876,   3905,   3944,   3945
   695,   1721,   2378,   2419,   2293,   3946,   3947,   3948,   3897
   696,   1695,   1694,   2422,   1696,   3931,   3949,   3950,   3951
   697,   2416,   2400,   2388,    118,   3952,   3906,   3953,   3937
   698,   1996,   1997,    271,   2425,   3779,   3954,   3955,   3956
   699,   1996,   2425,   1885,   2020,   3956,   3957,   3739,   3812
   700,    119,    120,   2426,   2417,    158,   3958,   3959,   3938
   701,   2072,   2071,   2427,   2079,   3960,   3961,   3962,   3620
   702,   1702,   2433,    373,   2363,   3963,   3964,   3965,   3861
   703,    123,    124,   1710,   1698,    162,   3966,   3967,   3968
   704,   1708,   1710,    124,   1707,   3969,   3966,   3970,   3971
   705,   1698,   1710,   1708,   1699,   3967,   3969,   3892,   3406
   706,   1886,   1906,   2396,   1907,   3501,   3919,   3972,   3816
   707,   1858,    292,   2362,   1860,   3973,   3857,   3974,   3928
   708,   1702,    256,    257,   1701,   3860,    296,   3878,   3975
   709,   1793,    375,    374,   1795,   3871,    406,   3976,   3529
   710,   1701,   1700,   2433,   1702,   3977,   3978,   3963,   3975
   711,   2437,   1811,   2439,   2438,   3979,   3980,   3981,   3982
   712,   1795,   2433,   1700,   1794,   3983,   3978,   3532,   3526
   713,   2417,   2424,   2441,   2416,   3984,   3985,   3986,   3936
   714,    124,    125,   2422,   1707,    163,   3987,   3988,   3970
   715,    376,   1729,   2185,    375,   3463,   3923,   3989,    407
   716,   2434,   2436,   2442,   2435,   3990,   3991,   3992,   3993
   717,   1822,   1824,   1968,   1823,   3994,   3995,   3543,   3996
   718,   2051,   2203,   2445,   2050,   3997,   3998,   3999,   4000
   719,   1707,   1709,   2393,   1708,   4001,   3940,   3893,   3971
   720,   2184,   2183,   1860,   2362,   3672,   3926,   3974,   3856
   721,   1905,    276,    277,   2364,   3872,    316,   4002,   3903
   722,   2183,    374,    375,   2185,   3671,    406,   3989,   3927
   723,   2218,   1796,    143,    144,   4003,   4004,    182,   3772
   724,   1795,    374,    373,   2433,   3976,    405,   3964,   3983
   725,   2395,   2385,   2387,   2394,   4005,   3877,   4006,   4007
   726,   1723,   2000,   1873,   1725,   4008,   4009,   4010,   3418
   727,   2394,   2387,   2266,   2414,   4006,   3945,   4011,   3917
   728,   2311,   2310,   1947,   1747,   3801,   4012,   4013,   4014
   729,   2454,   2455,   1937,   1815,   4015,   4016,   3516,   4017
   730,   1700,   1701,   2369,   1863,   3977,   3879,   4018,   3530
   731,   2053,   1947,   2310,   2054,   3652,   4012,   4019,   4020
   732,   1863,   2369,   2272,   2274,   4018,   3866,   3753,   4021
   733,   1858,   1859,   2464,   2458,   3930,   4022,   4023,   4024
   734,   2456,   1910,   1937,   2457,   4025,   3524,   4026,   4027
   735,   2395,    274,    275,   2385,   4028,    314,   3874,   4005
   736,   1823,   1969,   1699,   1822,   3542,   3407,   3891,   3996
   737,   2465,   1934,   2460,   2461,   4029,   4030,   4031,   4032
   738,    373,   2184,    293,     15,   3670,   3858,    333,    404
   739,   2391,    197,    195,   2423,   4033,    453,   4034,   4035
   740,   1707,   2422,   1694,   1709,   3988,   3949,   4036,   4001
   741,     24,     25,   1709,   1694,    440,   3939,   4036,   3933
   742,   1884,   2467,    383,    382,   4037,   4038,    414,   4039
   743,    255,   2363,    373,     15,   3859,   3965,    404,    294
   744,   1931,   1929,   2029,   2364,   3561,   4040,   3904,   4041
   745,   2470,   2469,   2471,   1973,   4042,   4043,   4044,   4045
   746,   2473,   2283,   2256,   2435,   4046,   3763,   4047,   4048
   747,   2142,   2114,   1939,   1975,   4049,   4050,   4051,   4052
   748,    122,    123,   1698,   1697,    161,   3968,   3405,   3724
   749,   1968,   2444,   2474,   1967,   4053,   4054,   4055,   3544
   750,   2441,   2424,   2474,   2269,   3985,   4056,   4057,   4058
   751,   2431,   2475,    267,    268,   4059,   4060,    307,   4061
   752,   1995,   2156,   2157,   1930,   4062,   4063,   3813,   3563
   753,   1696,   2422,    125,    126,   3950,   3987,    164,   4064
   754,   2401,   1696,    126,    127,   4065,   4064,    165,   3911
   755,   2390,   2391,    153,    154,   4066,   4067,    193,   4068
   756,   2389,    117,    118,   2388,   4069,    156,   3953,   4070
   757,   2449,   2477,   2481,   2448,   4071,   4072,   4073,   4074
   758,   2487,   2486,   2489,   2485,   4075,   4076,   4077,   4078
   759,   2391,   2390,     12,    197,   4066,   4079,    452,   4033
   760,    154,     10,     12,   2390,    194,   4080,   4079,   4068
   761,   2388,    199,     12,   2389,   3908,    451,   4081,   4070
   762,   2224,   2491,   2301,   2302,   4082,   4083,   3783,   4084
   763,   1759,   1760,     28,     30,   3569,   4085,    465,   4086
   764,    117,   2389,     12,     10,   4069,   4081,   4080,    155
   765,   2493,   2495,   2496,   2494,   4087,   4088,   4089,   4090
   766,   3313,   1812,   2497,   1813,   4091,   4092,   4093,   4094
   767,   1973,   1974,   2303,   2470,   3547,   3788,   4095,   4045
   768,    385,   2224,   2302,   2225,   4096,   4084,   4097,   4098
   769,   1939,   2114,   2509,   2113,   4050,   4099,   4100,   4101
   770,   2013,   2029,   1929,   1932,   4102,   4040,   3815,   4103
   771,   1915,   1916,   1843,   1841,   4104,   4105,   3522,   4106
   772,   2508,   2507,   2225,   2302,   4107,   4108,   4097,   4109
   773,   1684,   1682,   1873,   2000,   3400,   4110,   4009,   4111
   774,   2513,   2512,   1819,   1820,   4112,   4113,   3464,   4114
   775,   2096,   2095,   2515,   2094,   4115,   4116,   4117,   4118
   776,   1802,   1801,   1852,   1800,   4119,   4120,   4121,   4122
   777,   2050,   2445,   2516,   2103,   3999,   4123,   4124,   4125
   778,   2515,   2514,   2517,   2094,   4126,   4127,   4128,   4117
   779,    394,   2144,   1842,    393,   4129,   3902,   4130,    425
   780,   1843,    392,    393,   1842,   4131,    424,   4130,   3519
   781,   2482,   2484,   1807,   2483,   4132,   4133,   4134,   4135
   782,   1761,   1762,   2211,   1764,   3703,   4136,   4137,   4138
   783,   2446,   2447,   2521,   2211,   4139,   4140,   4141,   4142
   784,   2160,   2154,   2215,   2159,   3656,   4143,   4144,   4145
   785,   1793,   2280,   2281,   2371,   4146,   4147,   4148,   3869
   786,   2536,   2538,   2539,   2537,   4149,   4150,   4151,   4152
   787,   2540,   2541,   2545,   2544,   4153,   4154,   4155,   4156
   788,   2427,   2440,   2064,   2079,   4157,   4158,   4159,   3962
   789,    384,    383,   2467,   2491,    415,   4038,   4160,   4161
   790,    394,   1754,   1753,   2144,   4162,   4163,   3900,   4129
   791,   2078,   2079,   2064,   2033,   3621,   4159,   3605,   4164
   792,   2050,   2052,   2305,   2051,   4165,   4166,   4167,   4000
   793,   2098,   2097,   2289,   2099,   4168,   4169,   4170,   4171
   794,   2506,   2303,   2301,   2466,   4172,   3784,   4173,   4174
   795,   2491,   2467,   2466,   2301,   4160,   4175,   4173,   4083
   796,   2193,   2195,   2200,   2201,   3683,   4176,   3692,   4177
   797,   2561,   2563,   2553,   2562,   4178,   4179,   4180,   4181
   798,   2200,   2195,   2564,   2270,   4176,   4182,   4183,   3748
   799,   1760,   1688,   2068,   2065,   3568,   3818,   3608,   4184
   800,   2558,   2557,   2178,   2556,   4185,   4186,   4187,   4188
   801,   2565,   2567,   2568,   2566,   4189,   4190,   4191,   4192
   802,   1977,   1716,   2570,   1978,   3802,   4193,   4194,   4195
   803,   1716,   1718,   2574,   2570,   3415,   4196,   4197,   4193
   804,   2581,   2580,   1952,   2579,   4198,   4199,   4200,   4201
   805,   1830,   1938,   2096,   1829,   4202,   4203,   4204,   3471
   806,   2344,   2345,    396,   2145,   4205,   4206,   4207,   4208
   807,   2147,   2145,    396,    395,   3645,   4207,    427,   4209
   808,   1762,   2212,   2243,   2210,   3702,   3725,   4210,   4211
   809,   1735,   2165,   2166,   1737,   4212,   3794,   4213,   4214
   810,   1723,   2001,   2583,   2000,   4215,   4216,   4217,   4008
   811,   1873,   1874,   2100,   1875,   4218,   4219,   4220,   4221
   812,   2554,   2555,   2379,   2380,   4222,   4223,   4224,   4225
   813,   1873,   1682,   1685,   1874,   4110,   3399,   4226,   4218
   814,   2463,   2587,    391,    390,   4227,   4228,    422,   4229
   815,   1797,   1798,   2039,   2331,   4230,   4231,   4232,   4233
   816,   2591,   2566,   2593,   2592,   4234,   4235,   4236,   4237
   817,     31,   2594,   1705,   1703,   4238,   4239,   4240,   4241
   818,   2515,   2095,   2603,   1901,   4116,   4242,   4243,   4244
   819,   2607,   2106,   2108,   2350,   4245,   4246,   4247,   4248
   820,   2600,   2602,   2350,   2108,   4249,   4250,   4247,   4251
   821,   1759,     30,      6,   2609,   4086,    464,   4252,   4253
   822,   1695,   1696,   2401,   2023,   3951,   4065,   4254,   4255
   823,   2614,   2552,   2379,   2460,   4256,   4257,   4258,   4259
   824,   2614,   1933,   2192,   2193,   4260,   4261,   3684,   4262
   825,   1865,   1867,   2615,   1866,   3514,   4263,   4264,   4265
   826,   2268,   2066,   2441,   2269,   3745,   4266,   4058,   4267
   827,   2299,   1686,   1946,   2148,   4268,   4269,   3653,   4270
   828,   2232,   2233,   2246,   2235,   3721,   3727,   4271,   4272
   829,    280,    281,   1818,   2622,    320,   4273,   4274,   4275
   830,   2617,   2623,   1971,   2010,   4276,   4277,   4278,   4279
   831,   2503,   2504,   2631,   1693,   4280,   4281,   4282,   4283
   832,   2638,   2637,   1864,   2636,   4284,   4285,   4286,   4287
   833,   1775,   1774,   2643,   2181,   3449,   4288,   4289,   4290
   834,   1868,   2473,   2194,   2192,   4291,   4292,   3681,   4293
   835,   2609,   2633,   2543,   2640,   4294,   4295,   4296,   4297
   836,   2633,   2609,      6,   2526,   4294,   4252,   4298,   4299
   837,   2450,   2647,   1741,   2646,   4300,   4301,   4302,   4303
   838,   1896,   2080,   2402,   2399,   4304,   4305,   4306,   4307
   839,   2068,   2073,   2028,   2026,   4308,   4309,   3580,   3609
   840,   2467,   1884,   1882,   2466,   4037,   4310,   4311,   4175
   841,   2154,   2525,   2214,   2215,   4312,   4313,   3707,   4143
   842,   2138,   1888,   1889,   2139,   4314,   4315,   4316,   3640
   843,   2280,   2276,   2360,   2281,   3760,   3865,   4317,   4147
   844,   2149,   2472,   2480,   2529,   4318,   4319,   4320,   4321
   845,   2576,   2578,   2669,   2575,   4322,   4323,   4324,   4325
   846,   2668,   2667,   2670,   2666,   4326,   4327,   4328,   4329
   847,   2673,   2336,   2677,   2594,   4330,   4331,   4332,   4333
   848,   1875,   2031,   1725,   1873,   4334,   4335,   4010,   4221
   849,   2380,   2569,   2332,   2554,   4336,   4337,   4338,   4225
   850,   1753,   2288,   1918,   1940,   4339,   4340,   4341,   3901
   851,   2333,   2332,   2684,   2334,   4342,   4343,   4344,   4345
   852,   2685,   2686,   2687,   1957,   4346,   4347,   4348,   4349
   853,   1865,   1866,   2284,   1868,   4265,   4350,   4351,   4352
   854,   2538,   2536,     17,   2698,   4149,   4353,   4354,   4355
   855,   2699,   2361,   2356,   2700,   4356,   4357,   4358,   4359
   856,   1876,   1966,   2411,   1878,   3545,   4360,   4361,   3506
   857,   2528,   2480,   1878,   2411,   4362,   4363,   4361,   4364
   858,   2705,   2704,   2707,   2706,   4365,   4366,   4367,   4368
   859,   2494,   2709,   2625,   2493,   4369,   4370,   4371,   4090
   860,   2663,   2574,   2236,   2208,   4372,   4373,   3840,   4374
   861,   2580,   1978,   2570,   2584,   4375,   4194,   4376,   4377
   862,   2125,   2202,   2039,   2040,   4378,   4379,   3598,   4380
   863,   2401,   2402,   2080,   2023,   3910,   4305,   3611,   4254
   864,   2045,   2046,   2714,   2712,   4381,   4382,   4383,   4384
   865,   2718,   2719,   2720,   2660,   4385,   4386,   4387,   4388
   866,   2662,   2661,   2718,   2660,   4389,   4390,   4388,   4391
   867,   2715,   2717,   2721,   2716,   4392,   4393,   4394,   4395
   868,   2375,   2312,   2223,   2221,   4396,   3799,   4397,   4398
   869,   2136,   2726,   1935,   1944,   4399,   4400,   3585,   4401
   870,   1732,   2413,   2034,   2032,   4402,   4403,   4404,   3624
   871,   2007,   2734,   2735,   2733,   4405,   4406,   4407,   4408
   872,    271,    272,   2743,   2425,    311,   4409,   4410,   3955
   873,   2731,   2732,   2746,   1915,   4411,   4412,   4413,   4414
   874,   2117,   2118,   2749,   2116,   4415,   4416,   4417,   4418
   875,   2747,   2748,   2751,   2750,   4419,   4420,   4421,   4422
   876,   2171,   2179,   2754,   2170,   4423,   4424,   4425,   4426
   877,   1924,   2736,   2337,   2209,   4427,   4428,   4429,   4430
   878,   2756,   2651,   2652,   2755,   4431,   4432,   4433,   4434
   879,   2161,     23,      1,   2238,   3660,    442,   3837,   4435
   880,   2377,   2759,   1826,   2760,   4436,   4437,   4438,   4439
   881,   2376,   2141,   2759,   2377,   4440,   4441,   4436,   4442
   882,   2131,   2132,   2765,   2764,   3639,   4443,   4444,   4445
   883,   1755,   2590,    134,    135,   4446,   4447,    173,   4448
   884,   1705,   1706,   1849,   1704,   4449,   4450,   3572,   4451
   885,   2211,   2521,   2327,   1764,   4141,   4452,   4453,   4137
   886,   2776,   2777,   2778,   2716,   4454,   4455,   4456,   4457
   887,   2784,   2783,   2667,   2668,   4458,   4459,   4326,   4460
   888,   2787,   2786,   2788,   2785,   4461,   4462,   4463,   4464
   889,   2791,   2790,   2792,   2789,   4465,   4466,   4467,   4468
   890,   1836,   1919,   2260,   2261,   4469,   4470,   3848,   4471
   891,   2793,   2797,   2798,   2591,   4472,   4473,   4474,   4475
   892,   1756,   1758,   2728,   1757,   3456,   4476,   4477,   3664
   893,   2013,   2204,   2205,   2372,   4478,   3699,   4479,   4480
   894,   2810,   2812,   2813,   2811,   4481,   4482,   4483,   4484
   895,   2104,   2105,   2636,   1864,   4485,   4486,   4286,   4487
   896,   2817,   2576,   2608,   2816,   4488,   4489,   4490,   4491
   897,   1737,   2166,   2814,   2152,   4213,   4492,   4493,   4494
   898,   2619,   2274,   2273,   2821,   4495,   3752,   4496,   4497
   899,   2289,   2097,   2821,   2273,   4169,   4498,   4496,   3778
   900,   2371,   2281,    377,    376,   4148,   4499,    408,   3870
   901,   2360,   2675,    377,   2281,   4500,   4501,   4499,   4317
   902,   2027,     28,   1760,   2065,   4502,   4085,   4184,   3607
   903,   2701,   2806,   2742,   2703,   4503,   4504,   4505,   4506
   904,   2292,   1879,   1880,   2711,   4507,   4508,   4509,   4510
   905,   2823,   2428,   1921,   1922,   4511,   4512,   4513,   4514
   906,   2829,   1809,   1807,   2484,   4515,   4516,   4133,   4517
   907,   2831,   2830,   2833,   2832,   4518,   4519,   4520,   4521
   908,   2452,   2451,   2834,   2349,   4522,   4523,   4524,   4525
   909,   2167,   2431,   2836,   2432,   4526,   4527,   4528,   4529
   910,   2431,    268,    269,   2836,   4061,    308,   4530,   4527
   911,   2767,   2842,   2667,   2783,   4531,   4532,   4459,   4533
   912,   2838,   2840,   2843,   2839,   4534,   4535,   4536,   4537
   913,   2688,   2844,   2845,   2808,   4538,   4539,   4540,   4541
   914,   2689,   2690,   2844,   2688,   4542,   4543,   4538,   4544
   915,   1713,   2711,   1880,   1712,   4545,   4509,   4546,   3409
   916,   1773,   1936,   1943,   1935,   3835,   4547,   3586,   4548
   917,   1936,   1942,   2358,   1943,   4549,   4550,   3895,   4547
   918,   2624,   2848,   2537,   2539,   4551,   4552,   4151,   4553
   919,   1880,   1879,   2850,   1881,   4508,   4554,   4555,   4556
   920,   2322,   2320,   1764,   2327,   4557,   4558,   4453,   4559
   921,   2320,   2766,   1761,   1764,   4560,   4561,   4138,   4558
   922,   2156,   2191,   2188,   2158,   4562,   4563,   4564,   4565
   923,   2739,   2738,   2861,   2434,   4566,   4567,   4568,   4569
   924,   2503,   2475,   2431,   2505,   4570,   4059,   4571,   4572
   925,   2320,   2321,   2672,   2323,   4573,   4574,   4575,   4576
   926,   2216,   2313,    396,    397,   4577,   4578,    428,   3828
   927,   2161,   2237,   2251,   2239,   4579,   4580,   4581,   4582
   928,   2313,   2866,    395,    396,   4583,   4584,    427,   4578
   929,    279,    280,   2622,   2011,    319,   4275,   4585,   4586
   930,   2327,   2052,   2050,   2322,   4587,   4165,   4588,   4559
   931,   2512,   2513,   2868,   2867,   4112,   4589,   4590,   4591
   932,   2621,    387,    386,   2870,   4592,    418,   4593,   4594
   933,   2235,   2870,   2225,   2507,   4595,   4596,   4108,   4597
   934,    389,    388,   2245,   2241,    420,   4598,   4599,   4600
   935,   2112,   2186,   1759,   2609,   4601,   4602,   4253,   4603
   936,   2520,   2518,   2878,   2549,   4604,   4605,   4606,   4607
   937,   1722,   2146,   2147,   2172,   4608,   3646,   4609,   3668
   938,   2031,   2146,   1722,   1725,   3647,   4608,   3419,   4335
   939,   2674,    378,    377,   2675,   4610,    409,   4501,   4611
   940,   1776,   1789,   2492,   2381,   4612,   4613,   4614,   4615
   941,   2726,   2136,   2423,   2727,   4399,   4616,   4617,   4618
   942,   2664,   2665,   2314,   2560,   4619,   4620,   4621,   4622
   943,   2665,   2866,   2313,   2314,   4623,   4583,   4624,   4620
   944,   2161,   2238,   2346,   2237,   4435,   3836,   4625,   4579
   945,    258,    259,   2285,   2271,    298,   4626,   3776,   3868
   946,   2869,   2285,    259,    260,   4627,   4626,    299,   4628
   947,   2280,   1793,   1951,   2275,   4146,   3528,   4629,   3761
   948,   2729,   1881,   2850,   2879,   4630,   4555,   4631,   4632
   949,   2024,     26,   1695,   2023,   4633,   3932,   4255,   3610
   950,   2882,   2883,   2885,   2881,   4634,   4635,   4636,   4637
   951,   1719,   1720,    386,    387,   3899,   4638,    418,   4639
   952,   2434,   2861,   2884,   2436,   4568,   4640,   4641,   3990
   953,   1855,   1857,   2384,   1856,   4642,   3880,   4643,   4644
   954,   1884,   1883,   2886,   1882,   4645,   4646,   4647,   4310
   955,   2525,   2517,   2514,   2214,   4648,   4127,   4649,   4313
   956,   1789,   1730,    376,    377,   4650,   3460,    408,   4651
   957,   2503,    266,    267,   2475,   4652,    306,   4060,   4570
   958,   2047,   2049,   2887,   2048,   4653,   4654,   4655,   4656
   959,   2047,   2048,     35,      8,   4656,   4657,    457,   4658
   960,   1830,   1939,   2113,   1938,   4659,   4101,   4660,   4202
   961,   2096,   1938,   2113,   2095,   4203,   4660,   4661,   4115
   962,   1786,   2397,   2447,   2398,   3890,   4662,   4663,   4664
   963,   2417,   2426,   2474,   2424,   3959,   4665,   4056,   3984
   964,   2003,   2002,   2889,   2004,   4666,   4667,   4668,   4669
   965,   2332,   2569,   2492,   2684,   4337,   4670,   4671,   4343
   966,   2162,   2634,   1824,   1822,   4672,   4673,   3994,   3886
   967,   2381,   2492,   2569,   2380,   4614,   4670,   4336,   4674
   968,   2464,   2270,   2564,   2752,   4675,   4183,   4676,   4677
   969,   1850,   1851,    195,    196,   4678,   4679,    454,   4680
   970,   2752,   2564,   2442,   2436,   4676,   4681,   3991,   4682
   971,   2194,   2442,   2564,   2195,   4683,   4681,   4182,   3682
   972,   1693,   1691,    266,   2503,   3402,   4684,   4652,   4283
   973,   2003,   2004,   2894,   2891,   4669,   4685,   4686,   4687
   974,    292,   1858,   2458,    291,   3973,   4024,   4688,    331
   975,   1908,   2374,   2508,   2196,   4689,   4690,   4691,   3688
   976,   2898,   2610,   1736,   2153,   4692,   4693,   4694,   4695
   977,   2152,   2153,   1736,   1737,   3658,   4694,   4696,   4494
   978,   1946,   1749,   1747,   1947,   4697,   3429,   4013,   3654
   979,    120,    121,   2240,   2426,    159,   3723,   4698,   3958
   980,   1968,   1824,   2635,   2901,   3995,   4699,   4700,   4701
   981,    387,   2621,   2246,   2244,   4592,   4702,   3730,   4703
   982,   1900,   1902,   2515,   1901,   4704,   4705,   4244,   4706
   983,   2514,   2515,   1902,   2559,   4126,   4705,   4707,   4708
   984,   2096,   2582,   2306,   1829,   4709,   4710,   4711,   4204
   985,   2166,   2306,   2582,   2814,   3793,   4710,   4712,   4492
   986,   1932,   2157,   2155,   2014,   3814,   4713,   4714,   4715
   987,   2517,   2525,   2814,   2582,   4648,   4716,   4712,   4717
   988,   2491,   2224,    385,    384,   4082,   4096,    416,   4161
   989,   2357,   2359,   1735,   1766,   3854,   4718,   4719,   4720
   990,   1762,   2210,   2446,   2211,   4211,   4721,   4142,   4136
   991,   1998,    270,    271,   1997,   4722,    310,   3954,   3782
   992,   2526,   2048,   2887,   2633,   4723,   4655,   4724,   4299
   993,   2743,   1887,   1885,   2425,   4725,   3499,   3957,   4410
   994,   2364,    277,    278,   1931,   4002,    317,   4726,   4041
   995,   2903,   2902,   2905,   2849,   4727,   4728,   4729,   4730
   996,   2221,   2223,   2446,   2222,   4397,   4731,   4732,   4733
   997,   2610,   2407,   2906,   1736,   4734,   4735,   4736,   4693
   998,    401,    402,   2407,   2610,    433,   4737,   4734,   4738
   999,   2241,   2245,   2212,   1763,   4599,   3731,   3701,   4739
  1000,    402,    403,   2406,   2407,    434,   4740,   4741,   4737
  1001,   2839,   2843,   2899,   2907,   4536,   4742,   4743,   4744
  1002,   1932,   2014,   2204,   2013,   4715,   3693,   4478,   4103
  1003,   1751,   1752,   2664,   1862,   4745,   4746,   4747,   3483
  1004,   2874,   2875,   2914,   2877,   4748,   4749,   4750,   4751
  1005,   2892,   2895,   2797,   2793,   4752,   4753,   4472,   4754
  1006,   1781,   1829,   2306,   1782,   3468,   4711,   3796,   3442
  1007,   2198,   2196,   2508,   2302,   3787,   4691,   4109,   3786
  1008,   2153,   2160,    400,   2898,   3657,   4755,   4756,   4695
  1009,   2610,   2898,    400,    401,   4692,   4756,    432,   4738
  1010,   2285,   2869,   2099,   2289,   4627,   4757,   4170,   3777
  1011,   2588,   2766,   2320,   2323,   4758,   4560,   4576,   4759
  1012,   2338,   2205,   2209,   2337,   4760,   3698,   4429,   4761
  1013,   1837,   2599,   2916,   2598,   4762,   4763,   4764,   4765
  1014,   2243,   2222,   2446,   2210,   4766,   4732,   4721,   4210
  1015,   1737,   1736,   2906,   1735,   4696,   4736,   4767,   4214
  1016,   2920,   2919,   2921,   2918,   4768,   4769,   4770,   4771
  1017,     28,   2027,   2030,     29,   4502,   3582,   4772,    466
  1018,   2462,   2242,   2241,   1763,   4773,   4774,   4739,   4775
  1019,   2877,   2914,   2922,   2917,   4750,   4776,   4777,   4778
  1020,   2618,   2619,   2265,   2620,   4779,   4780,   4781,   4782
  1021,    150,   2151,   2357,    149,   4783,   3855,   4784,    189
  1022,   1687,   2871,   1750,   1749,   4785,   4786,   3430,   4787
  1023,   1705,   1704,   2923,   1703,   4451,   4788,   4789,   4240
  1024,   2492,   1789,    377,    378,   4613,   4651,    409,   4790
  1025,   2867,   2924,   1819,   2512,   4791,   4792,   4113,   4591
  1026,   2665,   2896,    395,   2866,   4793,   4794,   4584,   4623
  1027,   2560,   2925,   1862,   2664,   4795,   4796,   4747,   4622
  1028,   1864,   1862,   2925,   2104,   3484,   4796,   4797,   4487
  1029,   2259,   2864,   2672,   2173,   4798,   4799,   4800,   3743
  1030,   2588,   2463,   2462,   2766,   4801,   4802,   4803,   4758
  1031,   1763,   1761,   2766,   2462,   3700,   4561,   4803,   4775
  1032,   2258,   2931,    285,   2930,   4804,   4805,   4806,   4807
  1033,   2313,   2216,   2213,   2314,   4577,   3705,   4808,   4624
  1034,   2560,   2314,   2213,   2559,   4621,   4808,   4809,   4810
  1035,   2619,   2618,   1863,   2274,   4779,   4811,   4021,   4495
  1036,   2620,   1951,   1863,   2618,   4812,   3531,   4811,   4782
  1037,   2929,   2928,   2370,   2927,   4813,   4814,   4815,   4816
  1038,   2935,   2934,   2936,   2933,   4817,   4818,   4819,   4820
  1039,     31,   1703,   2923,      7,   4241,   4789,   4821,    463
  1040,   1931,    278,    279,   1995,   4726,    318,   4822,   3562
  1041,   2156,   1995,    279,   2011,   4062,   4822,   4586,   4823
  1042,   2915,   2869,    260,    261,   4824,   4628,    300,   4825
  1043,   2085,   2910,   2940,   2909,   4826,   4827,   4828,   4829
  1044,   2315,   2710,   2168,   2316,   4830,   4831,   3809,   3811
  1045,   2445,   2203,   1744,   1742,   3998,   4832,   4833,   4834
  1046,   1742,   1744,   2304,   1743,   4833,   4835,   4836,   4837
  1047,   2203,   2051,   2304,   1744,   3997,   4838,   4835,   4832
  1048,   1979,   2004,   2889,   2937,   4839,   4668,   4840,   4841
  1049,   2938,   1984,   2944,   2939,   4842,   4843,   4844,   4845
  1050,   2436,   2884,   2368,   2752,   4641,   4846,   4847,   4682
  1051,   2941,   2943,   2945,   2942,   4848,   4849,   4850,   4851
  1052,   2399,   2402,    128,    129,   4306,   3909,    167,   4852
  1053,    378,    379,   2684,   2492,    410,   4853,   4671,   4790
  1054,   2938,   2791,   2789,   2948,   4854,   4468,   4855,   4856
  1055,   2951,   2950,   2952,   2949,   4857,   4858,   4859,   4860
  1056,    289,   2884,   2861,    288,   4861,   4640,   4862,    328
  1057,   2406,    146,    147,   1765,   4863,    186,   3457,   4864
  1058,   2946,   2947,   2955,   2756,   4865,   4866,   4867,   4868
  1059,   2520,   2549,   2959,   2958,   4607,   4869,   4870,   4871
  1060,   1953,   1920,   2960,   2956,   3535,   4872,   4873,   4874
  1061,   2500,   1972,   2749,   2961,   4875,   4876,   4877,   4878
  1062,   2966,   2842,   2968,   2967,   4879,   4880,   4881,   4882
  1063,   2972,   2639,   2970,   2971,   4883,   4884,   4885,   4886
  1064,   1789,   1776,   1777,   1730,   4612,   3440,   3461,   4650
  1065,   2651,   2654,   3285,   2653,   4887,   4888,   4889,   4890
  1066,   1729,   1777,   1779,   1810,   3462,   3439,   3579,   3924
  1067,   2982,   2345,   2344,   2983,   4891,   4205,   4892,   4893
  1068,    396,   2345,   2982,    397,   4206,   4891,   4894,    428
  1069,   2269,   2129,   2127,   2268,   4895,   3633,   4896,   4267
  1070,   1868,   2192,   1933,   1865,   4293,   4261,   3511,   4352
  1071,   2207,   2206,   2987,   2208,   4897,   4898,   4899,   3843
  1072,   2206,   2988,   2626,   2987,   4900,   4901,   4902,   4898
  1073,   1743,   2304,   1787,   2762,   4836,   3888,   4903,   4904
  1074,   2762,   1787,   1785,   2989,   4903,   4905,   4906,   4907
  1075,   2321,   2102,   1724,   2175,   4908,   3614,   3790,   4909
  1076,   2051,   2305,   2397,   2304,   4167,   4910,   3889,   4838
  1077,    290,   2368,   2884,    289,   4911,   4846,   4861,    329
  1078,   2463,    390,   2242,   2462,   4229,   4912,   4773,   4802
  1079,   2672,   2864,   2588,   2323,   4799,   4913,   4759,   4575
  1080,   2266,   2073,   2396,   2414,   4914,   4915,   3918,   4011
  1081,   2463,   2588,   2864,   2587,   4801,   4913,   4916,   4227
  1082,   2068,   1907,   2396,   2073,   3817,   3972,   4915,   4308
  1083,    270,   1998,   2836,    269,   4722,   4917,   4530,    309
  1084,   2432,   2836,   1998,   2297,   4528,   4917,   3781,   4918
  1085,   1787,   1786,   2382,   1785,   3887,   4919,   4920,   4905
  1086,   2164,   2197,   3003,   2935,   3687,   4921,   4922,   4923
  1087,   2605,   2606,   2812,   2604,   4924,   4925,   4926,   4927
  1088,   2963,   2965,   3004,   2964,   4928,   4929,   4930,   4931
  1089,   2406,   1765,   2906,   2407,   4864,   4932,   4735,   4741
  1090,   3007,   3008,   2848,   2989,   4933,   4934,   4935,   4936
  1091,    400,   2160,   2159,    399,   4755,   4145,   4937,    431
  1092,   3010,   3009,   3005,   2595,   4938,   4939,   4940,   4941
  1093,   2527,   2993,   3012,   3011,   4942,   4943,   4944,   4945
  1094,   3014,   3005,   3009,   3013,   4946,   4939,   4947,   4948
  1095,   2915,    261,    262,   2662,   4825,    301,   4949,   4950
  1096,   3023,   3025,   3026,   3024,   4951,   4952,   4953,   4954
  1097,   2983,   2100,   3020,   3022,   4955,   4956,   4957,   4958
  1098,   1720,   2293,   1879,   2292,   3898,   4959,   4507,   4960
  1099,   1720,   2292,    385,    386,   4960,   4961,    417,   4638
  1100,   1735,   2906,   1765,   1766,   4767,   4932,   3459,   4719
  1101,   2940,   2910,   1917,   1914,   4827,   4962,   3508,   4963
  1102,   2269,   2474,   2444,   2129,   4057,   4054,   4964,   4895
  1103,    291,   2458,   2368,    290,   4688,   4965,   4911,    330
  1104,   2552,   2201,   1779,   1778,   4966,   3691,   3438,   4967
  1105,   3035,   3037,   2658,   3036,   4968,   4969,   4970,   4971
  1106,   2219,   2189,   2190,   1731,   4972,   3677,   4973,   3710
  1107,   2248,   2228,   2226,   2230,   4974,   3711,   3717,   4975
  1108,   2752,   2368,   2458,   2464,   4847,   4965,   4023,   4677
  1109,   2248,   2230,   1982,   2247,   4975,   3716,   4976,   4977
  1110,   3018,   3034,   2330,   2057,   4978,   4979,   4980,   4981
  1111,   2947,   1740,   1741,   2647,   4982,   4983,   4301,   4984
  1112,   1732,   2059,   2179,   1734,   3623,   4985,   4986,   3425
  1113,   1719,   2903,   2849,   1721,   4987,   4730,   4988,   3896
  1114,   3050,   3049,   3051,   3048,   4989,   4990,   4991,   4992
  1115,    395,   2896,   1754,    394,   4794,   4993,   4162,    426
  1116,    129,    130,   3052,   2399,    168,   4994,   4995,   4852
  1117,   1944,    152,    153,   2136,   3935,    192,   4996,   4401
  1118,   1759,   2186,   2904,   1689,   4602,   4997,   4998,   3570
  1119,   3053,   3055,   3056,   3054,   4999,   5000,   5001,   5002
  1120,   2112,   2110,   2904,   2186,   5003,   5004,   4997,   4601
  1121,   3053,   3058,   3059,   3057,   5005,   5006,   5007,   5008
  1122,   2018,   2019,   1689,   2904,   3805,   3732,   4998,   5009
  1123,   2081,   2985,   2376,   2072,   5010,   5011,   5012,   3619
  1124,   2136,    153,   2391,   2423,   4996,   4067,   4035,   4616
  1125,   3061,   3060,   3029,   2996,   5013,   5014,   5015,   5016
  1126,   2677,   2736,   1926,   1706,   5017,   5018,   5019,   5020
  1127,   3062,   2636,   2815,   3063,   5021,   5022,   5023,   5024
  1128,   1941,   2165,   2358,   1942,   3791,   5025,   4550,   3797
  1129,   2978,   2979,   2973,   2975,   5026,   5027,   5028,   5029
  1130,   2661,    263,    264,   2863,   5030,    303,   5031,   5032
  1131,   3065,   2045,   2712,   3066,   5033,   4384,   5034,   5035
  1132,   2327,   2521,   2305,   2052,   4452,   5036,   4166,   4587
  1133,   3067,   3058,   3068,   3043,   5037,   5038,   5039,   5040
  1134,   2559,   1902,   2925,   2560,   4707,   5041,   4795,   4810
  1135,   2104,   2925,   1902,   1900,   4797,   5041,   4704,   5042
  1136,   2397,   2305,   2521,   2447,   4910,   5036,   4140,   4662
  1137,   1797,   1799,   2443,   1796,   5043,   5044,   5045,   5046
  1138,   2114,   2142,   2824,   2509,   4049,   5047,   5048,   4099
  1139,   2989,   2848,   2624,   2762,   4935,   4551,   5049,   4907
  1140,   2722,   3073,   3075,   2800,   5050,   5051,   5052,   5053
  1141,   2115,   2116,   2676,   2926,   5054,   5055,   5056,   5057
  1142,    146,   2406,    403,     16,   4863,   4740,    435,    185
  1143,   1747,   1748,   3079,   2311,   3432,   5058,   5059,   4014
  1144,   2666,   2909,   2940,   3024,   5060,   4828,   5061,   5062
  1145,   2149,   2053,   2054,   2472,   3648,   4020,   5063,   4318
  1146,   2666,   3024,   3026,   2668,   5062,   4953,   5064,   4329
  1147,   1750,   2382,   3079,   1748,   5065,   5066,   5058,   3431
  1148,   2998,   3029,   3080,   3027,   5067,   5068,   5069,   5070
  1149,   1786,   2398,   3079,   2382,   4664,   5071,   5066,   4919
  1150,   1926,   1925,   3081,   2992,   5072,   5073,   5074,   5075
  1151,   2075,   3084,   3015,   3083,   5076,   5077,   5078,   5079
  1152,   3087,   3025,   3088,   2997,   5080,   5081,   5082,   5083
  1153,   2312,   2478,   2054,   2310,   5084,   5085,   4019,   3800
  1154,   2546,   3069,   2412,   2471,   5086,   5087,   5088,   5089
  1155,   1850,    196,     11,   2006,   4680,    455,   5090,   5091
  1156,   3039,   3040,   3098,   3041,   5092,   5093,   5094,   5095
  1157,   2693,   2694,   3097,   2544,   5096,   5097,   5098,   5099
  1158,   3100,   3103,   3059,   3102,   5100,   5101,   5102,   5103
  1159,   2544,   3097,   3104,   2540,   5098,   5104,   5105,   4156
  1160,   2017,   2016,   2253,   2015,   5106,   3825,   3736,   5107
  1161,   1755,    135,    136,   1745,   4448,    174,   5108,   3435
  1162,   2623,   3107,     22,   3106,   5109,   5110,   5111,   5112
  1163,   2416,   2441,   2066,   2400,   3986,   4266,   5113,   3952
  1164,   2975,   2981,   3108,   2978,   5114,   5115,   5116,   5029
  1165,   2067,    198,   2400,   2066,   5117,   3907,   5113,   3744
  1166,   3111,   3110,   3112,   3109,   5118,   5119,   5120,   5121
  1167,   3019,   2057,   2055,   2606,   5122,   5123,   5124,   5125
  1168,   2329,   2339,   2341,   2373,   3832,   5126,   5127,   5128
  1169,   2320,   2322,   2102,   2321,   4557,   5129,   4908,   4573
  1170,   2322,   2050,   2103,   2102,   4588,   4125,   3615,   5129
  1171,   3105,   3010,   2342,   2340,   5130,   5131,   5132,   5133
  1172,   2937,   3113,   1964,   1979,   5134,   5135,   3555,   4841
  1173,   2329,   3115,   2261,   2043,   5136,   5137,   3851,   5138
  1174,   2101,   3117,   2813,   3116,   5139,   5140,   5141,   5142
  1175,   2864,    392,    391,   2587,   5143,    423,   4228,   4916
  1176,   2923,   3120,     34,      7,   5144,   5145,    458,   4821
  1177,   2839,   2841,   3123,   2838,   5146,   5147,   5148,   4537
  1178,   2350,   2122,   2120,   2607,   3846,   3626,   5149,   4248
  1179,   2143,   1976,   1851,   1850,   5150,   5151,   4678,   5152
  1180,   3128,   3131,   3132,   3130,   5153,   5154,   5155,   5156
  1181,   2961,   3133,   3134,   2962,   5157,   5158,   5159,   5160
  1182,   2882,   2881,   3135,   2880,   4637,   5161,   5162,   5163
  1183,   2276,   2282,   1845,   1959,   5164,   5165,   5166,   3862
  1184,   1844,   1846,   1959,   1845,   5167,   5168,   5166,   5169
  1185,   1844,   1845,   2282,   1847,   5169,   5165,   5170,   5171
  1186,   3135,   2703,   2824,   2880,   5172,   5173,   5174,   5162
  1187,   1706,   1705,   2594,   2677,   4449,   4239,   4332,   5020
  1188,   2812,   2606,   2055,   2813,   4925,   5124,   5175,   4482
  1189,   2056,   2202,   3125,   2055,   5176,   5177,   5178,   5179
  1190,   2724,   2723,   3136,   2722,   5180,   5181,   5182,   5183
  1191,   3137,   2811,   3141,   3140,   5184,   5185,   5186,   5187
  1192,   2669,   3143,   3144,   3142,   5188,   5189,   5190,   5191
  1193,   2120,   2121,   2123,   3124,   3625,   3631,   5192,   5193
  1194,   2081,   2984,   3118,   2985,   5194,   5195,   5196,   5010
  1195,   2267,    200,    198,   2067,   5197,    449,   5117,   3747
  1196,   2575,   2577,   2608,   2576,   5198,   5199,   4489,   4325
  1197,   2156,   2011,   2622,   2191,   4823,   4585,   5200,   4562
  1198,   1772,   1773,   1935,   2726,   3445,   4548,   4400,   5201
  1199,   1818,   2860,   2191,   2622,   5202,   5203,   5200,   4274
  1200,    403,   2286,    145,     16,   5204,   3771,    184,    435
  1201,   2848,   3008,    475,   2537,   4934,   5205,   5206,   4552
  1202,   3137,   3138,   2810,   2811,   5207,   5208,   4484,   5184
  1203,   2151,    150,    151,   1945,   4783,    190,   3934,   3894
  1204,   1895,   1993,   2199,   1859,   3577,   3750,   5209,   3929
  1205,   2270,   2464,   1859,   2199,   4675,   4022,   5209,   3749
  1206,   3145,   3147,   2792,   2790,   5210,   5211,   4466,   5212
  1207,   2207,   2349,   2834,   2348,   3842,   4524,   5213,   5214
  1208,   2100,   2101,   3116,   3020,   5215,   5142,   5216,   4956
  1209,   2452,   2349,   2236,   2453,   4525,   3841,   5217,   5218
  1210,   3027,   3080,   3045,   3085,   5069,   5219,   5220,   5221
  1211,   2294,   2295,   1855,   1856,   5222,   5223,   4644,   5224
  1212,   2779,   2780,   2611,   2782,   5225,   5226,   5227,   5228
  1213,   2220,   2062,   2650,   2291,   5229,   5230,   5231,   5232
  1214,   2640,   2543,   2542,   2111,   4296,   5233,   5234,   5235
  1215,   2541,   2540,   2021,   2542,   4153,   5236,   5237,   5238
  1216,   2654,   2651,   2756,   2955,   4887,   4431,   4867,   5239
  1217,   3010,   2595,   2596,   2342,   4941,   5240,   5241,   5131
  1218,   3138,   3137,   3015,   3139,   5207,   5242,   5243,   5244
  1219,   2714,   2046,   1814,   1909,   4382,   5245,   3523,   5246
  1220,   2474,   2426,   2240,   1967,   4665,   4698,   5247,   4055
  1221,   1697,   1969,   1967,   2240,   3408,   3541,   5247,   3722
  1222,   2348,   2834,   3153,   2351,   5213,   5248,   5249,   3844
  1223,   2296,   2298,   2926,   2295,   5250,   5251,   5252,   5253
  1224,   2296,   2300,   3156,   2298,   5254,   5255,   5256,   5250
  1225,   2692,   2691,   2533,   2532,   5257,   5258,   5259,   5260
  1226,   2947,   2647,   2654,   2955,   4984,   5261,   5239,   4866
  1227,   2145,   2031,   1875,   2344,   3644,   4334,   5262,   4208
  1228,   2983,   2344,   1875,   2100,   4892,   5262,   4220,   4955
  1229,   1898,   2070,   2865,   2069,   5263,   5264,   5265,   5266
  1230,   2763,   2069,   2865,   3164,   5267,   5265,   5268,   5269
  1231,   2559,   2213,   2214,   2514,   4809,   3704,   4649,   4708
  1232,   3166,   3165,   2879,   2850,   5270,   5271,   4631,   5272
  1233,   2969,   3016,   3021,   3017,   5273,   5274,   5275,   5276
  1234,   2591,   2592,   2893,   2793,   4237,   5277,   5278,   4475
  1235,   2921,   3170,   2712,   2714,   5279,   5280,   4383,   5281
  1236,   3052,    130,    131,   2874,   4994,    169,   5282,   5283
  1237,   1883,   1884,    382,    381,   4645,   4039,    413,   5284
  1238,   1769,   1734,   2179,   2171,   5285,   4986,   4423,   5286
  1239,   2590,   1755,   1746,   2589,   4446,   3434,   5287,   5288
  1240,   3178,   2628,   2988,   3177,   5289,   5290,   5291,   5292
  1241,   2103,   2516,   2001,   2042,   4124,   5293,   5294,   3616
  1242,   2730,   2516,   2445,   2496,   5295,   4123,   5296,   5297
  1243,   3173,   2589,   1746,   3114,   5298,   5287,   5299,   5300
  1244,   3180,   3174,   3182,   2828,   5301,   5302,   5303,   5304
  1245,   1809,   2829,   3180,   2828,   4515,   5305,   5304,   5306
  1246,   2753,   2840,   2797,   2895,   5307,   5308,   4753,   5309
  1247,   2937,   3184,   3172,   3113,   5310,   5311,   5312,   5134
  1248,   2772,   2170,   2754,   2771,   5313,   4425,   5314,   5315
  1249,    281,    282,   1820,   1818,    321,   5316,   3467,   4273
  1250,   2771,   2754,   3186,   3185,   5314,   5317,   5318,   5319
  1251,   1724,   2042,   2001,   1723,   3617,   5294,   4215,   3417
  1252,   3189,   3191,   2687,   3190,   5320,   5321,   5322,   5323
  1253,   2826,   2487,   2485,   2642,   5324,   4078,   5325,   5326
  1254,   3189,   3190,   3192,   3188,   5323,   5327,   5328,   5329
  1255,   3163,   2696,   2694,   3162,   5330,   5331,   5332,   5333
  1256,   1919,   1745,    136,    137,   5334,   5108,    175,   5335
  1257,   1741,   1740,   1999,   1739,   4983,   3566,   5336,   5337
  1258,   2589,   3173,   3113,   3172,   5298,   5338,   5312,   5339
  1259,   1988,   1987,   2063,   2061,   5340,   5341,   3600,   5342
  1260,   3007,    474,    475,   3008,   5343,    484,   5205,   4933
  1261,    272,    273,   3194,   2743,    312,   5344,   5345,   4409
  1262,   3195,   1825,   2131,   2764,   5346,   5347,   4445,   5348
  1263,   3195,   3196,   1827,   1825,   5349,   5350,   3479,   5346
  1264,   2604,   3105,   2340,   2343,   5351,   5133,   5352,   5353
  1265,   3198,   2745,   3197,   2603,   5354,   5355,   5356,   5357
  1266,   2555,   2554,   2932,   2748,   4222,   5358,   5359,   5360
  1267,   2109,   1828,   1836,   1992,   5361,   5362,   5363,   5364
  1268,   2048,   2526,      6,     35,   4723,   4298,    456,   4657
  1269,   2125,   3200,   3125,   2202,   5365,   5366,   5177,   4378
  1270,   2256,   2255,   2571,   2254,   3766,   5367,   5368,   5369
  1271,   2793,   2893,   2455,   2892,   5278,   5370,   5371,   4754
  1272,   2257,   2254,   2571,   2258,   5372,   5368,   5373,   5374
  1273,   2254,   2257,   2739,   2256,   5372,   5375,   5376,   5369
  1274,    134,   3235,   2914,    133,   5377,   5378,   5379,    172
  1275,    133,   2914,   2875,    132,   5379,   4749,   5380,    171
  1276,   2644,   1733,   1738,   1775,   5381,   3427,   3450,   5382
  1277,   2321,   2175,   2173,   2672,   4909,   3789,   4800,   4574
  1278,   2921,   2714,   1909,   2918,   5281,   5246,   5383,   4770
  1279,   3208,   2977,   3209,   2856,   5384,   5385,   5386,   5387
  1280,   2571,   2572,   2931,   2258,   5388,   5389,   4804,   5373
  1281,   1910,   1911,   2918,   1909,   5390,   5391,   5383,   3525
  1282,   2495,   3146,   2730,   2496,   5392,   5393,   5297,   4088
  1283,   2516,   2730,   2583,   2001,   5295,   5394,   4216,   5293
  1284,   2630,   3213,   2005,   3212,   5395,   5396,   5397,   5398
  1285,   2577,   2575,   2418,   2279,   5198,   5399,   3941,   5400
  1286,   2899,   2843,   2772,   2900,   4742,   5401,   5402,   5403
  1287,   1893,   2877,   2917,   1892,   5404,   4778,   5405,   3494
  1288,   2969,   3185,   3186,   2963,   5406,   5318,   5407,   5408
  1289,     34,   3120,   1854,   3214,   5145,   5409,   5410,   5411
  1290,   2923,   3119,   2760,   3120,   5412,   5413,   5414,   5144
  1291,   2318,   3220,   2134,   3219,   5415,   5416,   5417,   5418
  1292,   2698,     17,    468,   2683,   4354,    476,   5419,   5420
  1293,   3221,   2927,   2370,   3066,   5421,   4815,   5422,   5423
  1294,   1804,   1803,   3222,   1805,   5424,   5425,   5426,   5427
  1295,   3222,   3223,   3224,   3030,   5428,   5429,   5430,   5431
  1296,   1799,   3034,   3227,   2535,   5432,   5433,   5434,   5435
  1297,   2503,   2505,   2632,   2504,   4572,   5436,   5437,   4280
  1298,   2332,   3228,   2932,   2554,   5438,   5439,   5358,   4338
  1299,   2036,   2038,   2353,   2729,   3590,   5440,   5441,   5442
  1300,   2353,   2038,   3232,   2352,   5440,   5443,   5444,   5445
  1301,   1830,   1831,   1975,   1939,   3470,   3550,   4051,   4659
  1302,   1904,   2535,   1791,   1792,   5446,   5447,   3592,   3920
  1303,   1813,   2497,   3151,   3231,   4093,   5448,   5449,   5450
  1304,   1692,    265,    266,   1691,   5451,    305,   4684,   3401
  1305,   2630,   3212,    200,   2267,   5398,   5452,   5197,   5453
  1306,   2038,   2037,   2846,   3232,   3589,   5454,   5455,   5443
  1307,   2172,    394,    393,   2174,   5456,    425,   3741,   3669
  1308,   2037,   2847,   3237,   2846,   5457,   5458,   5459,   5454
  1309,   2127,   2128,   2523,   2986,   3632,   5460,   5461,   5462
  1310,   2447,   2446,   3079,   2398,   4139,   5463,   5071,   4663
  1311,   1821,   1819,   2924,   1727,   3465,   4792,   5464,   5465
  1312,   2116,   2115,   3234,   2117,   5054,   5466,   5467,   4418
  1313,   2539,   2625,   2709,   2624,   5468,   4370,   5469,   4553
  1314,   3014,   3242,   2477,   2449,   5470,   5471,   4071,   5472
  1315,   2008,   3244,   3094,   3243,   5473,   5474,   5475,   5476
  1316,   2014,   2155,   1800,   1852,   4714,   5477,   4121,   3694
  1317,   2008,   3246,   3199,   3245,   5478,   5479,   5480,   5481
  1318,   2008,   3243,   1844,   3246,   5476,   5482,   5483,   5478
  1319,   1878,   2480,   2472,   2479,   4363,   4319,   5484,   5485
  1320,   2478,   2479,   2472,   2054,   5486,   5484,   5063,   5085
  1321,   2498,   3248,   3249,   3247,   5487,   5488,   5489,   5490
  1322,   2807,   2845,   3074,   3136,   5491,   5492,   5493,   5494
  1323,   3073,   2722,   3136,   3074,   5050,   5182,   5493,   5495
  1324,   2457,   3251,   3252,   2456,   5496,   5497,   5498,   4027
  1325,    137,    138,   2260,   1919,    176,   5499,   4470,   5335
  1326,   2502,   2501,   2010,   2500,   5500,   5501,   5502,   5503
  1327,   2508,   2232,   2235,   2507,   5504,   4272,   4597,   4107
  1328,   2547,   2546,   2471,   2469,   5505,   5089,   4043,   5506
  1329,   2547,   2469,   2470,   2548,   5506,   4042,   5507,   5508
  1330,   2725,   2630,   2629,   3253,   5509,   5510,   5511,   5512
  1331,    149,   2357,   1766,    148,   4784,   4720,   3458,    188
  1332,   2911,   2454,   3181,   2912,   5513,   5514,   5515,   5516
  1333,   2035,   3252,   3251,   3250,   5517,   5497,   5518,   5519
  1334,   2837,   3022,   3020,   3200,   5520,   4957,   5521,   5522
  1335,   2822,   3233,   2438,   2430,   5523,   5524,   5525,   5526
  1336,   2217,   2041,   2039,   1798,   5527,   3595,   4231,   3770
  1337,   1915,   2746,   3256,   1916,   4413,   5528,   5529,   4104
  1338,   2647,   2450,   2448,   2654,   4300,   5530,   5531,   5261
  1339,   2561,   3257,   3175,   2084,   5532,   5533,   5534,   5535
  1340,   1922,   2468,   3258,   2823,   5536,   5537,   5538,   4514
  1341,   2100,   1874,   3117,   2101,   4219,   5539,   5139,   5215
  1342,   1874,   1685,   3141,   3117,   4226,   5540,   5541,   5539
  1343,   2239,   2634,   2162,   2161,   5542,   4672,   3661,   4582
  1344,   2239,   2635,   1824,   2634,   5543,   4699,   4673,   5542
  1345,   1915,   1841,   1940,   1918,   4106,   3521,   4341,   5544
  1346,   2544,   2545,   2247,   2693,   4155,   5545,   5546,   5099
  1347,   2167,   2432,   2297,   2168,   4529,   4918,   3810,   5547
  1348,   2437,   2438,   3233,   3156,   3982,   5524,   5548,   5549
  1349,   1992,   1836,   2261,   3115,   5363,   4471,   5137,   5550
  1350,   2794,   2795,   3261,   2720,   5551,   5552,   5553,   5554
  1351,   2531,   3262,   2907,   2899,   5555,   5556,   4743,   5557
  1352,   2340,   2342,   3032,   2341,   5132,   5558,   5559,   5560
  1353,   2303,   2506,   2548,   2470,   4172,   5561,   5507,   4095
  1354,   2373,   2341,   3032,   1994,   5127,   5559,   5562,   5563
  1355,   3226,   3225,   1811,   2437,   5564,   5565,   3979,   5566
  1356,   3263,   3264,   1750,   2871,   5567,   5568,   4786,   5569
  1357,   2991,   2990,   2887,   2049,   5570,   5571,   4654,   5572
  1358,   2609,   2640,   2111,   2112,   4297,   5235,   5573,   4603
  1359,   2633,   2887,   2990,   2543,   4724,   5571,   5574,   4295
  1360,   1924,   2209,   1853,   2737,   4430,   3697,   5575,   5576
  1361,   1852,   1801,   2737,   1853,   4120,   5577,   5575,   3695
  1362,   2291,   1802,   2219,   2220,   5578,   5579,   3709,   5232
  1363,   1772,   2726,   2727,   1851,   5201,   4618,   5580,   5581
  1364,   3095,   1890,   3266,   3096,   5582,   5583,   5584,   5585
  1365,   2291,   2290,   1801,   1802,   5586,   5587,   4119,   5578
  1366,   2007,   3193,   3069,   2009,   5588,   5589,   5590,   5591
  1367,   3142,   3268,   2658,   2656,   5592,   5593,   5594,   5595
  1368,   1864,   2637,   2287,   1861,   4285,   5596,   3773,   3485
  1369,   2423,    195,   1851,   2727,   4034,   4679,   5580,   4617
  1370,   3145,   2790,   2939,   3031,   5212,   5597,   5598,   5599
  1371,   3245,   3272,   3274,   2734,   5600,   5601,   5602,   5603
  1372,   3278,   3277,   3163,   3276,   5604,   5605,   5606,   5607
  1373,   2525,   2154,   2152,   2814,   4312,   3655,   4493,   4716
  1374,   2149,   2529,   2855,   2150,   4321,   5608,   5609,   3649
  1375,   3136,   2723,   3253,   2522,   5181,   5610,   5611,   5612
  1376,   1899,   2522,   3253,   2523,   5613,   5611,   5614,   5615
  1377,   2939,   2790,   2791,   2938,   5597,   4465,   4854,   4845
  1378,   3217,   1872,   2984,   3267,   5616,   5617,   5618,   5619
  1379,   2135,   3217,   3230,   3282,   5620,   5621,   5622,   5623
  1380,   2518,   2520,   2705,   2519,   4604,   5624,   5625,   5626
  1381,   1820,    282,    283,   2513,   5316,    322,   5627,   4114
  1382,   2437,   3156,   2300,   3226,   5549,   5255,   5628,   5566
  1383,   2574,   1718,   2453,   2236,   4196,   5629,   5217,   4373
  1384,   2074,   2075,   3083,   2077,   5630,   5079,   5631,   5632
  1385,   3002,   3001,   2920,   3000,   5633,   5634,   5635,   5636
  1386,   1846,   2499,   3093,   1961,   5637,   5638,   5639,   5640
  1387,   2683,    468,   3291,   2682,   5419,   5641,   5642,   5643
  1388,   1837,   1838,   1980,   1840,   5644,   3560,   5645,   5646
  1389,   1834,   2680,   2682,   2681,   5647,   5648,   5649,   5650
  1390,   2920,   2918,   1911,   3000,   4771,   5391,   5651,   5635
  1391,    274,   2395,   3194,    273,   4028,   5652,   5344,    313
  1392,   2743,   3194,   1906,   1887,   5345,   5653,   3500,   4725
  1393,   2394,   1906,   3194,   2395,   3916,   5653,   5652,   4007
  1394,   2092,   2091,   2178,   2090,   5654,   3821,   5655,   5656
  1395,   2963,   3186,   2059,   2058,   5407,   5657,   3622,   5658
  1396,   2249,   2251,   2070,   2250,   5659,   5660,   5661,   5662
  1397,   2585,   2586,   2034,   2413,   5663,   5664,   4403,   5665
  1398,   2237,   2865,   2070,   2251,   5666,   5264,   5660,   4580
  1399,   3239,   2117,   3234,   3294,   5667,   5467,   5668,   5669
  1400,   2738,    287,    288,   2861,   5670,    327,   4862,   4567
  1401,   2383,   3292,   3202,   2384,   5671,   5672,   5673,   3883
  1402,   2016,   2021,   2325,   2324,   5674,   5675,   3819,   3826
  1403,   1960,   1959,   1846,   1961,   3863,   5168,   5640,   5676
  1404,   2216,   2335,   2159,   2215,   3827,   5677,   4144,   3706
  1405,   2159,   2335,    398,    399,   5677,   3829,    430,   4937
  1406,   3179,   2934,   2935,   3003,   5678,   4817,   4922,   5679
  1407,   2246,   2621,   2870,   2235,   4702,   4594,   4595,   4271
  1408,   2893,   2457,   1937,   2455,   5680,   4026,   4016,   5370
  1409,   1713,   1711,    382,    383,   3412,   5681,    414,   5682
  1410,    385,   2225,   2870,    386,   4098,   4596,   4593,    417
  1411,   2106,   2107,   2601,   2108,   5683,   5684,   5685,   4246
  1412,   2597,   2646,   1741,   1739,   5686,   4302,   5337,   5687
  1413,   2889,   2002,   3152,   2890,   4667,   5688,   5689,   5690
  1414,   2208,   2987,   1948,   2663,   4899,   5691,   5692,   4374
  1415,   2863,    264,    265,   1692,   5031,    304,   5451,   5693
  1416,   2863,   1692,   1690,   2862,   5693,   3404,   5694,   5695
  1417,   1855,   2676,   3298,   1857,   5696,   5697,   5698,   4642
  1418,   3296,   2605,   2339,   2328,   5699,   5700,   3831,   5701
  1419,   2625,   2539,   3299,   2645,   5468,   5702,   5703,   5704
  1420,   2420,   2421,   2024,   2022,   5705,   5706,   3613,   5707
  1421,   2815,   3197,   2745,   2802,   5708,   5355,   5709,   5710
  1422,   1894,   1892,   3302,   3301,   3491,   5711,   5712,   5713
  1423,   2116,   2749,   3298,   2676,   4417,   5714,   5697,   5055
  1424,   2142,   1975,   1976,   2143,   4052,   3549,   5150,   5715
  1425,   1893,   1896,   2399,   3052,   3493,   4307,   4995,   5716
  1426,   3104,   2556,   2178,   2325,   5717,   4187,   3820,   5718
  1427,   2249,   2876,   2901,   2635,   5719,   5720,   4700,   5721
  1428,   2876,   2444,   1968,   2901,   5722,   4053,   4701,   5720
  1429,    387,   2244,   2245,    388,   4703,   3729,   4598,    419
  1430,   1916,    391,    392,   1843,   5723,    423,   4131,   4105
  1431,   2489,   3303,   3295,   2485,   5724,   5725,   5726,   4077
  1432,   2599,   2490,   3304,   2916,   5727,   5728,   5729,   4763
  1433,   1712,   2352,   3232,   1714,   5730,   5444,   5731,   3410
  1434,     26,   2024,   2421,      4,   4633,   5706,   5732,    438
  1435,   2732,   2731,   2972,   2888,   4411,   5733,   5734,   5735
  1436,   3270,   3271,   2932,   3228,   5736,   5737,   5439,   5738
  1437,   2932,   3271,   2751,   2748,   5737,   5739,   4420,   5359
  1438,   2923,   1704,   1848,   3119,   4788,   3575,   5740,   5412
  1439,   3011,   3012,   2994,   3042,   4944,   5741,   5742,   5743
  1440,   1964,   3113,   3173,   3114,   5135,   5338,   5300,   5744
  1441,   2298,   3156,   3233,   3168,   5256,   5548,   5745,   5746
  1442,   1727,   1731,   2190,   1821,   3423,   4973,   5747,   5465
  1443,   2827,   2299,   2148,   2150,   5748,   4270,   3650,   5749
  1444,   1749,   1946,   1686,   1687,   4697,   4269,   5750,   4787
  1445,   2340,   2341,   2339,   2343,   5560,   5126,   5751,   5352
  1446,   2604,   2343,   2339,   2605,   5353,   5751,   5700,   4927
  1447,   2170,   1770,   1769,   2171,   5752,   5753,   5286,   4426
  1448,   2241,   2242,    390,    389,   4774,   4912,    421,   4600
  1449,   2499,   3092,   2886,   3093,   5754,   5755,   5756,   5638
  1450,   1871,   1869,   3049,   3218,   3487,   5757,   5758,   5759
  1451,   1769,   1770,   2897,   1768,   5753,   5760,   5761,   5762
  1452,   2004,   1979,   1965,   2894,   4839,   3554,   5763,   4685
  1453,   3307,   3306,   3308,   3305,   5764,   5765,   5766,   5767
  1454,   2334,   2684,    379,    380,   4344,   4853,    411,   5768
  1455,   2194,   2473,   2435,   2442,   4292,   4048,   3992,   4683
  1456,   2190,   2860,   1818,   1821,   5769,   5202,   3466,   5747
  1457,   3052,   2874,   2877,   1893,   5283,   4751,   5404,   5716
  1458,   2895,   2892,   2911,   2897,   4752,   5770,   5771,   5772
  1459,   2897,   2911,   2912,   1768,   5771,   5516,   5773,   5761
  1460,   3107,   2347,      1,     22,   5774,   3838,    444,   5110
  1461,   2894,   2947,   2946,   2891,   5775,   4865,   5776,   4686
  1462,   2889,   2890,   3302,   3310,   5690,   5777,   5778,   5779
  1463,   2284,   1866,   2533,   2691,   4350,   5780,   5258,   5781
  1464,   2864,   2259,    393,    392,   4798,   3742,    424,   5143
  1465,   2494,   2496,   2445,   1742,   4089,   5296,   4834,   5782
  1466,   2826,   2827,   3311,   2487,   5783,   5784,   5785,   5324
  1467,   2486,   2487,   3311,   2488,   4075,   5785,   5786,   5787
  1468,   2566,   2591,   2798,   2565,   4234,   4474,   5788,   4192
  1469,   2813,   3117,   3141,   2811,   5140,   5541,   5185,   4483
  1470,   1781,   1771,   1783,   1831,   3441,   3447,   3551,   3469
  1471,   1756,   3292,      2,   1784,   5789,   5790,   5791,   3453
  1472,   2080,   1896,   1894,   2022,   4304,   3492,   5792,   3612
  1473,   2420,   1758,   1788,   2421,   5793,   3455,   5794,   5705
  1474,   2676,   1855,   2295,   2926,   5696,   5223,   5252,   5056
  1475,   2504,   2632,   2177,   2631,   5437,   5795,   5796,   4281
  1476,   2219,   1802,   1800,   2189,   5579,   4122,   3678,   4972
  1477,   3216,   1813,   3231,   3215,   5797,   5450,   5798,   5799
  1478,   3215,   3231,   1833,   1835,   5798,   5800,   3474,   5801
  1479,   1683,   3140,   3141,   1685,   5802,   5186,   5540,   3398
  1480,   2460,   2459,   2747,   2461,   5803,   5804,   5805,   4031
  1481,   1848,   2012,   2071,   2025,   3574,   5806,   5807,   5808
  1482,   2780,   3312,   2549,   2878,   5809,   5810,   4606,   5811
  1483,   1832,   1833,   3231,   3151,   3475,   5800,   5449,   5812
  1484,   1838,   1837,   2598,   1839,   5644,   4765,   5813,   5814
  1485,   1978,   2580,   2581,    470,   4375,   4198,   5815,   5816
  1486,   3139,   3105,   2604,   3138,   5817,   5351,   5818,   5244
  1487,   2251,   2249,   2635,   2239,   5659,   5721,   5543,   4581
  1488,   3138,   2604,   2812,   2810,   5818,   4926,   4481,   5208
  1489,   2473,   1868,   2284,   2283,   4291,   4351,   3764,   4046
  1490,   2749,   2118,   3133,   2961,   4416,   5819,   5157,   4877
  1491,   2692,   2255,   2284,   2691,   5820,   3765,   5781,   5257
  1492,   2075,   2074,   3148,   2076,   5630,   5821,   5822,   5823
  1493,   2454,   2911,   2892,   2455,   5513,   5770,   5371,   4015
  1494,   3181,   1774,   1767,   2912,   5824,   3452,   5825,   5515
  1495,   2970,   2792,   3147,   2971,   5826,   5211,   5827,   4885
  1496,   3236,   3235,    134,   2590,   5828,   5377,   4447,   5829
  1497,   1785,   2382,   1750,   3264,   4920,   5065,   5568,   5830
  1498,   3293,   2338,   2673,   2030,   5831,   5832,   5833,   5834
  1499,   1753,   1754,   2896,   1752,   4163,   4993,   5835,   5836
  1500,   2665,   2664,   1752,   2896,   4619,   4746,   5835,   4793
  1501,   3000,   1911,   1910,   2456,   5651,   5390,   4025,   5837
  1502,   2874,    131,    132,   2875,   5282,    170,   5380,   4748
  1503,   2556,   2695,   2697,   2558,   5838,   5839,   5840,   4188
  1504,   1812,   3313,   2439,   1811,   4091,   5841,   3980,   5842
  1505,   2123,   2226,   2227,   3124,   3715,   3714,   5843,   5192
  1506,   3191,   1956,   1957,   2687,   5844,   3540,   4348,   5321
  1507,   3158,   2465,   2461,   3160,   5845,   4032,   5846,   5847
  1508,   3158,   1867,   1934,   2465,   5848,   3513,   4029,   5845
  1509,   3261,   2795,   2309,   2308,   5552,   5849,   5850,   5851
  1510,   1987,   2534,   2060,   2063,   5852,   5853,   3601,   5341
  1511,   3017,   2534,   2530,   3171,   5854,   5855,   5856,   5857
  1512,   2205,   2338,   3293,   2372,   4760,   5831,   5858,   4479
  1513,   2347,   3107,   3318,   3309,   5774,   5859,   5860,   5861
  1514,   2862,   1690,   3319,   3273,   5694,   5862,   5863,   5864
  1515,   1693,   2631,   3319,   1690,   4282,   5865,   5862,   3403
  1516,   3172,   3236,   2590,   2589,   5866,   5829,   5288,   5339
  1517,   3215,   3183,   3320,   3216,   5867,   5868,   5869,   5799
  1518,   2850,   1879,   2293,   2419,   4554,   4959,   3948,   5870
  1519,   1782,   1942,   1936,   1780,   3795,   4549,   3834,   3443
  1520,   2550,   2553,   3320,   3183,   5871,   5872,   5868,   5873
  1521,   2276,   2277,   3322,   2282,   3759,   5874,   5875,   5164
  1522,   2383,   2392,     20,     21,   3882,   5876,    446,   5877
  1523,   2263,   2264,   3322,   2265,   5878,   5879,   5880,   5881
  1524,   1791,   2535,   3227,   3033,   5447,   5434,   5882,   5883
  1525,   2255,   2692,   3323,   2571,   5820,   5884,   5885,   5367
  1526,   2328,   3033,   3018,   3296,   5886,   5887,   5888,   5701
  1527,   2177,   2782,   2611,   2809,   5889,   5227,   5890,   5891
  1528,   1752,   1751,   2288,   1753,   4745,   3775,   4339,   5836
  1529,   2073,   2266,   3324,   2028,   4914,   5892,   5893,   4309
  1530,   2029,   2013,   3324,   2266,   4102,   5894,   5892,   3944
  1531,   2277,   2275,   1951,   2620,   3762,   4629,   4812,   5895
  1532,   3270,   3269,   3232,   2846,   5896,   5897,   5455,   5898
  1533,   1797,   2331,   2056,   2330,   4233,   5899,   5900,   5901
  1534,   2566,   2568,   3237,   2593,   4191,   5902,   5903,   4235
  1535,   2550,   2551,   2562,   2553,   5904,   5905,   4180,   5871
  1536,   1991,   1990,   2109,   1992,   5906,   5907,   5364,   5908
  1537,   2753,   2895,   2897,   1770,   5309,   5772,   5760,   5909
  1538,   1799,   1797,   2330,   3034,   5043,   5901,   4979,   5432
  1539,    285,   2931,   2868,    284,   4805,   5910,   5911,    324
  1540,   2572,   2867,   2868,   2931,   5912,   4590,   5910,   5389
  1541,   2513,    283,    284,   2868,   5627,    323,   5911,   4589
  1542,   2762,   2624,   2709,   1743,   5049,   5469,   5913,   4904
  1543,   2537,    475,     17,   2536,   5206,    485,   4353,   4152
  1544,   2494,   1742,   1743,   2709,   5782,   4837,   5913,   4369
  1545,   2055,   2057,   2330,   2056,   5123,   4980,   5900,   5179
  1546,   2921,   2919,   2831,   3203,   4769,   5914,   5915,   5916
  1547,   2010,   2501,   2945,   2617,   5501,   5917,   5918,   4279
  1548,   2869,   2915,   2659,   2099,   4824,   5919,   5920,   4757
  1549,   2502,   2527,   2945,   2501,   5921,   5922,   5917,   5500
  1550,   2662,   2660,   2659,   2915,   4391,   5923,   5919,   4950
  1551,   3065,   2367,   2319,   3325,   5924,   5925,   5926,   5927
  1552,   3261,   2098,   2099,   2659,   5928,   4171,   5920,   5929
  1553,   1728,   1726,   1988,   2061,   3421,   5930,   5342,   5931
  1554,   2325,   2021,   2540,   3104,   5675,   5236,   5105,   5718
  1555,   2879,   3002,   2036,   2729,   5932,   5933,   5442,   4632
  1556,   2914,   3235,   3184,   2922,   5378,   5934,   5935,   4776
  1557,   2917,   2922,   3184,   3310,   4777,   5935,   5936,   5937
  1558,   3310,   3184,   2937,   2889,   5936,   5310,   4840,   5779
  1559,   1797,   1796,   2218,   1798,   5046,   4003,   3767,   4230
  1560,   1848,   2025,   2376,   2377,   5808,   5938,   4442,   5939
  1561,   2071,   2072,   2376,   2025,   3960,   5012,   5938,   5807
  1562,   1851,   1976,   1783,   1772,   5151,   3552,   3446,   5581
  1563,   3021,   3016,   2964,   2744,   5274,   5940,   5941,   5942
  1564,   2963,   2964,   3016,   2969,   4931,   5940,   5273,   5408
  1565,   2207,   2602,   2600,   2206,   5943,   4249,   5944,   4897
  1566,   3129,   3329,   2713,   3328,   5945,   5946,   5947,   5948
  1567,   2005,     11,    200,   3212,   5949,    448,   5452,   5397
  1568,   3289,   3288,   2087,   3290,   5950,   5951,   5952,   5953
  1569,   2088,   2089,   3290,   2087,   5954,   5955,   5952,   5956
  1570,   2626,   2627,   3330,   1950,   5957,   5958,   5959,   5960
  1571,   2444,   2876,   2126,   2129,   5722,   5961,   3634,   4964
  1572,   2249,   2250,   2126,   2876,   5662,   5962,   5961,   5719
  1573,   2117,   3239,   3133,   2118,   5667,   5963,   5819,   4415
  1574,   3069,   2546,   3244,   2009,   5086,   5964,   5965,   5590
  1575,   2007,   2009,   3244,   2008,   5591,   5965,   5473,   5966
  1576,   2169,   2890,   3152,   2197,   5967,   5689,   5968,   3686
  1577,   2974,   2973,   2721,   2717,   5969,   5970,   4393,   5971
  1578,   3327,   3089,   1806,   3326,   5972,   5973,   5974,   5975
  1579,   1738,   1734,   1769,   1767,   3426,   5285,   5976,   3451
  1580,   3228,   2332,   2333,   3229,   5438,   4342,   5977,   5978
  1581,   3177,   2988,   2206,   2600,   5291,   4900,   5944,   5979
  1582,   2040,   2124,   3331,   2125,   5980,   5981,   5982,   4380
  1583,   3226,   3283,   2652,   3225,   5983,   5984,   5985,   5564
  1584,   3280,   3279,   3277,   3278,   5986,   5987,   5604,   5988
  1585,   2034,   2873,   2081,   2078,   5989,   5990,   3618,   5991
  1586,    472,    473,   2871,   1687,    482,   5992,   4785,   5993
  1587,   3237,   2568,   2751,   3271,   5902,   5994,   5739,   5995
  1588,   3226,   2300,   2936,   3283,   5628,   5996,   5997,   5983
  1589,   2156,   2158,   2155,   2157,   4565,   5998,   4713,   4063
  1590,   2607,   2608,   2577,   2106,   5999,   5199,   6000,   4245
  1591,   2279,   2107,   2106,   2577,   3757,   5683,   6000,   5400
  1592,   3151,   3247,   3249,   3333,   6001,   5489,   6002,   6003
  1593,   2497,   2498,   3247,   3151,   6004,   5490,   6001,   5448
  1594,   3334,   3313,   1813,   3216,   6005,   4094,   5797,   6006
  1595,   2724,   2725,   3253,   2723,   6007,   5512,   5610,   5180
  1596,   2680,   1834,   1832,   3149,   5647,   3472,   6008,   6009
  1597,   2888,   2361,   3335,   2732,   6010,   6011,   6012,   5735
  1598,   2128,   1903,   1899,   2523,   6013,   3496,   5615,   5460
  1599,   2576,   2817,   1889,   2578,   4488,   6014,   6015,   4322
  1600,   1890,   1891,   2578,   1889,   6016,   6017,   6015,   6018
  1601,   2451,   2616,   3153,   2834,   6019,   6020,   5248,   4523
  1602,   2456,   3252,   3002,   3000,   5498,   6021,   5636,   5837
  1603,   1799,   2535,   1904,   2443,   5435,   5446,   6022,   5044
  1604,   3145,   3224,   2950,   2951,   6023,   6024,   4857,   6025
  1605,   2090,   2176,   2782,   2177,   6026,   6027,   5889,   6028
  1606,   2207,   2348,   2350,   2602,   5214,   3847,   4250,   5943
  1607,   3092,   2499,   3243,   3094,   5754,   6029,   5475,   6030
  1608,   1846,   1844,   3243,   2499,   5167,   5482,   6029,   5637
  1609,   2539,   2538,   2820,   3299,   4150,   6031,   6032,   5702
  1610,   2645,   3299,   2820,   2818,   5703,   6032,   6033,   6034
  1611,   2227,   2229,   2817,   2816,   3713,   6035,   4491,   6036
  1612,   2227,   2816,   2608,   3124,   6036,   4490,   6037,   5843
  1613,   3302,   2890,   2169,   3301,   5777,   5967,   6038,   5712
  1614,   1757,   2728,   3301,   2169,   4477,   6039,   6038,   3685
  1615,   2853,   3337,   2775,   3336,   6040,   6041,   6042,   6043
  1616,   3320,   3321,   3334,   3216,   6044,   6045,   6006,   5869
  1617,   3094,   2547,   2548,   3092,   6046,   5508,   6047,   6030
  1618,   3244,   2546,   2547,   3094,   5964,   5505,   6046,   5474
  1619,   2258,   2930,   3338,   2257,   4807,   6048,   6049,   5374
  1620,   3320,   2553,   2563,   3321,   5872,   4179,   6050,   6044
  1621,   3322,   2264,   1847,   2282,   5879,   6051,   5170,   5875
  1622,    285,    286,   3338,   2930,    325,   6052,   6048,   4806
  1623,   2263,   2262,   1847,   2264,   6053,   6054,   6051,   5878
  1624,   2612,   2613,   2720,   2719,   6055,   6056,   4386,   6057
  1625,   2480,   2528,   3340,   2529,   4362,   6058,   6059,   4320
  1626,   1728,   2061,   2062,   2220,   5931,   3599,   5229,   3708
  1627,   2529,   3340,   2854,   2855,   6059,   6060,   6061,   5608
  1628,   3322,   2277,   2620,   2265,   5874,   5895,   4781,   5880
  1629,   3228,   3229,   3269,   3270,   5978,   6062,   5896,   5738
  1630,   3310,   3302,   1892,   2917,   5778,   5711,   5405,   5937
  1631,   1727,   2924,   2573,   1726,   5464,   6063,   6064,   3424
  1632,   3236,   3172,   3184,   3235,   5866,   5311,   5934,   5828
  1633,   2090,   2178,   2557,   2176,   5655,   4186,   6065,   6026
  1634,   2572,   2573,   2924,   2867,   6066,   6063,   4791,   5912
  1635,   1925,   1924,   2737,   1923,   6067,   5576,   6068,   6069
  1636,   1925,   1926,   2736,   1924,   5072,   5018,   4427,   6067
  1637,   2775,   2774,   3281,   2773,   6070,   6071,   6072,   6073
  1638,   2782,   2176,   2557,   2779,   6027,   6065,   6074,   5228
  1639,   1790,   2260,    138,    139,   3849,   5499,    177,   3477
  1640,   1991,   1963,   1964,   1990,   6075,   3556,   6076,   5906
  1641,   2163,   2164,   2935,   3341,   3662,   4923,   6077,   6078
  1642,   2055,   3125,   3116,   2813,   5178,   6079,   5141,   5175
  1643,   2057,   3019,   3296,   3018,   5122,   6080,   5888,   4981
  1644,   2286,    403,    402,   2217,   5204,    434,   6081,   3769
  1645,   2056,   2331,   2039,   2202,   5899,   4232,   4379,   5176
  1646,   2358,   2165,   1735,   2359,   5025,   4212,   4718,   3853
  1647,   2256,   2739,   2434,   2435,   5376,   4569,   3993,   4047
  1648,   2630,   2267,   2268,   2629,   5453,   3746,   6082,   5510
  1649,   2126,   2250,   1903,   2128,   5962,   6083,   6013,   3635
  1650,   2694,   2693,   1981,   3162,   5096,   6084,   6085,   5332
  1651,   2849,   2905,   3335,   2908,   4729,   6086,   6087,   6088
  1652,   2361,   2699,   2908,   3335,   4356,   6089,   6087,   6011
  1653,   2760,   3119,   1848,   2377,   5413,   5740,   5939,   4439
  1654,   2247,   1982,   1981,   2693,   4976,   3558,   6084,   5546
  1655,   2002,   3003,   2197,   3152,   6090,   4921,   5968,   5688
  1656,   2109,   3114,   1746,   1828,   6091,   5299,   3433,   5361
  1657,   2091,   2092,   3343,   2093,   5654,   6092,   6093,   6094
  1658,    395,    394,   2172,   2147,    426,   5456,   4609,   4209
  1659,   1769,   1768,   2912,   1767,   5762,   5773,   5825,   5976
  1660,   2252,   2253,   2326,   2710,   3737,   3824,   6095,   6096
  1661,   2091,   2093,   2326,   2324,   6094,   6097,   3823,   3822
  1662,   2605,   3296,   3019,   2606,   5699,   6080,   5125,   4924
  1663,    141,    142,   2443,   1904,    180,   6098,   6022,   3921
  1664,   1796,   2443,    142,    143,   5045,   6098,    181,   4004
  1665,   2946,   2758,   2934,   3179,   6099,   6100,   5678,   6101
  1666,   2495,   3148,   2074,   3146,   6102,   5821,   6103,   5392
  1667,   3233,   2822,   3294,   3234,   5523,   6104,   5668,   6105
  1668,   2428,   2823,   3294,   2822,   4511,   6106,   6104,   6107
  1669,   1832,   3151,   3333,   3150,   5812,   6003,   6108,   6109
  1670,   1758,   2420,   3301,   2728,   5793,   6110,   6039,   4476
  1671,   1832,   3150,   2819,   3149,   6109,   6111,   6112,   6008
  1672,   3273,   2719,   2718,   2862,   6113,   4385,   6114,   5864
  1673,   2221,   2234,   2374,   2375,   6115,   6116,   6117,   4398
  1674,   2508,   2374,   2234,   2232,   4690,   6116,   3718,   5504
  1675,   3007,   2989,   1785,   3264,   4936,   4906,   5830,   6118
  1676,   2947,   2894,   1965,   1740,   5775,   5763,   3567,   4982
  1677,   2575,   2669,   3142,   2418,   4324,   5191,   6119,   5399
  1678,   2191,   2860,   2190,   2188,   5203,   5769,   3680,   4563
  1679,   2155,   2158,   2188,   1800,   5998,   4564,   3679,   5477
  1680,   1949,   1952,   2663,   1948,   6120,   6121,   5692,   6122
  1681,   2991,   2545,   2541,   2990,   6123,   4154,   6124,   5570
  1682,   2542,   2543,   2990,   2541,   5233,   5574,   6124,   5238
  1683,   1894,   3301,   2420,   2022,   5713,   6110,   5707,   5792
  1684,   1991,   1992,   3115,   1994,   5908,   5550,   6125,   6126
  1685,   2720,   2613,   3345,   2794,   6056,   6127,   6128,   5554
  1686,   2446,   2223,   2311,   3079,   4731,   3798,   5059,   5463
  1687,   2747,   2459,   2555,   2748,   5804,   6129,   5360,   4419
  1688,   2612,   2611,   3345,   2613,   6130,   6131,   6127,   6055
  1689,   3250,   2847,   2037,   2035,   6132,   5457,   3588,   5519
  1690,   2729,   2353,   1880,   1881,   5441,   6133,   4556,   4630
  1691,   2518,   2794,   3345,   2878,   6134,   6128,   6135,   4605
  1692,   2082,   2083,   3346,   2085,   6136,   6137,   6138,   6139
  1693,   2082,   2084,   3175,   2083,   6140,   5534,   6141,   6136
  1694,   2837,   2982,   2983,   3022,   6142,   4893,   4958,   5520
  1695,   3347,   2735,   2734,   3274,   6143,   4406,   5602,   6144
  1696,   2837,    398,    397,   2982,   6145,    429,   4894,   6142
  1697,   2523,   3253,   2629,   2986,   5614,   5511,   6146,   5461
  1698,   2127,   2986,   2629,   2268,   5462,   6146,   6082,   4896
  1699,   2701,   2703,   3135,   2702,   4506,   5172,   6147,   6148
  1700,   2291,   2650,   2649,   2290,   5231,   6149,   6150,   5586
  1701,   2648,   1923,   2737,   2649,   6151,   6068,   6152,   6153
  1702,   1801,   2290,   2649,   2737,   5587,   6150,   6152,   5577
  1703,   2131,   1825,   1826,   2759,   5347,   3482,   4437,   6154
  1704,   2903,   1719,    387,    388,   4987,   4639,    419,   6155
  1705,   3292,   2383,     21,      2,   5671,   5877,    447,   5790
  1706,   2429,   2430,   2438,   2439,   6156,   5525,   3981,   6157
  1707,   2130,   2131,   2759,   2141,   3636,   6154,   4441,   6158
  1708,   2298,   3168,   2115,   2926,   5746,   6159,   5057,   5251
  1709,   2593,   3250,   3251,   2592,   6160,   5518,   6161,   4236
  1710,   3233,   3234,   2115,   3168,   6105,   5466,   6159,   5745
  1711,   2355,   2354,   2957,   2356,   6162,   6163,   6164,   6165
  1712,   2337,   2736,   2677,   2336,   4428,   5017,   4331,   6166
  1713,   1889,   2817,   2229,   2139,   6014,   6035,   6167,   4316
  1714,   2228,   2140,   2139,   2229,   6168,   3641,   6167,   3712
  1715,   2233,   2231,   2222,   2243,   3720,   6169,   4766,   3728
  1716,   2850,   2419,   2835,   3166,   5870,   6170,   6171,   5272
  1717,   2081,   2873,   3267,   2984,   5990,   6172,   5618,   5194
  1718,   2542,   2017,   2015,   2111,   6173,   5107,   6174,   5234
  1719,   2016,   2017,   2542,   2021,   5106,   6173,   5237,   5674
  1720,   3294,   2823,   3258,   3239,   6106,   5538,   6175,   5669
  1721,   1978,    470,    471,   1977,   5816,    479,   3803,   4195
  1722,   2182,   2317,   3349,   2318,   6176,   6177,   6178,   6179
  1723,   2674,   2675,   2360,   1960,   4611,   4500,   3864,   6180
  1724,   1850,   2882,   2880,   2143,   6181,   5163,   6182,   5152
  1725,   2143,   2880,   2824,   2142,   6182,   5174,   5047,   5715
  1726,   2034,   2586,   3267,   2873,   5664,   6183,   6172,   5989
  1727,   1981,   1838,   1839,   3162,   3557,   5814,   6184,   6085
  1728,   2237,   2346,   3164,   2865,   4625,   6185,   5268,   5666
  1729,   2347,   3309,   3164,   2346,   5861,   6186,   6185,   3839
  1730,   3256,    390,    391,   1916,   6187,    422,   5723,   5529
  1731,   2247,   2545,   2991,   2248,   5545,   6123,   6188,   4977
  1732,   3232,   3269,   3339,   1714,   5897,   6189,   6190,   5731
  1733,   2201,   2552,   2614,   2193,   4966,   4256,   4262,   4177
  1734,   2893,   2592,   3251,   2457,   5277,   6161,   5496,   5680
  1735,   1980,   2121,   2119,   1840,   3629,   3628,   6191,   5645
  1736,   2351,   3153,   2119,   2122,   5249,   6192,   3627,   3845
  1737,   2555,   2459,   2460,   2379,   6129,   5803,   4258,   4223
  1738,   2616,   1840,   2119,   3153,   6193,   6191,   6192,   6020
  1739,   1933,   2614,   2460,   1934,   4260,   4259,   4030,   3512
  1740,   2222,   2231,   2234,   2221,   6169,   3719,   6115,   4733
  1741,   2863,   2862,   2718,   2661,   5695,   6114,   4390,   5032
  1742,   2662,    262,    263,   2661,   4949,    302,   5030,   4389
  1743,     33,   2138,   2047,      8,   6194,   3643,   4658,    461
  1744,   2013,   2372,   3293,   3324,   4480,   5858,   6195,   5894
  1745,   1770,   2170,   2772,   2753,   5752,   5313,   6196,   5909
  1746,   2580,   2584,   2663,   1952,   4377,   6197,   6121,   4199
  1747,   2574,   2663,   2584,   2570,   4372,   6197,   4376,   4197
  1748,   1791,   3033,   2328,   2044,   5883,   5886,   3830,   3593
  1749,   3002,   3252,   2035,   2036,   6021,   5517,   3591,   5933
  1750,   3120,   2760,   1826,   1854,   5414,   4438,   3481,   5409
  1751,   3269,   3229,   2333,   3339,   6062,   5977,   6198,   6189
  1752,   3092,   2548,   1882,   2886,   6047,   6199,   4647,   5755
  1753,    381,    382,   3339,   2333,    413,   6200,   6198,   6201
  1754,   2466,   1882,   2548,   2506,   4311,   6199,   5561,   4174
  1755,   2308,   2263,   2265,   2307,   6202,   5881,   6203,   6204
  1756,   2696,   2695,   3097,   2694,   6205,   6206,   5097,   5331
  1757,   2308,   2309,   2262,   2263,   5850,   6207,   6053,   6202
  1758,   2556,   3104,   3097,   2695,   5717,   5104,   6206,   5838
  1759,   2409,   2410,   2471,   2412,   6208,   6209,   5088,   6210
  1760,   2409,   2411,   1966,   2410,   6211,   4360,   6212,   6208
  1761,   3032,   2342,   2596,   3047,   5558,   5241,   6213,   6214
  1762,   1739,   1999,   3047,   2596,   5336,   6215,   6213,   6216
  1763,   1973,   2471,   2410,   1966,   4044,   6209,   6212,   3548
  1764,   2071,   2012,   3081,   2427,   5806,   6217,   6218,   3961
  1765,    384,    385,   2292,   2711,    416,   4961,   4510,   6219
  1766,   2248,   2991,   2140,   2228,   6188,   6220,   6168,   4974
  1767,   2047,   2140,   2991,   2049,   3642,   6220,   5572,   4653
  1768,   2096,   2094,   2517,   2582,   4118,   4128,   4717,   4709
  1769,   3035,   3167,   3297,   3126,   6221,   6222,   6223,   6224
  1770,   3033,   3227,   3034,   3018,   5882,   5433,   4978,   5887
  1771,   3121,   3211,   3351,   3210,   6225,   6226,   6227,   6228
  1772,   1956,   3191,   3351,   3211,   5844,   6229,   6226,   6230
  1773,    398,   2837,   3331,    399,   6145,   6231,   6232,    430
  1774,   2715,   2741,   2742,   2806,   6233,   6234,   4504,   6235
  1775,   2112,   2111,   2015,   2110,   5573,   6174,   3735,   5003
  1776,   2715,   2802,   2745,   2741,   6236,   5709,   6237,   6233
  1777,   2125,   3331,   2837,   3200,   5982,   6231,   5522,   5365
  1778,   3264,   3263,    474,   3007,   5567,   6238,   5343,   6118
  1779,   2871,    473,    474,   3263,   5992,    483,   6238,   5569
  1780,   1836,   1828,   1745,   1919,   5362,   3436,   5334,   4469
  1781,    401,   2041,   2217,    402,   3596,   5527,   6081,    433
  1782,   2707,   2708,   2089,   2706,   6239,   6240,   6241,   4367
  1783,   2653,   3285,   3248,   3286,   4889,   6242,   6243,   6244
  1784,   3250,   2593,   3237,   2847,   6160,   5903,   5458,   6132
  1785,   2904,   2110,   2252,   2018,   5004,   3738,   6245,   5009
  1786,   2329,   2373,   1994,   3115,   5128,   5563,   6125,   5136
  1787,   3202,   3292,   1756,   2163,   5672,   5789,   3663,   6246
  1788,   2092,   2090,   2177,   2632,   5656,   6028,   5795,   6247
  1789,   2710,   2315,   2018,   2252,   4830,   3806,   6245,   6096
  1790,   1926,   2992,   1849,   1706,   5075,   6248,   4450,   5019
  1791,   2076,   3284,   3084,   2075,   6249,   6250,   5076,   5823
  1792,   2108,   2601,   3177,   2600,   5685,   6251,   5979,   4251
  1793,   3015,   3084,   3284,   3013,   5077,   6250,   6252,   6253
  1794,   1808,   1817,   2278,   1807,   6254,   3755,   6255,   6256
  1795,   2069,   2761,   1897,   1898,   6257,   6258,   3498,   5266
  1796,   2431,   2167,   3343,   2505,   4526,   6259,   6260,   4571
  1797,   2092,   2632,   2505,   3343,   6247,   5436,   6260,   6092
  1798,   2168,   2093,   3343,   2167,   6261,   6093,   6259,   5547
  1799,   3202,   2163,   3341,   2294,   6246,   6078,   6262,   6263
  1800,   2098,   2307,   2821,   2097,   6264,   6265,   4498,   4168
  1801,   2619,   2821,   2307,   2265,   4497,   6265,   6203,   4780
  1802,   2294,   3341,   2935,   2933,   6262,   6077,   4820,   6266
  1803,   2795,   2796,   3275,   2309,   6267,   6268,   6269,   5849
  1804,   2719,   3273,   3319,   2612,   6113,   5863,   6270,   6057
  1805,   2973,   2974,   2981,   2975,   5969,   6271,   5114,   5028
  1806,   2120,   3124,   2608,   2607,   5193,   6037,   5999,   5149
  1807,   2177,   2809,   3319,   2631,   5891,   6272,   5865,   5796
  1808,   2611,   2612,   3319,   2809,   6130,   6270,   6272,   5890
  1809,   3313,   3334,   2429,   2439,   6005,   6273,   6157,   5841
  1810,   2135,   3282,   3219,   2134,   5623,   6274,   5417,   6275
  1811,   3334,   1921,   2428,   2429,   6276,   4512,   6277,   6273
  1812,   2450,   2646,   2597,   3161,   4303,   5686,   6278,   6279
  1813,   1847,   2262,   3352,   3199,   6054,   6280,   6281,   6282
  1814,   2262,   2309,   3275,   3352,   6207,   6269,   6283,   6280
  1815,   2963,   2058,   3353,   2965,   5658,   6284,   6285,   4928
  1816,   2829,   2484,   2482,   2511,   4517,   4132,   6286,   6287
  1817,   2429,   2428,   2822,   2430,   6277,   6107,   5526,   6156
  1818,   2104,   1900,   1901,   2105,   5042,   4706,   6288,   4485
  1819,   3090,   3089,   3327,   3091,   6289,   5972,   6290,   6291
  1820,   2682,   3291,   2403,   2681,   5642,   6292,   6293,   5649
  1821,   2495,   2493,   3354,   3148,   4087,   6294,   6295,   6102
  1822,   2818,   3348,   3354,   2645,   6296,   6297,   6298,   6034
  1823,   2625,   2645,   3354,   2493,   5704,   6298,   6294,   4371
  1824,   3201,   2674,   1960,   1961,   6299,   6180,   5676,   6300
  1825,   2076,   3148,   3354,   3348,   5822,   6295,   6297,   6301
  1826,   2659,   2660,   2720,   3261,   5923,   4387,   5553,   5929
  1827,   2307,   2098,   3261,   2308,   6264,   5928,   5851,   6204
  1828,   2522,   1899,   2787,   2524,   5613,   6302,   6303,   6304
  1829,   3101,   3091,   3327,   3100,   6305,   6290,   6306,   6307
  1830,   1898,   1903,   2250,   2070,   3497,   6083,   5661,   5263
  1831,   3041,   3098,   2788,   2786,   5094,   6308,   4462,   6309
  1832,   2326,   2093,   2168,   2710,   6097,   6261,   4831,   6095
  1833,   2956,   2084,   2082,   1953,   6310,   6140,   6311,   4874
  1834,   2909,   2913,   2082,   2085,   6312,   6313,   6139,   4829
  1835,    378,   2674,   3201,    379,   4610,   6299,   6314,    410
  1836,   3340,   2528,   3356,   2854,   6058,   6315,   6316,   6060
  1837,   3289,   2854,   3356,   3288,   6317,   6316,   6318,   5950
  1838,   2678,   2481,   2477,   2679,   6319,   4072,   6320,   6321
  1839,   2755,   2758,   2946,   2756,   6322,   6099,   4868,   4434
  1840,   2976,   1958,   3209,   2977,   6323,   6324,   5385,   6325
  1841,   2403,   2408,   3355,   2681,   3914,   6326,   6327,   6293
  1842,   2586,   2585,   3357,   3230,   5663,   6328,   6329,   6330
  1843,   3245,   3199,   3352,   3272,   5480,   6281,   6331,   5600
  1844,   3274,   3272,   3352,   3275,   5601,   6331,   6283,   6332
  1845,   3134,   3255,   2967,   2968,   6333,   6334,   4881,   6335
  1846,   2440,   3353,   2058,   2064,   6336,   6284,   3606,   4158
  1847,   3145,   3031,   3030,   3224,   5599,   6337,   5430,   6023
  1848,   2840,   2753,   2772,   2843,   5307,   6196,   5401,   4535
  1849,   1928,     18,    472,   1927,   6338,    481,   6339,   6340
  1850,   1915,   1918,   3358,   2731,   5544,   6341,   6342,   4414
  1851,   3207,   1806,   1804,   3109,   6343,   6344,   6345,   6346
  1852,   2637,   2639,   3358,   2287,   6347,   6348,   6349,   5596
  1853,   2288,   2287,   3358,   1918,   3774,   6349,   6341,   4340
  1854,   1805,   3111,   3109,   1804,   6350,   5121,   6345,   5427
  1855,   2412,   2086,   3356,   2409,   6351,   6352,   6353,   6210
  1856,   2087,   3288,   3356,   2086,   5951,   6318,   6352,   6354
  1857,   1686,   1927,    472,   1687,   6355,   6339,   5993,   5750
  1858,   3081,   1925,   1923,   3082,   5073,   6069,   6356,   6357
  1859,   2109,   1990,   1964,   3114,   5907,   6076,   5744,   6091
  1860,   2648,   3006,   3082,   1923,   6358,   6359,   6356,   6151
  1861,   3207,   3109,   3112,   3208,   6346,   5120,   6360,   6361
  1862,   2842,   2767,   2769,   2968,   4531,   6362,   6363,   4880
  1863,   2578,   1891,   3143,   2669,   6017,   6364,   5188,   4323
  1864,   3062,   3063,   2948,   2789,   5024,   6365,   4855,   6366
  1865,   1712,   1880,   2353,   2352,   4546,   6133,   5445,   5730
  1866,   2802,   2778,   3063,   2815,   6367,   6368,   5023,   5710
  1867,   1790,   2044,   2329,   2043,   3594,   3833,   5138,   3850
  1868,   2741,   2745,   3198,   2740,   6237,   5354,   6369,   6370
  1869,   2095,   2113,   3198,   2603,   4661,   6371,   5357,   4242
  1870,   2730,   3146,   3362,   2583,   5393,   6372,   6373,   5394
  1871,   1912,   3259,   3363,   3260,   6374,   6375,   6376,   6377
  1872,   1890,   3095,   3143,   1891,   5582,   6378,   6364,   6016
  1873,   2077,   3362,   3146,   2074,   6379,   6372,   6103,   5632
  1874,   1912,   2510,   2757,   3259,   6380,   6381,   6382,   6374
  1875,     22,     20,   3364,   3106,    445,   6383,   6384,   5111
  1876,   3333,   3249,   2481,   2678,   6002,   6385,   6319,   6386
  1877,   1983,   1984,   2938,   1986,   6387,   4842,   6388,   6389
  1878,   1805,   2944,   1984,   1985,   6390,   4843,   6391,   6392
  1879,   3158,   3157,   2841,   3159,   6393,   6394,   6395,   6396
  1880,   2374,   1908,   1877,   2375,   4689,   3504,   6397,   6117
  1881,   2427,   3081,   3082,   2440,   6218,   6357,   6398,   4157
  1882,   3215,   1835,   3355,   3183,   5801,   6399,   6400,   5867
  1883,   2408,   2550,   3183,   3355,   6401,   5873,   6400,   6326
  1884,   1834,   2681,   3355,   1835,   5650,   6327,   6399,   3473
  1885,   2995,   2994,   3012,   2993,   6402,   5741,   4943,   6403
  1886,   2995,   2805,   2803,   2994,   6404,   6405,   6406,   6402
  1887,   3134,   3133,   3239,   3255,   5158,   5963,   6407,   6333
  1888,   2967,   3255,   3239,   3258,   6334,   6407,   6175,   6408
  1889,   2489,   2486,   3304,   2490,   4076,   6409,   5728,   6410
  1890,   2479,   2478,   1877,   1878,   5486,   6411,   3503,   5485
  1891,   3005,   3014,   2449,   3161,   4946,   5472,   6412,   6413
  1892,   2045,   1816,   1814,   2046,   6414,   3518,   5245,   4381
  1893,   3356,   2528,   2411,   2409,   6315,   4364,   6211,   6353
  1894,   3106,   3364,   1971,   2623,   6384,   6415,   4277,   5112
  1895,   2954,   2949,   2952,   2953,   6416,   4859,   6417,   6418
  1896,   1972,   1971,   3364,   1970,   6419,   6415,   6420,   6421
  1897,   3098,   3099,   2825,   2788,   6422,   6423,   6424,   6308
  1898,   2059,   3186,   2754,   2179,   5657,   5317,   4424,   4985
  1899,   3287,   3100,   3102,   3206,   6425,   5103,   6426,   6427
  1900,   3205,   3102,   3059,   3204,   6428,   5102,   6429,   6430
  1901,   2795,   2794,   2518,   2796,   5551,   6134,   6431,   6267
  1902,   2082,   2913,   1955,   1953,   6313,   6432,   3536,   6311
  1903,   2654,   2448,   2481,   3285,   5531,   4073,   6433,   4888
  1904,   3017,   3021,   2060,   2534,   5275,   6434,   5853,   5854
  1905,   2062,   2060,   3021,   2744,   3602,   6434,   5942,   6435
  1906,   3125,   3200,   3020,   3116,   5366,   5521,   5216,   6079
  1907,   2030,   2673,      5,     29,   5833,   6436,    467,   4772
  1908,   2337,   2336,   2673,   2338,   6166,   4330,   5832,   4761
  1909,   2087,   2086,   3193,   2088,   6354,   6437,   6438,   5956
  1910,   2706,   2089,   2088,   2733,   6241,   5954,   6439,   6440
  1911,   2007,   2733,   2088,   3193,   4408,   6439,   6438,   5588
  1912,   2595,   3005,   3161,   2597,   4940,   6413,   6278,   6441
  1913,   2845,   2844,   3108,   3074,   4539,   6442,   6443,   5492
  1914,   2454,   1815,   3344,   3181,   4017,   6444,   6445,   5514
  1915,   2951,   2354,   3147,   3145,   6446,   6447,   5210,   6025
  1916,   3218,   3049,   3050,   2765,   5758,   4989,   6448,   6449
  1917,   2595,   2597,   1739,   2596,   6441,   5687,   6216,   5240
  1918,   2448,   2450,   3161,   2449,   5530,   6279,   6412,   4074
  1919,   3058,   3067,   3204,   3059,   5037,   6450,   6429,   5006
  1920,   2510,   2713,   3329,   2757,   6451,   5946,   6452,   6381
  1921,   2779,   2781,   3312,   2780,   6453,   6454,   5809,   5225
  1922,   3344,   1815,   1816,   3325,   6444,   3515,   6455,   6456
  1923,   2733,   2735,   2705,   2706,   4407,   6457,   4368,   6440
  1924,   2679,   2852,   3369,   2678,   6458,   6459,   6460,   6321
  1925,   3126,   3127,   3329,   3129,   6461,   6462,   5945,   6463
  1926,   3333,   2678,   3369,   3150,   6386,   6460,   6464,   6108
  1927,   3027,   3028,   2999,   2998,   6465,   6466,   6467,   5070
  1928,   3165,   2830,   2831,   2919,   6468,   4518,   5914,   6469
  1929,   3042,   3038,   2942,   3011,   6470,   6471,   6472,   5743
  1930,   2997,   2996,   3029,   2998,   6473,   5015,   5067,   6474
  1931,   2994,   2803,   3188,   3042,   6406,   6475,   6476,   5742
  1932,   2750,   3160,   2461,   2747,   6477,   5846,   5805,   4422
  1933,    381,    380,   3370,   1883,    412,   6478,   6479,   5284
  1934,   1961,   3093,   3370,   3201,   5639,   6480,   6481,   6300
  1935,   2886,   1883,   3370,   3093,   4646,   6479,   6480,   5756
  1936,    379,   3201,   3370,    380,   6314,   6481,   6478,    411
  1937,   3013,   3009,   3139,   3015,   4947,   6482,   5243,   6253
  1938,   2801,   2800,   3075,   2799,   6483,   5052,   6484,   6485
  1939,   3105,   3139,   3009,   3010,   5817,   6482,   4938,   5130
  1940,   3143,   3095,   3196,   3144,   6378,   6486,   6487,   5189
  1941,   2801,   2724,   2722,   2800,   6488,   5183,   5053,   6483
  1942,   2530,   2531,   2899,   3171,   6489,   5557,   6490,   5856
  1943,   3306,   3307,   3175,   3257,   5764,   6491,   5533,   6492
  1944,   3096,   1827,   3196,   3095,   6493,   5350,   6486,   5585
  1945,   3314,   2699,   2700,   2833,   6494,   4359,   6495,   6496
  1946,   3055,   3122,   2857,   2858,   6497,   6498,   6499,   6500
  1947,   2856,   2857,   3371,   2859,   6501,   6502,   6503,   6504
  1948,   3082,   3006,   3353,   2440,   6359,   6505,   6336,   6398
  1949,   1840,   2616,   3372,   1837,   6193,   6506,   6507,   5646
  1950,   3085,   3086,   3028,   3027,   6508,   6509,   6465,   5221
  1951,   2451,   3303,   3372,   2616,   6510,   6511,   6506,   6019
  1952,   3004,   2965,   3353,   3006,   4929,   6285,   6505,   6512
  1953,   2130,   2141,   2376,   2985,   6158,   4440,   5011,   6513
  1954,   3064,   2776,   2716,   2721,   6514,   4457,   4394,   6515
  1955,   2367,   2370,   2928,   2366,   6516,   4814,   6517,   6518
  1956,   3096,   3266,     33,     32,   5584,   6519,    460,   6520
  1957,   1889,   1888,   3266,   1890,   4315,   6521,   5583,   6018
  1958,   2138,     33,   3266,   1888,   6194,   6519,   6521,   4314
  1959,   2962,   3134,   2968,   2769,   5159,   6335,   6363,   6522
  1960,   2938,   2948,   2777,   1986,   4856,   6523,   6524,   6388
  1961,   3063,   2778,   2777,   2948,   6368,   4455,   6523,   6365
  1962,   2971,   3147,   2354,   2355,   5827,   6447,   6162,   6525
  1963,   1816,   2045,   3065,   3325,   6414,   5033,   5927,   6455
  1964,   1983,   1986,   2777,   2776,   6389,   6524,   4454,   6526
  1965,   2557,   2558,   3374,   2779,   4185,   6527,   6528,   6074
  1966,   3241,   3026,   3025,   3087,   6529,   4952,   5080,   6530
  1967,   3076,   3077,   3204,   3046,   6531,   6532,   6533,   6534
  1968,   3038,   3039,   2941,   2942,   6535,   6536,   4851,   6471
  1969,   2949,   2954,   3375,   2957,   6416,   6537,   6538,   6539
  1970,   1775,   2181,   2187,   2644,   4290,   3675,   6540,   5382
  1971,   3375,   2954,   2953,   3203,   6537,   6418,   6541,   6542
  1972,   2032,   2034,   2078,   2033,   4404,   5991,   4164,   3604
  1973,   2532,   2533,   3262,   2531,   5259,   6543,   5555,   6544
  1974,   2652,   3283,   2936,   2755,   5984,   5997,   6545,   4433
  1975,   2946,   3179,   2003,   2891,   6101,   6546,   4687,   5776
  1976,   2703,   2742,   2509,   2824,   4505,   6547,   5048,   5173
  1977,   2913,   2909,   2666,   2671,   6312,   5060,   6548,   6549
  1978,   3112,   3110,   3377,   2980,   5119,   6550,   6551,   6552
  1979,   2538,   2698,   3154,   2820,   4355,   6553,   6554,   6031
  1980,   2978,   2980,   3377,   2979,   6555,   6551,   6556,   5026
  1981,   3111,   3367,   3377,   3110,   6557,   6558,   6550,   5118
  1982,   3312,   2781,   2959,   2549,   6454,   6559,   4869,   5810
  1983,   2135,   2134,   3076,   2133,   6275,   6560,   6561,   6562
  1984,   1807,   2657,   2655,   2483,   6563,   6564,   6565,   4134
  1985,   2510,   2482,   2483,   2713,   6566,   4135,   6567,   6451
  1986,   2468,   1954,   1955,   2476,   6568,   3533,   6569,   6570
  1987,   2468,   1922,   1920,   1954,   5536,   6571,   3534,   6568
  1988,   3072,   3373,   3350,   3070,   6572,   6573,   6574,   6575
  1989,   3149,   2819,   2820,   3154,   6112,   6576,   6554,   6577
  1990,   2755,   2936,   2934,   2758,   6545,   4818,   6100,   6322
  1991,   2639,   2972,   2731,   3358,   4883,   5733,   6342,   6348
  1992,   2943,   2941,   2763,   3332,   4848,   6578,   6579,   6580
  1993,   2943,   3332,   3309,   3318,   6580,   6581,   5860,   6582
  1994,   2077,   3083,   3140,   1683,   5631,   6583,   5802,   6584
  1995,   3164,   3309,   3332,   2763,   6186,   6581,   6579,   5269
  1996,   2784,   3241,   3359,   2768,   6585,   6586,   6587,   6588
  1997,   1837,   3372,   2490,   2599,   6507,   6589,   5727,   4762
  1998,   2725,   2724,   2801,   2885,   6007,   6488,   6590,   6591
  1999,   2799,   2881,   2885,   2801,   6592,   4636,   6590,   6485
  2000,   3087,   3240,   3359,   3241,   6593,   6594,   6586,   6530
  2001,   2124,   2040,    401,    400,   5980,   3597,    432,   6595
  2002,   1714,   3339,    382,   1711,   6190,   6200,   5681,   3411
  2003,   2998,   2999,   3087,   2997,   6467,   6596,   5083,   6474
  2004,   3241,   2784,   2668,   3026,   6585,   4460,   5064,   6529
  2005,   1844,   1847,   3199,   3246,   5171,   6282,   5479,   5483
  2006,   2333,   2334,    380,    381,   4345,   5768,    412,   6201
  2007,   2969,   3017,   3171,   3378,   5276,   5857,   6597,   6598
  2008,   2489,   2490,   3372,   3303,   6410,   6589,   6511,   5724
  2009,   3248,   3285,   2481,   3249,   6242,   6433,   6385,   5488
  2010,   2000,   2583,   3362,   1684,   4217,   6373,   6599,   4111
  2011,   3066,   2370,   2367,   3065,   5422,   6516,   5924,   5035
  2012,   2366,   2365,   2319,   2367,   6600,   6601,   5925,   6518
  2013,   2767,   2783,   2784,   2768,   4533,   4458,   6588,   6602
  2014,   3122,   3057,   3059,   3103,   6603,   5007,   5101,   6604
  2015,   3126,   3128,   3361,   3127,   6605,   6606,   6607,   6461
  2016,   2695,   2696,   3376,   2697,   6205,   6608,   6609,   5839
  2017,   1683,   1684,   3362,   2077,   3397,   6599,   6379,   6584
  2018,   3329,   3127,   3361,   2757,   6462,   6607,   6610,   6452
  2019,   1912,   3260,   3023,   1914,   6377,   6611,   6612,   3507
  2020,   3062,   2789,   2792,   2970,   6366,   4467,   5826,   6613
  2021,   3024,   2940,   1914,   3023,   5061,   4963,   6612,   4954
  2022,   3304,   2486,   2488,   3365,   6409,   5787,   6614,   6615
  2023,   3304,   3365,   2775,   2773,   6615,   6616,   6073,   6617
  2024,   2949,   2957,   2354,   2951,   6539,   6163,   6446,   4860
  2025,   3282,   3230,   3357,   3219,   5622,   6329,   6618,   6274
  2026,   1999,   1963,   1991,   3047,   3565,   6075,   6619,   6215
  2027,   3219,   3357,   2644,   2187,   6618,   6620,   6540,   6621
  2028,   2711,   1713,    383,    384,   4545,   5682,    415,   6219
  2029,   3039,   3238,   2763,   2941,   6622,   6623,   6578,   6536
  2030,   3039,   3041,   2761,   3238,   5095,   6624,   6625,   6622
  2031,   3126,   3129,   3037,   3035,   6463,   6626,   4968,   6224
  2032,   2656,   2658,   3037,   2655,   5594,   4969,   6627,   6628
  2033,   2692,   2532,   3382,   1989,   5260,   6629,   6630,   6631
  2034,   2534,   1987,   3382,   2530,   5852,   6632,   6633,   5855
  2035,   2630,   2725,   2885,   3213,   5509,   6591,   6634,   5395
  2036,   2531,   2530,   3382,   2532,   6489,   6633,   6629,   6544
  2037,   1988,   1989,   3382,   1987,   6635,   6630,   6632,   5340
  2038,   2701,   2717,   2715,   2806,   6636,   4392,   6235,   4503
  2039,   1807,   1809,   3178,   1808,   4516,   6637,   6638,   6256
  2040,   2627,   3182,   3174,   3330,   6639,   5302,   6640,   5958
  2041,   2107,   1817,   1808,   2601,   3756,   6254,   6641,   5684
  2042,   3175,   3307,   3330,   3174,   6491,   6642,   6640,   6643
  2043,   3013,   3284,   3242,   3014,   6252,   6644,   5470,   4948
  2044,   2679,   2477,   3242,   2851,   6320,   5471,   6645,   6646
  2045,   2002,   2003,   3179,   3003,   4666,   6546,   5679,   6090
  2046,   2076,   2851,   3242,   3284,   6647,   6645,   6644,   6249
  2047,   2961,   2962,   2502,   2500,   5160,   6648,   5503,   4878
  2048,   2312,   2375,   1877,   2478,   4396,   6397,   6411,   5084
  2049,   3177,   2601,   1808,   3178,   6251,   6641,   6638,   5292
  2050,   2993,   2527,   2502,   3254,   4942,   5921,   6649,   6650
  2051,   3267,   2586,   3230,   3217,   6183,   6330,   5621,   5619
  2052,    471,     18,   1928,   1715,    480,   6338,   6651,   3804
  2053,   2069,   2763,   3238,   2761,   5267,   6623,   6625,   6257
  2054,   2636,   2105,   3197,   2815,   4486,   6652,   5708,   5022
  2055,   2603,   3197,   2105,   1901,   5356,   6652,   6288,   4243
  2056,   3076,   2134,   3220,   3077,   6560,   5416,   6653,   6531
  2057,   1717,   1715,   1928,   2641,   3413,   6651,   6654,   6655
  2058,   1806,   3207,   2859,   3326,   6343,   6656,   6657,   5974
  2059,   3170,   2953,   2952,   3221,   6658,   6417,   6659,   6660
  2060,   2825,   3366,   2688,   2808,   6661,   6662,   4541,   6663
  2061,   2689,   2688,   3366,   2685,   4544,   6662,   6664,   6665
  2062,   2419,   2378,   3314,   2835,   3947,   6666,   6667,   6170
  2063,   2825,   2808,   2785,   2788,   6663,   6668,   4463,   6424
  2064,   1721,   2849,   3314,   2378,   4988,   6669,   6666,   3946
  2065,   3076,   3078,   3051,   2133,   6670,   6671,   6672,   6561
  2066,   2807,   2524,   2787,   2785,   6673,   6303,   4464,   6674
  2067,   3049,   1869,   2133,   3051,   5757,   6675,   6672,   4990
  2068,   3182,   3178,   1809,   2828,   6676,   6637,   5306,   5303
  2069,   3002,   2879,   3165,   3001,   5932,   5271,   6677,   5633
  2070,   2699,   3314,   2849,   2908,   6494,   6669,   6088,   6089
  2071,   2830,   2835,   3314,   2833,   6678,   6667,   6496,   4519
  2072,   3207,   3208,   2856,   2859,   6361,   5387,   6504,   6656
  2073,   2696,   3163,   3277,   3376,   5330,   5605,   6679,   6608
  2074,   3279,   3315,   3376,   3277,   6680,   6681,   6679,   5987
  2075,   2317,   2182,   2180,   2319,   6176,   3673,   6682,   6683
  2076,   3219,   2187,   2182,   2318,   6621,   3674,   6179,   5418
  2077,   2857,   2856,   3209,   2858,   6501,   5386,   6684,   6499
  2078,   2716,   2778,   2802,   2715,   4456,   6367,   6236,   4395
  2079,   2799,   3075,   2974,   2702,   6484,   6685,   6686,   6687
  2080,   2701,   2702,   2974,   2717,   6148,   6686,   5971,   6636
  2081,   3142,   2656,   2415,   2418,   5595,   6688,   3942,   6119
  2082,   1807,   2278,   2415,   2657,   6255,   3943,   6689,   6563
  2083,   3043,   3045,   3132,   3044,   6690,   6691,   6692,   6693
  2084,   2655,   2657,   2415,   2656,   6564,   6689,   6688,   6628
  2085,   3349,   2317,   3287,   3206,   6177,   6694,   6427,   6695
  2086,   3351,   3350,   3373,   3210,   6696,   6573,   6697,   6227
  2087,   3031,   2939,   2944,   3030,   5598,   4844,   6698,   6337
  2088,   3036,   2658,   3268,   3381,   4970,   5593,   6699,   6700
  2089,   3121,   3210,   3373,   3056,   6228,   6697,   6701,   6702
  2090,   3100,   3287,   2365,   3101,   6425,   6703,   6704,   6307
  2091,   2831,   2832,   3375,   3203,   4521,   6705,   6542,   5915
  2092,   2356,   2957,   3375,   2700,   6164,   6538,   6706,   4358
  2093,   2502,   2962,   2769,   3254,   6648,   6522,   6707,   6649
  2094,   2767,   2770,   3254,   2769,   6708,   6709,   6707,   6362
  2095,   3316,   3315,   3279,   3317,   6710,   6680,   6711,   6712
  2096,   2761,   3041,   2786,   1897,   6624,   6309,   6713,   6258
  2097,   1899,   1897,   2786,   2787,   3495,   6713,   4461,   6302
  2098,   1952,   1949,   3386,   2579,   6120,   6714,   6715,   4200
  2099,   2641,   2642,   3388,   1717,   6716,   6717,   6718,   6655
  2100,   2781,   3389,   3315,   3316,   6719,   6720,   6710,   6721
  2101,   3317,   2959,   2781,   3316,   6722,   6559,   6721,   6712
  2102,   2518,   2519,   3347,   2796,   5626,   6723,   6724,   6431
  2103,   3274,   3275,   2796,   3347,   6332,   6268,   6724,   6144
  2104,   2705,   2735,   3347,   2519,   6457,   6143,   6723,   5625
  2105,   1718,   1717,   3388,   2453,   3414,   6718,   6725,   5629
  2106,   2485,   3295,   3388,   2642,   5726,   6726,   6717,   5325
  2107,   2913,   2671,   2476,   1955,   6549,   6727,   6569,   6432
  2108,   3308,   2551,   2404,   3386,   6728,   6729,   6730,   6731
  2109,   2682,   2680,   3155,   2683,   5648,   6732,   6733,   5643
  2110,   3154,   2698,   2683,   3155,   6553,   5420,   6733,   6734
  2111,   3154,   3155,   2680,   3149,   6734,   6732,   6009,   6577
  2112,   2550,   2408,   2404,   2551,   6401,   3913,   6729,   5904
  2113,   2405,   2579,   3386,   2404,   6735,   6715,   6730,   3912
  2114,   3300,   2744,   2964,   3004,   6736,   5941,   4930,   6737
  2115,   3344,   3325,   2319,   2180,   6456,   5926,   6682,   6738
  2116,   1957,   1962,   2689,   2685,   3539,   6739,   6665,   4349
  2117,   1962,   3360,   2690,   2689,   6740,   6741,   4542,   6739
  2118,   3379,   3223,   3385,   2929,   6742,   6743,   6744,   6745
  2119,   2650,   2062,   2744,   3300,   5230,   6435,   6736,   6746
  2120,   2649,   2650,   3300,   2648,   6149,   6746,   6747,   6153
  2121,   3300,   3004,   3006,   2648,   6737,   6512,   6358,   6747
  2122,   3195,   2764,   3169,   3380,   5348,   6748,   6749,   6750
  2123,   3050,   3167,   3380,   3169,   6751,   6752,   6749,   6753
  2124,   3050,   3169,   2764,   2765,   6753,   6748,   4444,   6448
  2125,   3159,   2615,   1867,   3158,   6754,   4263,   5848,   6396
  2126,   3331,   2124,    400,    399,   5981,   6595,    431,   6232
  2127,   3345,   2611,   2780,   2878,   6131,   5226,   5811,   6135
  2128,   2380,   2379,   3391,   2381,   4224,   6755,   6756,   4674
  2129,     20,   2392,   1970,   3364,   5876,   6757,   6420,   6383
  2130,   3060,   3061,   3363,   3361,   5013,   6758,   6759,   6760
  2131,   3088,   3260,   3363,   3061,   6761,   6376,   6758,   6762
  2132,   2970,   2638,   2636,   3062,   6763,   4287,   5021,   6613
  2133,   3259,   2757,   3361,   3363,   6382,   6610,   6759,   6375
  2134,   3039,   3038,   3192,   3040,   6535,   6764,   6765,   5092
  2135,   3098,   3040,   3192,   3099,   5093,   6765,   6766,   6422
  2136,   3281,   2774,   2707,   3383,   6071,   6767,   6768,   6769
  2137,   2084,   2956,   2563,   2561,   6310,   6770,   4178,   5535
  2138,   2749,   1972,   1970,   3298,   4876,   6421,   6771,   5714
  2139,   1857,   3298,   1970,   2392,   5698,   6771,   6757,   3881
  2140,   3085,   3045,   3043,   3068,   5220,   6690,   5039,   6772
  2141,   1776,   2381,   3391,   1778,   4615,   6756,   6773,   3437
  2142,   3204,   3067,   3043,   3046,   6450,   5040,   6774,   6533
  2143,   2679,   2851,   2076,   2852,   6646,   6647,   6775,   6458
  2144,   1778,   3391,   2379,   2552,   6773,   6755,   4257,   4967
  2145,   2692,   1989,   1988,   3323,   6631,   6635,   6776,   5884
  2146,   2572,   2571,   3323,   2573,   5388,   5885,   6777,   6066
  2147,   1726,   2573,   3323,   1988,   6064,   6777,   6776,   5930
  2148,   2702,   3135,   2881,   2799,   6147,   5161,   6592,   6687
  2149,   1917,   2910,   2085,   3346,   4962,   4826,   6138,   6778
  2150,   3102,   3205,   3349,   3206,   6428,   6779,   6695,   6426
  2151,   2295,   2294,   2933,   2296,   5222,   6266,   6780,   5253
  2152,   2300,   2296,   2933,   2936,   5254,   6780,   4819,   5996
  2153,   3204,   3077,   3220,   3205,   6532,   6653,   6781,   6430
  2154,   1994,   3032,   3047,   1991,   5562,   6214,   6619,   6126
  2155,   3360,   2980,   2978,   2690,   6782,   6555,   6783,   6741
  2156,   2844,   2690,   2978,   3108,   4543,   6783,   5116,   6442
  2157,   3318,   2617,   2945,   2943,   6784,   5918,   4849,   6582
  2158,   2318,   3349,   3205,   3220,   6178,   6779,   6781,   5415
  2159,   3165,   3166,   2835,   2830,   5270,   6171,   6678,   6468
  2160,   1788,   1784,      2,     27,   3454,   5791,    436,   6785
  2161,   3351,   3191,   3189,   3350,   6229,   5320,   6786,   6696
  2162,   3295,   2452,   2453,   3388,   6787,   5218,   6725,   6726
  2163,   1971,   1972,   2500,   2010,   6419,   4875,   5502,   4278
  2164,   2627,   2628,   3178,   3182,   6788,   5289,   6676,   6639
  2165,   3270,   2846,   3237,   3271,   5898,   5459,   5995,   5736
  2166,   1958,   1956,   3211,   3209,   3537,   6230,   6789,   6324
  2167,    470,   2581,   3392,    469,   5815,   6790,   6791,    478
  2168,   2705,   2520,   2958,   2704,   5624,   4871,   6792,   4365
  2169,   2707,   2704,   2958,   3383,   4366,   6792,   6793,   6768
  2170,   3140,   3083,   3015,   3137,   6583,   5078,   5242,   5187
  2171,   2403,   3291,   3392,   2405,   6292,   6794,   6795,   3915
  2172,   2685,   3366,   3393,   2686,   6664,   6796,   6797,   4346
  2173,   2421,   1788,     27,      4,   5794,   6785,    437,   5732
  2174,   3265,   2872,   3348,   2818,   6798,   6799,   6296,   6800
  2175,   2076,   3348,   2872,   2852,   6301,   6799,   6801,   6775
  2176,   3165,   2919,   2920,   3001,   6469,   4768,   5634,   6677
  2177,   2854,   2853,   3311,   2855,   6802,   6803,   6804,   6061
  2178,   3257,   2561,   2562,   3306,   5532,   4181,   6805,   6492
  2179,   2150,   2855,   3311,   2827,   5609,   6804,   5784,   5749
  2180,   2551,   3308,   3306,   2562,   6728,   5765,   6805,   5905
  2181,   3334,   3321,   2960,   1921,   6045,   6806,   6807,   6276
  2182,   2997,   3088,   3061,   2996,   5082,   6762,   5016,   6473
  2183,   1922,   1921,   2960,   1920,   4513,   6807,   4872,   6571
  2184,   2956,   2960,   3321,   2563,   4873,   6806,   6050,   6770
  2185,   2567,   3342,   3160,   2750,   6808,   6809,   6477,   6810
  2186,   2841,   3157,   3342,   3123,   6394,   6811,   6812,   5147
  2187,   3158,   3160,   3342,   3157,   5847,   6809,   6811,   6393
  2188,   2482,   1913,   1917,   2511,   6813,   3509,   6814,   6286
  2189,   3126,   3297,   3131,   3128,   6223,   6815,   5153,   6605
  2190,   2738,   2739,   2257,   3338,   4566,   5375,   6049,   6816
  2191,   2482,   2510,   1912,   1913,   6566,   6380,   3510,   6813
  2192,   3132,   3131,   3297,   3384,   5154,   6815,   6817,   6818
  2193,   3188,   3192,   3038,   3042,   5328,   6764,   6470,   6476
  2194,   1984,   1983,   3367,   1985,   6387,   6819,   6820,   6391
  2195,   2776,   3064,   3367,   1983,   6514,   6821,   6819,   6526
  2196,   3377,   3367,   3064,   2979,   6558,   6821,   6822,   6556
  2197,   2673,   2594,     31,      5,   4333,   4238,    462,   6436
  2198,   3376,   3315,   3389,   2697,   6681,   6720,   6823,   6609
  2199,   2779,   3374,   3389,   2781,   6528,   6824,   6719,   6453
  2200,   2579,   2405,   3392,   2581,   6735,   6795,   6790,   4201
  2201,   2558,   2697,   3389,   3374,   5840,   6823,   6824,   6527
  2202,   3045,   3080,   3130,   3132,   5219,   6825,   5155,   6691
  2203,   3060,   3130,   3080,   3029,   6826,   6825,   5068,   5014
  2204,   2972,   2971,   2355,   2888,   4886,   6525,   6827,   5734
  2205,   2356,   2361,   2888,   2355,   4357,   6010,   6827,   6165
  2206,   2483,   2655,   3328,   2713,   6565,   6828,   5947,   6567
  2207,   2655,   3037,   3129,   3328,   6627,   6626,   5948,   6828
  2208,    468,    469,   3392,   3291,    477,   6791,   6794,   5641
  2209,   2137,   3218,   2765,   2132,   6829,   6449,   4443,   3638
  2210,   3279,   3280,   2773,   3281,   5986,   6830,   6072,   6831
  2211,   2598,   2916,   3280,   3278,   4764,   6832,   5988,   6833
  2212,   2527,   3011,   2942,   2945,   4945,   6472,   4850,   5922
  2213,   3304,   2773,   3280,   2916,   6617,   6830,   6832,   5729
  2214,   3254,   2770,   2995,   2993,   6709,   6834,   6403,   6650
  2215,   1850,   2006,   2883,   2882,   5091,   6835,   4634,   6181
  2216,   3213,   2885,   2883,   2005,   6634,   4635,   6836,   5396
  2217,     11,   2005,   2883,   2006,   5949,   6836,   6835,   5090
  2218,   3359,   2805,   2995,   2768,   6837,   6404,   6838,   6587
  2219,   2980,   3360,   2976,   3112,   6782,   6839,   6840,   6552
  2220,   2767,   2768,   2995,   2770,   6602,   6838,   6834,   6708
  2221,   1958,   2976,   3360,   1962,   6323,   6839,   6740,   3538
  2222,   3208,   3112,   2976,   2977,   6360,   6840,   6325,   5384
  2223,   1732,   1733,   2585,   2413,   3428,   6841,   5665,   4402
  2224,   1948,   1950,   3305,   1949,   6842,   6843,   6844,   6122
  2225,   3043,   3044,   3394,   3046,   6693,   6845,   6846,   6774
  2226,   1774,   3181,   3344,   2643,   5824,   6445,   6847,   4288
  2227,   2181,   2643,   3344,   2180,   4289,   6847,   6738,   3676
  2228,   2858,   3209,   3211,   3121,   6684,   6789,   6225,   6848
  2229,   3390,   3078,   3394,   3384,   6849,   6850,   6851,   6852
  2230,   3132,   3384,   3394,   3044,   6818,   6851,   6845,   6692
  2231,   3076,   3046,   3394,   3078,   6534,   6846,   6850,   6670
  2232,   2511,   1917,   3346,   3176,   6814,   6778,   6853,   6854
  2233,   2083,   3175,   3176,   3346,   6141,   6855,   6853,   6137
  2234,   2929,   2927,   3221,   2952,   4816,   5421,   6659,   6856
  2235,   3193,   2086,   2412,   3069,   6437,   6351,   5087,   5589
  2236,   3330,   3307,   3305,   1950,   6642,   5767,   6843,   5959
  2237,   3386,   1949,   3305,   3308,   6714,   6844,   5766,   6731
  2238,   2785,   2808,   2845,   2807,   6668,   4540,   5491,   6674
  2239,   2522,   2524,   2807,   3136,   6304,   6673,   5494,   5612
  2240,   3196,   3195,   3381,   3144,   5349,   6857,   6858,   6487
  2241,   3036,   3381,   3195,   3380,   6700,   6857,   6750,   6859
  2242,   3167,   3050,   3048,   3297,   6751,   4992,   6860,   6222
  2243,   3175,   3174,   3180,   3176,   6643,   5301,   6861,   6855
  2244,   2829,   2511,   3176,   3180,   6287,   6854,   6861,   5305
  2245,   3078,   3390,   3048,   3051,   6849,   6862,   4991,   6671
  2246,   2452,   3295,   3303,   2451,   6787,   5725,   6510,   4522
  2247,   3384,   3297,   3048,   3390,   6817,   6860,   6862,   6852
  2248,    287,   2738,   3338,    286,   5670,   6816,   6052,    326
  2249,   3142,   3144,   3381,   3268,   5190,   6858,   6699,   5592
  2250,   2652,   3286,   3395,   3225,   6863,   6864,   6865,   5985
  2251,   3025,   3023,   3260,   3088,   4951,   6611,   6761,   5081
  2252,   2617,   3318,   3107,   2623,   6784,   5859,   5109,   4276
  2253,   3028,   3086,   3373,   3072,   6509,   6866,   6572,   6867
  2254,   2804,   3387,   3072,   3070,   6868,   6869,   6575,   6870
  2255,   2803,   2804,   3070,   3071,   6871,   6870,   6872,   6873
  2256,   1686,   2299,   3396,   1927,   4268,   6874,   6875,   6355
  2257,   2642,   2641,   3396,   2826,   6716,   6876,   6877,   5326
  2258,   1928,   1927,   3396,   2641,   6340,   6875,   6876,   6654
  2259,   2827,   2826,   3396,   2299,   5783,   6877,   6874,   5748
  2260,   3198,   2113,   2509,   2740,   6371,   4100,   6878,   6369
  2261,   2741,   2740,   2509,   2742,   6370,   6878,   6547,   6234
  2262,   3387,   2999,   3028,   3072,   6879,   6466,   6867,   6869
  2263,   3357,   2585,   1733,   2644,   6328,   6841,   5381,   6620
  2264,   2666,   2670,   2476,   2671,   4328,   6880,   6727,   6548
  2265,   2842,   2966,   2670,   2667,   4879,   6881,   4327,   4532
  2266,   1805,   3222,   3030,   2944,   5426,   5431,   6698,   6390
  2267,   3279,   3281,   3383,   3317,   6831,   6769,   6882,   6711
  2268,   2958,   2959,   3317,   3383,   4870,   6722,   6882,   6793
  2269,   2497,   1812,   3395,   2498,   4092,   6883,   6884,   6004
  2270,   3287,   2317,   2319,   2365,   6694,   6683,   6601,   6703
  2271,   3248,   2498,   3395,   3286,   5487,   6884,   6864,   6243
  2272,   3185,   2969,   3378,   2771,   5406,   6598,   6885,   5319
  2273,   2899,   2900,   3378,   3171,   5403,   6886,   6597,   6490
  2274,   2772,   2771,   3378,   2900,   5315,   6885,   6886,   5402
  2275,   1805,   1985,   3367,   3111,   6392,   6820,   6557,   6350
  2276,   2734,   2007,   2008,   3245,   4405,   5966,   5481,   5603
  2277,   3342,   2567,   2565,   3123,   6808,   4189,   6887,   6812
  2278,   2294,   1856,   2384,   3202,   5224,   4643,   5673,   6263
  2279,   2568,   2567,   2750,   2751,   4190,   6810,   4421,   5994
  2280,   1811,   3225,   3395,   1812,   5565,   6865,   6883,   5842
  2281,   3218,   2137,   3118,   1871,   6829,   6888,   6889,   5759
  2282,   1869,   1870,   2135,   2133,   3490,   6890,   6562,   6675
  2283,   3217,   2135,   1870,   1872,   5620,   6890,   3489,   5616
  2284,   2985,   3118,   2137,   2130,   5196,   6888,   3637,   6513
  2285,   1872,   1871,   3118,   2984,   3488,   6889,   5195,   5617
  2286,   2902,   3256,   2746,   2905,   6891,   5528,   6892,   4728
  2287,   2902,    389,    390,   3256,   6893,    421,   6187,   6891
  2288,   2030,   2028,   3324,   3293,   3581,   5893,   6195,   5834
  2289,   3162,   1839,   3276,   3163,   6184,   6894,   5606,   5333
  2290,   1839,   2598,   3278,   3276,   5813,   6833,   5607,   6894
  2291,   2637,   2638,   2970,   2639,   4284,   6763,   4884,   6347
  2292,   2488,   3336,   2775,   3365,   6895,   6042,   6616,   6614
  2293,   3311,   2853,   3336,   2488,   6803,   6043,   6895,   5786
  2294,   2953,   3170,   2921,   3203,   6658,   5279,   5916,   6541
  2295,   3066,   2712,   3170,   3221,   5034,   5280,   6660,   5423
  2296,   2872,   3265,   3369,   2852,   6798,   6896,   6459,   6801
  2297,   2089,   2708,   3368,   3290,   6240,   6897,   6898,   5955
  2298,   2820,   2819,   3265,   2818,   6576,   6899,   6800,   6033
  2299,   3150,   3369,   3265,   2819,   6464,   6896,   6899,   6111
  2300,   3060,   3361,   3128,   3130,   6760,   6606,   5156,   6826
  2301,   2981,   3073,   3074,   3108,   6900,   5495,   6443,   5115
  2302,   3337,   3368,   2774,   2775,   6901,   6902,   6070,   6041
  2303,   2707,   2774,   3368,   2708,   6767,   6902,   6897,   6239
  2304,   2974,   3075,   3073,   2981,   6685,   5051,   6900,   6271
  2305,   2670,   2966,   2468,   2476,   6881,   6903,   6570,   6880
  2306,   3096,   3214,   1854,   1827,   6904,   5410,   3480,   6493
  2307,   3081,   2012,   1849,   2992,   6217,   3573,   6248,   5074
  2308,   3096,     32,     34,   3214,   6520,    459,   5411,   6904
  2309,   2797,   2840,   2838,   2798,   5308,   4534,   6905,   4473
  2310,   2858,   3121,   3056,   3055,   6848,   6702,   5000,   6500
  2311,   3100,   3327,   3371,   3103,   6306,   6906,   6907,   5100
  2312,   3335,   2905,   2746,   2732,   6086,   6892,   4412,   6012
  2313,   3057,   3122,   3055,   3053,   6603,   6497,   4999,   5008
  2314,   2857,   3122,   3103,   3371,   6498,   6604,   6907,   6502
  2315,   3326,   2859,   3371,   3327,   6657,   6503,   6906,   5975
  2316,   2967,   3258,   2468,   2966,   6408,   5537,   6903,   4882
  2317,   2565,   2798,   2838,   3123,   5788,   6905,   5148,   6887
  2318,   3375,   2832,   2833,   2700,   6705,   4520,   6495,   6706
  2319,   2366,   2928,   3090,   3091,   6517,   6908,   6291,   6909
  2320,   2902,   2903,    388,    389,   4727,   6155,    420,   6893
  2321,   1804,   1806,   3089,   1803,   6344,   5973,   6910,   5424
  2322,   3223,   3222,   1803,   3385,   5428,   5425,   6911,   6743
  2323,   3090,   3385,   1803,   3089,   6912,   6911,   6910,   6289
  2324,   2929,   3385,   3090,   2928,   6744,   6912,   6908,   4813
  2325,   3085,   3068,   3054,   3086,   6772,   6913,   6914,   6508
  2326,   3058,   3053,   3054,   3068,   5005,   5002,   6913,   5038
  2327,   3036,   3380,   3167,   3035,   6859,   6752,   6221,   4971
  2328,   3387,   3240,   3087,   2999,   6915,   6593,   6596,   6879
  2329,   3373,   3086,   3054,   3056,   6866,   6914,   5001,   6701
  2330,   2366,   3091,   3101,   2365,   6909,   6305,   6704,   6600
  2331,   2979,   3064,   2721,   2973,   6822,   6515,   5970,   5027
  2332,   3368,   3337,   3289,   3290,   6901,   6916,   5953,   6898
  2333,   2854,   3289,   3337,   2853,   6317,   6916,   6040,   6802
  2334,   3159,   2841,   2839,   2907,   6395,   5146,   4744,   6917
  2335,   2987,   2626,   1950,   1948,   4902,   5960,   6842,   5691
  2336,   2825,   3099,   3393,   3366,   6423,   6918,   6796,   6661
  2337,   2627,   2626,   2988,   2628,   5957,   4901,   5290,   6788
  2338,   3070,   3350,   3187,   3071,   6574,   6919,   6920,   6872
  2339,   3188,   2803,   3071,   3187,   6475,   6873,   6920,   6921
  2340,   2651,   2653,   3286,   2652,   4890,   6244,   6863,   4432
  2341,   3188,   3187,   3350,   3189,   6921,   6919,   6786,   5329
  2342,   2803,   2805,   3359,   2804,   6405,   6837,   6922,   6871
  2343,   2907,   3262,   2615,   3159,   5556,   6923,   6754,   6917
  2344,   1866,   2615,   3262,   2533,   4264,   6923,   6543,   5780
  2345,   3387,   2804,   3359,   3240,   6868,   6922,   6594,   6915
  2346,   3223,   3379,   2950,   3224,   6742,   6924,   6024,   5429
  2347,   2686,   3393,   3190,   2687,   6797,   6925,   5322,   4347
  2348,   2929,   2952,   2950,   3379,   6856,   4858,   6924,   6745
  2349,   3099,   3192,   3190,   3393,   6766,   5327,   6925,   6918

** Names based on skir_sless_top_LOAD
*NSET,NSET=Nskir_sless_top_LOAD 
13, 
14, 
201, 
202, 
203, 
204, 
205, 
206, 
207, 
208, 
209, 
210, 
211, 
212, 
213, 
214, 
215, 
216, 
217, 
218, 
219, 
220, 
221, 
222, 
223, 
224, 
225, 
226, 
227, 
228, 
229, 
230, 
231, 
232, 
233, 
234, 
235, 
236, 
237, 
238, 
239, 
334, 
335, 
336, 
337, 
338, 
339, 
340, 
341, 
342, 
343, 
344, 
345, 
346, 
347, 
348, 
349, 
350, 
351, 
352, 
353, 
354, 
355, 
356, 
357, 
358, 
359, 
360, 
361, 
362, 
363, 
364, 
365, 
366, 
367, 
368, 
369, 
370, 
371, 
372, 
** Names based on base_plate_center_YFIX
*NSET,NSET=Nbase_plate_center_YFIX 
9, 
19, 
36, 
37, 
38, 
39, 
40, 
41, 
42, 
43, 
44, 
45, 
46, 
47, 
48, 
49, 
50, 
51, 
52, 
53, 
54, 
55, 
56, 
57, 
58, 
59, 
60, 
61, 
62, 
63, 
64, 
65, 
66, 
67, 
68, 
69, 
70, 
71, 
72, 
73, 
74, 
75, 
76, 
77, 
78, 
79, 
80, 
81, 
82, 
83, 
84, 
85, 
86, 
87, 
88, 
89, 
90, 
91, 
92, 
93, 
94, 
95, 
96, 
97, 
98, 
99, 
100, 
101, 
102, 
103, 
104, 
105, 
106, 
107, 
108, 
109, 
110, 
111, 
112, 
113, 
