*Heading
 /home/maya/project/coding/oscmw/CalculiX-works/skirt/shell/axial_compression_DC/salome_skirt_noholes.inp
*NODE
1, 1.6275, 0, -0.415
2, 1.6275, 0, -8.6675
3, 1.6275, 0, 0
4, 1.6275, 0, -0.415
5, 1.6275, 0, -8.6675
6, 1.6275, 0, -10.6675
7, 1.6084263897025, 0.24843671006622, -0.415
8, 1.5516526280694, 0.49105027421368, -0.415
9, 1.4585094439541, 0.72215403612848, -0.415
10, 1.3311800346478, 0.93633111950581, -0.415
11, 1.1726488935853, 1.1285613950394, -0.415
12, 0.9866318563482, 1.2943391479975, -0.415
13, 0.77748900462871, 1.4297786883576, -0.415
14, 0.55012246960984, 1.5317054280867, -0.415
15, 0.3098615301655, 1.5977302907949, -0.415
16, 0.062337699080533, 1.6263057096602, -0.415
17, -0.1866472748359, 1.6167619010839, -0.415
18, -0.43125739482507, 1.56932256385, -0.415
19, -0.66575920699635, 1.4850996358156, -0.415
20, -0.88465618762699, 1.3660672310297, -0.415
21, -1.0828175770195, 1.2150153681735, -0.415
22, -1.2555986401602, 1.0354845748865, -0.415
23, -1.3989495353717, 0.83168290080017, -0.415
24, -1.5095102391687, 0.60838728442085, -0.415
25, -1.5846893023611, 0.37083158573986, -0.415
26, -1.6227245914265, 0.1245839089914, -0.415
27, -1.6227245914265, -0.12458390899139, -0.415
28, -1.5846893023611, -0.37083158573985, -0.415
29, -1.5095102391687, -0.60838728442085, -0.415
30, -1.3989495353717, -0.83168290080017, -0.415
31, -1.2555986401602, -1.0354845748865, -0.415
32, -1.0828175770195, -1.2150153681735, -0.415
33, -0.88465618762699, -1.3660672310297, -0.415
34, -0.66575920699636, -1.4850996358156, -0.415
35, -0.43125739482507, -1.56932256385, -0.415
36, -0.1866472748359, -1.6167619010839, -0.415
37, 0.062337699080532, -1.6263057096602, -0.415
38, 0.3098615301655, -1.5977302907949, -0.415
39, 0.55012246960984, -1.5317054280867, -0.415
40, 0.77748900462871, -1.4297786883576, -0.415
41, 0.98663185634821, -1.2943391479975, -0.415
42, 1.1726488935853, -1.1285613950394, -0.415
43, 1.3311800346478, -0.9363311195058, -0.415
44, 1.4585094439541, -0.72215403612847, -0.415
45, 1.5516526280694, -0.49105027421367, -0.415
46, 1.6084263897025, -0.24843671006621, -0.415
47, 1.6275, 9.9655633280616e-17, -0.65772058823529
48, 1.6275, 9.9655633280616e-17, -0.90044117647059
49, 1.6275, 9.9655633280616e-17, -1.1431617647059
50, 1.6275, 9.9655633280616e-17, -1.3858823529412
51, 1.6275, 9.9655633280616e-17, -1.6286029411765
52, 1.6275, 9.9655633280616e-17, -1.8713235294118
53, 1.6275, 9.9655633280616e-17, -2.1140441176471
54, 1.6275, 9.9655633280616e-17, -2.3567647058824
55, 1.6275, 9.9655633280616e-17, -2.5994852941176
56, 1.6275, 9.9655633280616e-17, -2.8422058823529
57, 1.6275, 9.9655633280616e-17, -3.0849264705882
58, 1.6275, 9.9655633280616e-17, -3.3276470588235
59, 1.6275, 9.9655633280616e-17, -3.5703676470588
60, 1.6275, 9.9655633280616e-17, -3.8130882352941
61, 1.6275, 9.9655633280616e-17, -4.0558088235294
62, 1.6275, 9.9655633280616e-17, -4.2985294117647
63, 1.6275, 9.9655633280616e-17, -4.54125
64, 1.6275, 9.9655633280616e-17, -4.7839705882353
65, 1.6275, 9.9655633280616e-17, -5.0266911764706
66, 1.6275, 9.9655633280616e-17, -5.2694117647059
67, 1.6275, 9.9655633280616e-17, -5.5121323529412
68, 1.6275, 9.9655633280616e-17, -5.7548529411765
69, 1.6275, 9.9655633280616e-17, -5.9975735294118
70, 1.6275, 9.9655633280616e-17, -6.2402941176471
71, 1.6275, 9.9655633280616e-17, -6.4830147058824
72, 1.6275, 9.9655633280616e-17, -6.7257352941176
73, 1.6275, 9.9655633280616e-17, -6.9684558823529
74, 1.6275, 9.9655633280616e-17, -7.2111764705882
75, 1.6275, 9.9655633280616e-17, -7.4538970588235
76, 1.6275, 9.9655633280616e-17, -7.6966176470588
77, 1.6275, 9.9655633280616e-17, -7.9393382352941
78, 1.6275, 9.9655633280616e-17, -8.1820588235294
79, 1.6275, 9.9655633280616e-17, -8.4247794117647
80, 1.6084263897025, 0.24843671006622, -8.6675
81, 1.5516526280694, 0.49105027421368, -8.6675
82, 1.4585094439541, 0.72215403612848, -8.6675
83, 1.3311800346478, 0.93633111950581, -8.6675
84, 1.1726488935853, 1.1285613950394, -8.6675
85, 0.9866318563482, 1.2943391479975, -8.6675
86, 0.77748900462871, 1.4297786883576, -8.6675
87, 0.55012246960984, 1.5317054280867, -8.6675
88, 0.3098615301655, 1.5977302907949, -8.6675
89, 0.062337699080533, 1.6263057096602, -8.6675
90, -0.1866472748359, 1.6167619010839, -8.6675
91, -0.43125739482507, 1.56932256385, -8.6675
92, -0.66575920699635, 1.4850996358156, -8.6675
93, -0.88465618762699, 1.3660672310297, -8.6675
94, -1.0828175770195, 1.2150153681735, -8.6675
95, -1.2555986401602, 1.0354845748865, -8.6675
96, -1.3989495353717, 0.83168290080017, -8.6675
97, -1.5095102391687, 0.60838728442085, -8.6675
98, -1.5846893023611, 0.37083158573986, -8.6675
99, -1.6227245914265, 0.1245839089914, -8.6675
100, -1.6227245914265, -0.12458390899139, -8.6675
101, -1.5846893023611, -0.37083158573985, -8.6675
102, -1.5095102391687, -0.60838728442085, -8.6675
103, -1.3989495353717, -0.83168290080017, -8.6675
104, -1.2555986401602, -1.0354845748865, -8.6675
105, -1.0828175770195, -1.2150153681735, -8.6675
106, -0.88465618762699, -1.3660672310297, -8.6675
107, -0.66575920699636, -1.4850996358156, -8.6675
108, -0.43125739482507, -1.56932256385, -8.6675
109, -0.1866472748359, -1.6167619010839, -8.6675
110, 0.062337699080532, -1.6263057096602, -8.6675
111, 0.3098615301655, -1.5977302907949, -8.6675
112, 0.55012246960984, -1.5317054280867, -8.6675
113, 0.77748900462871, -1.4297786883576, -8.6675
114, 0.98663185634821, -1.2943391479975, -8.6675
115, 1.1726488935853, -1.1285613950394, -8.6675
116, 1.3311800346478, -0.9363311195058, -8.6675
117, 1.4585094439541, -0.72215403612847, -8.6675
118, 1.5516526280694, -0.49105027421367, -8.6675
119, 1.6084263897025, -0.24843671006621, -8.6675
120, 1.6084263897025, 0.24843671006622, 0
121, 1.5516526280694, 0.49105027421368, 0
122, 1.4585094439541, 0.72215403612848, 0
123, 1.3311800346478, 0.93633111950581, 0
124, 1.1726488935853, 1.1285613950394, 0
125, 0.9866318563482, 1.2943391479975, 0
126, 0.77748900462871, 1.4297786883576, 0
127, 0.55012246960984, 1.5317054280867, 0
128, 0.3098615301655, 1.5977302907949, 0
129, 0.062337699080533, 1.6263057096602, 0
130, -0.1866472748359, 1.6167619010839, 0
131, -0.43125739482507, 1.56932256385, 0
132, -0.66575920699635, 1.4850996358156, 0
133, -0.88465618762699, 1.3660672310297, 0
134, -1.0828175770195, 1.2150153681735, 0
135, -1.2555986401602, 1.0354845748865, 0
136, -1.3989495353717, 0.83168290080017, 0
137, -1.5095102391687, 0.60838728442085, 0
138, -1.5846893023611, 0.37083158573986, 0
139, -1.6227245914265, 0.1245839089914, 0
140, -1.6227245914265, -0.12458390899139, 0
141, -1.5846893023611, -0.37083158573985, 0
142, -1.5095102391687, -0.60838728442085, 0
143, -1.3989495353717, -0.83168290080017, 0
144, -1.2555986401602, -1.0354845748865, 0
145, -1.0828175770195, -1.2150153681735, 0
146, -0.88465618762699, -1.3660672310297, 0
147, -0.66575920699636, -1.4850996358156, 0
148, -0.43125739482507, -1.56932256385, 0
149, -0.1866472748359, -1.6167619010839, 0
150, 0.062337699080532, -1.6263057096602, 0
151, 0.3098615301655, -1.5977302907949, 0
152, 0.55012246960984, -1.5317054280867, 0
153, 0.77748900462871, -1.4297786883576, 0
154, 0.98663185634821, -1.2943391479975, 0
155, 1.1726488935853, -1.1285613950394, 0
156, 1.3311800346478, -0.9363311195058, 0
157, 1.4585094439541, -0.72215403612847, 0
158, 1.5516526280694, -0.49105027421367, 0
159, 1.6084263897025, -0.24843671006621, 0
160, 1.6275, 9.9655633280616e-17, -0.2075
161, 1.6084263897025, 0.24843671006622, -0.415
162, 1.5516526280694, 0.49105027421368, -0.415
163, 1.4585094439541, 0.72215403612848, -0.415
164, 1.3311800346478, 0.93633111950581, -0.415
165, 1.1726488935853, 1.1285613950394, -0.415
166, 0.9866318563482, 1.2943391479975, -0.415
167, 0.77748900462871, 1.4297786883576, -0.415
168, 0.55012246960984, 1.5317054280867, -0.415
169, 0.3098615301655, 1.5977302907949, -0.415
170, 0.062337699080533, 1.6263057096602, -0.415
171, -0.1866472748359, 1.6167619010839, -0.415
172, -0.43125739482507, 1.56932256385, -0.415
173, -0.66575920699635, 1.4850996358156, -0.415
174, -0.88465618762699, 1.3660672310297, -0.415
175, -1.0828175770195, 1.2150153681735, -0.415
176, -1.2555986401602, 1.0354845748865, -0.415
177, -1.3989495353717, 0.83168290080017, -0.415
178, -1.5095102391687, 0.60838728442085, -0.415
179, -1.5846893023611, 0.37083158573986, -0.415
180, -1.6227245914265, 0.1245839089914, -0.415
181, -1.6227245914265, -0.12458390899139, -0.415
182, -1.5846893023611, -0.37083158573985, -0.415
183, -1.5095102391687, -0.60838728442085, -0.415
184, -1.3989495353717, -0.83168290080017, -0.415
185, -1.2555986401602, -1.0354845748865, -0.415
186, -1.0828175770195, -1.2150153681735, -0.415
187, -0.88465618762699, -1.3660672310297, -0.415
188, -0.66575920699636, -1.4850996358156, -0.415
189, -0.43125739482507, -1.56932256385, -0.415
190, -0.1866472748359, -1.6167619010839, -0.415
191, 0.062337699080532, -1.6263057096602, -0.415
192, 0.3098615301655, -1.5977302907949, -0.415
193, 0.55012246960984, -1.5317054280867, -0.415
194, 0.77748900462871, -1.4297786883576, -0.415
195, 0.98663185634821, -1.2943391479975, -0.415
196, 1.1726488935853, -1.1285613950394, -0.415
197, 1.3311800346478, -0.9363311195058, -0.415
198, 1.4585094439541, -0.72215403612847, -0.415
199, 1.5516526280694, -0.49105027421367, -0.415
200, 1.6084263897025, -0.24843671006621, -0.415
201, 1.6084263897025, 0.24843671006622, -8.6675
202, 1.5516526280694, 0.49105027421368, -8.6675
203, 1.4585094439541, 0.72215403612848, -8.6675
204, 1.3311800346478, 0.93633111950581, -8.6675
205, 1.1726488935853, 1.1285613950394, -8.6675
206, 0.9866318563482, 1.2943391479975, -8.6675
207, 0.77748900462871, 1.4297786883576, -8.6675
208, 0.55012246960984, 1.5317054280867, -8.6675
209, 0.3098615301655, 1.5977302907949, -8.6675
210, 0.062337699080533, 1.6263057096602, -8.6675
211, -0.1866472748359, 1.6167619010839, -8.6675
212, -0.43125739482507, 1.56932256385, -8.6675
213, -0.66575920699635, 1.4850996358156, -8.6675
214, -0.88465618762699, 1.3660672310297, -8.6675
215, -1.0828175770195, 1.2150153681735, -8.6675
216, -1.2555986401602, 1.0354845748865, -8.6675
217, -1.3989495353717, 0.83168290080017, -8.6675
218, -1.5095102391687, 0.60838728442085, -8.6675
219, -1.5846893023611, 0.37083158573986, -8.6675
220, -1.6227245914265, 0.1245839089914, -8.6675
221, -1.6227245914265, -0.12458390899139, -8.6675
222, -1.5846893023611, -0.37083158573985, -8.6675
223, -1.5095102391687, -0.60838728442085, -8.6675
224, -1.3989495353717, -0.83168290080017, -8.6675
225, -1.2555986401602, -1.0354845748865, -8.6675
226, -1.0828175770195, -1.2150153681735, -8.6675
227, -0.88465618762699, -1.3660672310297, -8.6675
228, -0.66575920699636, -1.4850996358156, -8.6675
229, -0.43125739482507, -1.56932256385, -8.6675
230, -0.1866472748359, -1.6167619010839, -8.6675
231, 0.062337699080532, -1.6263057096602, -8.6675
232, 0.3098615301655, -1.5977302907949, -8.6675
233, 0.55012246960984, -1.5317054280867, -8.6675
234, 0.77748900462871, -1.4297786883576, -8.6675
235, 0.98663185634821, -1.2943391479975, -8.6675
236, 1.1726488935853, -1.1285613950394, -8.6675
237, 1.3311800346478, -0.9363311195058, -8.6675
238, 1.4585094439541, -0.72215403612847, -8.6675
239, 1.5516526280694, -0.49105027421367, -8.6675
240, 1.6084263897025, -0.24843671006621, -8.6675
241, 1.6275, 9.9655633280616e-17, -8.9175
242, 1.6275, 9.9655633280616e-17, -9.1675
243, 1.6275, 9.9655633280616e-17, -9.4175
244, 1.6275, 9.9655633280616e-17, -9.6675
245, 1.6275, 9.9655633280616e-17, -9.9175
246, 1.6275, 9.9655633280616e-17, -10.1675
247, 1.6275, 9.9655633280616e-17, -10.4175
248, 1.6084263897025, 0.24843671006622, -10.6675
249, 1.5516526280694, 0.49105027421368, -10.6675
250, 1.4585094439541, 0.72215403612848, -10.6675
251, 1.3311800346478, 0.93633111950581, -10.6675
252, 1.1726488935853, 1.1285613950394, -10.6675
253, 0.9866318563482, 1.2943391479975, -10.6675
254, 0.77748900462871, 1.4297786883576, -10.6675
255, 0.55012246960984, 1.5317054280867, -10.6675
256, 0.3098615301655, 1.5977302907949, -10.6675
257, 0.062337699080533, 1.6263057096602, -10.6675
258, -0.1866472748359, 1.6167619010839, -10.6675
259, -0.43125739482507, 1.56932256385, -10.6675
260, -0.66575920699635, 1.4850996358156, -10.6675
261, -0.88465618762699, 1.3660672310297, -10.6675
262, -1.0828175770195, 1.2150153681735, -10.6675
263, -1.2555986401602, 1.0354845748865, -10.6675
264, -1.3989495353717, 0.83168290080017, -10.6675
265, -1.5095102391687, 0.60838728442085, -10.6675
266, -1.5846893023611, 0.37083158573986, -10.6675
267, -1.6227245914265, 0.1245839089914, -10.6675
268, -1.6227245914265, -0.12458390899139, -10.6675
269, -1.5846893023611, -0.37083158573985, -10.6675
270, -1.5095102391687, -0.60838728442085, -10.6675
271, -1.3989495353717, -0.83168290080017, -10.6675
272, -1.2555986401602, -1.0354845748865, -10.6675
273, -1.0828175770195, -1.2150153681735, -10.6675
274, -0.88465618762699, -1.3660672310297, -10.6675
275, -0.66575920699636, -1.4850996358156, -10.6675
276, -0.43125739482507, -1.56932256385, -10.6675
277, -0.1866472748359, -1.6167619010839, -10.6675
278, 0.062337699080532, -1.6263057096602, -10.6675
279, 0.3098615301655, -1.5977302907949, -10.6675
280, 0.55012246960984, -1.5317054280867, -10.6675
281, 0.77748900462871, -1.4297786883576, -10.6675
282, 0.98663185634821, -1.2943391479975, -10.6675
283, 1.1726488935853, -1.1285613950394, -10.6675
284, 1.3311800346478, -0.9363311195058, -10.6675
285, 1.4585094439541, -0.72215403612847, -10.6675
286, 1.5516526280694, -0.49105027421367, -10.6675
287, 1.6084263897025, -0.24843671006621, -10.6675
1928, 1.6227245914265, 0.1245839089914, -0.415
1929, 1.5846893023611, 0.37083158573986, -0.415
1930, 1.5095102391687, 0.60838728442085, -0.415
1931, 1.3989495353717, 0.83168290080017, -0.415
1932, 1.2555986401602, 1.0354845748865, -0.415
1933, 1.0828175770195, 1.2150153681735, -0.415
1934, 0.88465618762699, 1.3660672310297, -0.415
1935, 0.66575920699636, 1.4850996358156, -0.415
1936, 0.43125739482507, 1.56932256385, -0.415
1937, 0.1866472748359, 1.6167619010839, -0.415
1938, -0.062337699080532, 1.6263057096602, -0.415
1939, -0.3098615301655, 1.5977302907949, -0.415
1940, -0.55012246960984, 1.5317054280867, -0.415
1941, -0.77748900462871, 1.4297786883576, -0.415
1942, -0.9866318563482, 1.2943391479975, -0.415
1943, -1.1726488935853, 1.1285613950394, -0.415
1944, -1.3311800346478, 0.93633111950581, -0.415
1945, -1.4585094439541, 0.72215403612848, -0.415
1946, -1.5516526280694, 0.49105027421368, -0.415
1947, -1.6084263897025, 0.24843671006622, -0.415
1948, -1.6275, 1.6448216446232e-15, -0.415
1949, -1.6084263897025, -0.24843671006622, -0.415
1950, -1.5516526280694, -0.49105027421367, -0.415
1951, -1.4585094439541, -0.72215403612847, -0.415
1952, -1.3311800346478, -0.9363311195058, -0.415
1953, -1.1726488935853, -1.1285613950394, -0.415
1954, -0.98663185634821, -1.2943391479975, -0.415
1955, -0.77748900462871, -1.4297786883576, -0.415
1956, -0.55012246960984, -1.5317054280867, -0.415
1957, -0.3098615301655, -1.5977302907949, -0.415
1958, -0.062337699080533, -1.6263057096602, -0.415
1959, 0.1866472748359, -1.6167619010839, -0.415
1960, 0.43125739482507, -1.56932256385, -0.415
1961, 0.66575920699636, -1.4850996358156, -0.415
1962, 0.88465618762699, -1.3660672310297, -0.415
1963, 1.0828175770195, -1.2150153681735, -0.415
1964, 1.2555986401602, -1.0354845748865, -0.415
1965, 1.3989495353717, -0.83168290080017, -0.415
1966, 1.5095102391687, -0.60838728442085, -0.415
1967, 1.5846893023611, -0.37083158573985, -0.415
1968, 1.6227245914265, -0.12458390899139, -0.415
1969, 1.6275, 9.9655633280616e-17, -0.53636029411765
1970, 1.6275, 9.9655633280616e-17, -0.77908088235294
1971, 1.6275, 9.9655633280616e-17, -1.0218014705882
1972, 1.6275, 9.9655633280616e-17, -1.2645220588235
1973, 1.6275, 9.9655633280616e-17, -1.5072426470588
1974, 1.6275, 9.9655633280616e-17, -1.7499632352941
1975, 1.6275, 9.9655633280616e-17, -1.9926838235294
1976, 1.6275, 9.9655633280616e-17, -2.2354044117647
1977, 1.6275, 9.9655633280616e-17, -2.478125
1978, 1.6275, 9.9655633280616e-17, -2.7208455882353
1979, 1.6275, 9.9655633280616e-17, -2.9635661764706
1980, 1.6275, 9.9655633280616e-17, -3.2062867647059
1981, 1.6275, 9.9655633280616e-17, -3.4490073529412
1982, 1.6275, 9.9655633280616e-17, -3.6917279411765
1983, 1.6275, 9.9655633280616e-17, -3.9344485294118
1984, 1.6275, 9.9655633280616e-17, -4.1771691176471
1985, 1.6275, 9.9655633280616e-17, -4.4198897058824
1986, 1.6275, 9.9655633280616e-17, -4.6626102941176
1987, 1.6275, 9.9655633280616e-17, -4.9053308823529
1988, 1.6275, 9.9655633280616e-17, -5.1480514705882
1989, 1.6275, 9.9655633280616e-17, -5.3907720588235
1990, 1.6275, 9.9655633280616e-17, -5.6334926470588
1991, 1.6275, 9.9655633280616e-17, -5.8762132352941
1992, 1.6275, 9.9655633280616e-17, -6.1189338235294
1993, 1.6275, 9.9655633280616e-17, -6.3616544117647
1994, 1.6275, 9.9655633280616e-17, -6.604375
1995, 1.6275, 9.9655633280616e-17, -6.8470955882353
1996, 1.6275, 9.9655633280616e-17, -7.0898161764706
1997, 1.6275, 9.9655633280616e-17, -7.3325367647059
1998, 1.6275, 9.9655633280616e-17, -7.5752573529412
1999, 1.6275, 9.9655633280616e-17, -7.8179779411765
2000, 1.6275, 9.9655633280616e-17, -8.0606985294118
2001, 1.6275, 9.9655633280616e-17, -8.3034191176471
2002, 1.6275, 9.9655633280616e-17, -8.5461397058824
2003, 1.6227245914265, 0.1245839089914, -8.6675
2004, 1.5846893023611, 0.37083158573986, -8.6675
2005, 1.5095102391687, 0.60838728442085, -8.6675
2006, 1.3989495353717, 0.83168290080017, -8.6675
2007, 1.2555986401602, 1.0354845748865, -8.6675
2008, 1.0828175770195, 1.2150153681735, -8.6675
2009, 0.88465618762699, 1.3660672310297, -8.6675
2010, 0.66575920699636, 1.4850996358156, -8.6675
2011, 0.43125739482507, 1.56932256385, -8.6675
2012, 0.1866472748359, 1.6167619010839, -8.6675
2013, -0.062337699080532, 1.6263057096602, -8.6675
2014, -0.3098615301655, 1.5977302907949, -8.6675
2015, -0.55012246960984, 1.5317054280867, -8.6675
2016, -0.77748900462871, 1.4297786883576, -8.6675
2017, -0.9866318563482, 1.2943391479975, -8.6675
2018, -1.1726488935853, 1.1285613950394, -8.6675
2019, -1.3311800346478, 0.93633111950581, -8.6675
2020, -1.4585094439541, 0.72215403612848, -8.6675
2021, -1.5516526280694, 0.49105027421368, -8.6675
2022, -1.6084263897025, 0.24843671006622, -8.6675
2023, -1.6275, 1.6448216446232e-15, -8.6675
2024, -1.6084263897025, -0.24843671006622, -8.6675
2025, -1.5516526280694, -0.49105027421367, -8.6675
2026, -1.4585094439541, -0.72215403612847, -8.6675
2027, -1.3311800346478, -0.9363311195058, -8.6675
2028, -1.1726488935853, -1.1285613950394, -8.6675
2029, -0.98663185634821, -1.2943391479975, -8.6675
2030, -0.77748900462871, -1.4297786883576, -8.6675
2031, -0.55012246960984, -1.5317054280867, -8.6675
2032, -0.3098615301655, -1.5977302907949, -8.6675
2033, -0.062337699080533, -1.6263057096602, -8.6675
2034, 0.1866472748359, -1.6167619010839, -8.6675
2035, 0.43125739482507, -1.56932256385, -8.6675
2036, 0.66575920699636, -1.4850996358156, -8.6675
2037, 0.88465618762699, -1.3660672310297, -8.6675
2038, 1.0828175770195, -1.2150153681735, -8.6675
2039, 1.2555986401602, -1.0354845748865, -8.6675
2040, 1.3989495353717, -0.83168290080017, -8.6675
2041, 1.5095102391687, -0.60838728442085, -8.6675
2042, 1.5846893023611, -0.37083158573985, -8.6675
2043, 1.6227245914265, -0.12458390899139, -8.6675
2044, 1.6227245914265, 0.1245839089914, 0
2045, 1.5846893023611, 0.37083158573986, 0
2046, 1.5095102391687, 0.60838728442085, 0
2047, 1.3989495353717, 0.83168290080017, 0
2048, 1.2555986401602, 1.0354845748865, 0
2049, 1.0828175770195, 1.2150153681735, 0
2050, 0.88465618762699, 1.3660672310297, 0
2051, 0.66575920699636, 1.4850996358156, 0
2052, 0.43125739482507, 1.56932256385, 0
2053, 0.1866472748359, 1.6167619010839, 0
2054, -0.062337699080532, 1.6263057096602, 0
2055, -0.3098615301655, 1.5977302907949, 0
2056, -0.55012246960984, 1.5317054280867, 0
2057, -0.77748900462871, 1.4297786883576, 0
2058, -0.9866318563482, 1.2943391479975, 0
2059, -1.1726488935853, 1.1285613950394, 0
2060, -1.3311800346478, 0.93633111950581, 0
2061, -1.4585094439541, 0.72215403612848, 0
2062, -1.5516526280694, 0.49105027421368, 0
2063, -1.6084263897025, 0.24843671006622, 0
2064, -1.6275, 1.6448216446232e-15, 0
2065, -1.6084263897025, -0.24843671006622, 0
2066, -1.5516526280694, -0.49105027421367, 0
2067, -1.4585094439541, -0.72215403612847, 0
2068, -1.3311800346478, -0.9363311195058, 0
2069, -1.1726488935853, -1.1285613950394, 0
2070, -0.98663185634821, -1.2943391479975, 0
2071, -0.77748900462871, -1.4297786883576, 0
2072, -0.55012246960984, -1.5317054280867, 0
2073, -0.3098615301655, -1.5977302907949, 0
2074, -0.062337699080533, -1.6263057096602, 0
2075, 0.1866472748359, -1.6167619010839, 0
2076, 0.43125739482507, -1.56932256385, 0
2077, 0.66575920699636, -1.4850996358156, 0
2078, 0.88465618762699, -1.3660672310297, 0
2079, 1.0828175770195, -1.2150153681735, 0
2080, 1.2555986401602, -1.0354845748865, 0
2081, 1.3989495353717, -0.83168290080017, 0
2082, 1.5095102391687, -0.60838728442085, 0
2083, 1.5846893023611, -0.37083158573985, 0
2084, 1.6227245914265, -0.12458390899139, 0
2085, 1.6275, 9.9655633280616e-17, -0.10375
2086, 1.6275, 9.9655633280616e-17, -0.31125
2087, 1.6227245914265, 0.1245839089914, -0.415
2088, 1.5846893023611, 0.37083158573986, -0.415
2089, 1.5095102391687, 0.60838728442085, -0.415
2090, 1.3989495353717, 0.83168290080017, -0.415
2091, 1.2555986401602, 1.0354845748865, -0.415
2092, 1.0828175770195, 1.2150153681735, -0.415
2093, 0.88465618762699, 1.3660672310297, -0.415
2094, 0.66575920699636, 1.4850996358156, -0.415
2095, 0.43125739482507, 1.56932256385, -0.415
2096, 0.1866472748359, 1.6167619010839, -0.415
2097, -0.062337699080532, 1.6263057096602, -0.415
2098, -0.3098615301655, 1.5977302907949, -0.415
2099, -0.55012246960984, 1.5317054280867, -0.415
2100, -0.77748900462871, 1.4297786883576, -0.415
2101, -0.9866318563482, 1.2943391479975, -0.415
2102, -1.1726488935853, 1.1285613950394, -0.415
2103, -1.3311800346478, 0.93633111950581, -0.415
2104, -1.4585094439541, 0.72215403612848, -0.415
2105, -1.5516526280694, 0.49105027421368, -0.415
2106, -1.6084263897025, 0.24843671006622, -0.415
2107, -1.6275, 1.6448216446232e-15, -0.415
2108, -1.6084263897025, -0.24843671006622, -0.415
2109, -1.5516526280694, -0.49105027421367, -0.415
2110, -1.4585094439541, -0.72215403612847, -0.415
2111, -1.3311800346478, -0.9363311195058, -0.415
2112, -1.1726488935853, -1.1285613950394, -0.415
2113, -0.98663185634821, -1.2943391479975, -0.415
2114, -0.77748900462871, -1.4297786883576, -0.415
2115, -0.55012246960984, -1.5317054280867, -0.415
2116, -0.3098615301655, -1.5977302907949, -0.415
2117, -0.062337699080533, -1.6263057096602, -0.415
2118, 0.1866472748359, -1.6167619010839, -0.415
2119, 0.43125739482507, -1.56932256385, -0.415
2120, 0.66575920699636, -1.4850996358156, -0.415
2121, 0.88465618762699, -1.3660672310297, -0.415
2122, 1.0828175770195, -1.2150153681735, -0.415
2123, 1.2555986401602, -1.0354845748865, -0.415
2124, 1.3989495353717, -0.83168290080017, -0.415
2125, 1.5095102391687, -0.60838728442085, -0.415
2126, 1.5846893023611, -0.37083158573985, -0.415
2127, 1.6227245914265, -0.12458390899139, -0.415
2128, 1.6227245914265, 0.1245839089914, -8.6675
2129, 1.5846893023611, 0.37083158573986, -8.6675
2130, 1.5095102391687, 0.60838728442085, -8.6675
2131, 1.3989495353717, 0.83168290080017, -8.6675
2132, 1.2555986401602, 1.0354845748865, -8.6675
2133, 1.0828175770195, 1.2150153681735, -8.6675
2134, 0.88465618762699, 1.3660672310297, -8.6675
2135, 0.66575920699636, 1.4850996358156, -8.6675
2136, 0.43125739482507, 1.56932256385, -8.6675
2137, 0.1866472748359, 1.6167619010839, -8.6675
2138, -0.062337699080532, 1.6263057096602, -8.6675
2139, -0.3098615301655, 1.5977302907949, -8.6675
2140, -0.55012246960984, 1.5317054280867, -8.6675
2141, -0.77748900462871, 1.4297786883576, -8.6675
2142, -0.9866318563482, 1.2943391479975, -8.6675
2143, -1.1726488935853, 1.1285613950394, -8.6675
2144, -1.3311800346478, 0.93633111950581, -8.6675
2145, -1.4585094439541, 0.72215403612848, -8.6675
2146, -1.5516526280694, 0.49105027421368, -8.6675
2147, -1.6084263897025, 0.24843671006622, -8.6675
2148, -1.6275, 1.6448216446232e-15, -8.6675
2149, -1.6084263897025, -0.24843671006622, -8.6675
2150, -1.5516526280694, -0.49105027421367, -8.6675
2151, -1.4585094439541, -0.72215403612847, -8.6675
2152, -1.3311800346478, -0.9363311195058, -8.6675
2153, -1.1726488935853, -1.1285613950394, -8.6675
2154, -0.98663185634821, -1.2943391479975, -8.6675
2155, -0.77748900462871, -1.4297786883576, -8.6675
2156, -0.55012246960984, -1.5317054280867, -8.6675
2157, -0.3098615301655, -1.5977302907949, -8.6675
2158, -0.062337699080533, -1.6263057096602, -8.6675
2159, 0.1866472748359, -1.6167619010839, -8.6675
2160, 0.43125739482507, -1.56932256385, -8.6675
2161, 0.66575920699636, -1.4850996358156, -8.6675
2162, 0.88465618762699, -1.3660672310297, -8.6675
2163, 1.0828175770195, -1.2150153681735, -8.6675
2164, 1.2555986401602, -1.0354845748865, -8.6675
2165, 1.3989495353717, -0.83168290080017, -8.6675
2166, 1.5095102391687, -0.60838728442085, -8.6675
2167, 1.5846893023611, -0.37083158573985, -8.6675
2168, 1.6227245914265, -0.12458390899139, -8.6675
2169, 1.6275, 9.9655633280616e-17, -8.7925
2170, 1.6275, 9.9655633280616e-17, -9.0425
2171, 1.6275, 9.9655633280616e-17, -9.2925
2172, 1.6275, 9.9655633280616e-17, -9.5425
2173, 1.6275, 9.9655633280616e-17, -9.7925
2174, 1.6275, 9.9655633280616e-17, -10.0425
2175, 1.6275, 9.9655633280616e-17, -10.2925
2176, 1.6275, 9.9655633280616e-17, -10.5425
2177, 1.6227245914265, 0.1245839089914, -10.6675
2178, 1.5846893023611, 0.37083158573986, -10.6675
2179, 1.5095102391687, 0.60838728442085, -10.6675
2180, 1.3989495353717, 0.83168290080017, -10.6675
2181, 1.2555986401602, 1.0354845748865, -10.6675
2182, 1.0828175770195, 1.2150153681735, -10.6675
2183, 0.88465618762699, 1.3660672310297, -10.6675
2184, 0.66575920699636, 1.4850996358156, -10.6675
2185, 0.43125739482507, 1.56932256385, -10.6675
2186, 0.1866472748359, 1.6167619010839, -10.6675
2187, -0.062337699080532, 1.6263057096602, -10.6675
2188, -0.3098615301655, 1.5977302907949, -10.6675
2189, -0.55012246960984, 1.5317054280867, -10.6675
2190, -0.77748900462871, 1.4297786883576, -10.6675
2191, -0.9866318563482, 1.2943391479975, -10.6675
2192, -1.1726488935853, 1.1285613950394, -10.6675
2193, -1.3311800346478, 0.93633111950581, -10.6675
2194, -1.4585094439541, 0.72215403612848, -10.6675
2195, -1.5516526280694, 0.49105027421368, -10.6675
2196, -1.6084263897025, 0.24843671006622, -10.6675
2197, -1.6275, 1.6448216446232e-15, -10.6675
2198, -1.6084263897025, -0.24843671006622, -10.6675
2199, -1.5516526280694, -0.49105027421367, -10.6675
2200, -1.4585094439541, -0.72215403612847, -10.6675
2201, -1.3311800346478, -0.9363311195058, -10.6675
2202, -1.1726488935853, -1.1285613950394, -10.6675
2203, -0.98663185634821, -1.2943391479975, -10.6675
2204, -0.77748900462871, -1.4297786883576, -10.6675
2205, -0.55012246960984, -1.5317054280867, -10.6675
2206, -0.3098615301655, -1.5977302907949, -10.6675
2207, -0.062337699080533, -1.6263057096602, -10.6675
2208, 0.1866472748359, -1.6167619010839, -10.6675
2209, 0.43125739482507, -1.56932256385, -10.6675
2210, 0.66575920699636, -1.4850996358156, -10.6675
2211, 0.88465618762699, -1.3660672310297, -10.6675
2212, 1.0828175770195, -1.2150153681735, -10.6675
2213, 1.2555986401602, -1.0354845748865, -10.6675
2214, 1.3989495353717, -0.83168290080017, -10.6675
2215, 1.5095102391687, -0.60838728442085, -10.6675
2216, 1.5846893023611, -0.37083158573985, -10.6675
2217, 1.6227245914265, -0.12458390899139, -10.6675
288, 1.6084263897025, -0.24843671006621, -0.65772058823529
289, 1.5516526280694, -0.49105027421367, -0.65772058823529
290, 1.4585094439541, -0.72215403612847, -0.65772058823529
291, 1.3311800346478, -0.9363311195058, -0.65772058823529
292, 1.1726488935853, -1.1285613950394, -0.65772058823529
293, 0.98663185634821, -1.2943391479975, -0.65772058823529
294, 0.77748900462871, -1.4297786883576, -0.65772058823529
295, 0.55012246960984, -1.5317054280867, -0.65772058823529
296, 0.3098615301655, -1.5977302907949, -0.65772058823529
297, 0.062337699080533, -1.6263057096602, -0.65772058823529
298, -0.1866472748359, -1.6167619010839, -0.65772058823529
299, -0.43125739482507, -1.56932256385, -0.65772058823529
300, -0.66575920699636, -1.4850996358156, -0.65772058823529
301, -0.88465618762699, -1.3660672310297, -0.65772058823529
302, -1.0828175770195, -1.2150153681735, -0.65772058823529
303, -1.2555986401602, -1.0354845748865, -0.65772058823529
304, -1.3989495353717, -0.83168290080017, -0.65772058823529
305, -1.5095102391687, -0.60838728442085, -0.65772058823529
306, -1.5846893023611, -0.37083158573985, -0.65772058823529
307, -1.6227245914265, -0.12458390899139, -0.65772058823529
308, -1.6227245914265, 0.1245839089914, -0.65772058823529
309, -1.5846893023611, 0.37083158573986, -0.65772058823529
310, -1.5095102391687, 0.60838728442085, -0.65772058823529
311, -1.3989495353717, 0.83168290080017, -0.65772058823529
312, -1.2555986401602, 1.0354845748865, -0.65772058823529
313, -1.0828175770195, 1.2150153681735, -0.65772058823529
314, -0.88465618762699, 1.3660672310297, -0.65772058823529
315, -0.66575920699635, 1.4850996358156, -0.65772058823529
316, -0.43125739482507, 1.56932256385, -0.65772058823529
317, -0.1866472748359, 1.6167619010839, -0.65772058823529
318, 0.062337699080532, 1.6263057096602, -0.65772058823529
319, 0.3098615301655, 1.5977302907949, -0.65772058823529
320, 0.55012246960983, 1.5317054280867, -0.65772058823529
321, 0.77748900462871, 1.4297786883576, -0.65772058823529
322, 0.9866318563482, 1.2943391479975, -0.65772058823529
323, 1.1726488935853, 1.1285613950394, -0.65772058823529
324, 1.3311800346478, 0.9363311195058, -0.65772058823529
325, 1.4585094439541, 0.72215403612848, -0.65772058823529
326, 1.5516526280694, 0.49105027421368, -0.65772058823529
327, 1.6084263897025, 0.24843671006622, -0.65772058823529
328, 1.6084263897025, -0.24843671006621, -0.90044117647059
329, 1.5516526280694, -0.49105027421367, -0.90044117647059
330, 1.4585094439541, -0.72215403612847, -0.90044117647059
331, 1.3311800346478, -0.9363311195058, -0.90044117647059
332, 1.1726488935853, -1.1285613950394, -0.90044117647059
333, 0.9866318563482, -1.2943391479975, -0.90044117647059
334, 0.77748900462871, -1.4297786883576, -0.90044117647059
335, 0.55012246960984, -1.5317054280867, -0.90044117647059
336, 0.3098615301655, -1.5977302907949, -0.90044117647059
337, 0.062337699080533, -1.6263057096602, -0.90044117647059
338, -0.1866472748359, -1.6167619010839, -0.90044117647059
339, -0.43125739482507, -1.56932256385, -0.90044117647059
340, -0.66575920699636, -1.4850996358156, -0.90044117647059
341, -0.88465618762699, -1.3660672310297, -0.90044117647059
342, -1.0828175770195, -1.2150153681735, -0.90044117647059
343, -1.2555986401602, -1.0354845748865, -0.90044117647059
344, -1.3989495353717, -0.83168290080017, -0.90044117647059
345, -1.5095102391687, -0.60838728442085, -0.90044117647059
346, -1.5846893023611, -0.37083158573985, -0.90044117647059
347, -1.6227245914265, -0.12458390899139, -0.90044117647059
348, -1.6227245914265, 0.1245839089914, -0.90044117647059
349, -1.5846893023611, 0.37083158573986, -0.90044117647059
350, -1.5095102391687, 0.60838728442085, -0.90044117647059
351, -1.3989495353717, 0.83168290080017, -0.90044117647059
352, -1.2555986401602, 1.0354845748865, -0.90044117647059
353, -1.0828175770195, 1.2150153681735, -0.90044117647059
354, -0.88465618762699, 1.3660672310297, -0.90044117647059
355, -0.66575920699635, 1.4850996358156, -0.90044117647059
356, -0.43125739482507, 1.56932256385, -0.90044117647059
357, -0.1866472748359, 1.6167619010839, -0.90044117647059
358, 0.062337699080532, 1.6263057096602, -0.90044117647059
359, 0.3098615301655, 1.5977302907949, -0.90044117647059
360, 0.55012246960984, 1.5317054280867, -0.90044117647059
361, 0.77748900462871, 1.4297786883576, -0.90044117647059
362, 0.9866318563482, 1.2943391479975, -0.90044117647059
363, 1.1726488935853, 1.1285613950394, -0.90044117647059
364, 1.3311800346478, 0.9363311195058, -0.90044117647059
365, 1.4585094439541, 0.72215403612848, -0.90044117647059
366, 1.5516526280694, 0.49105027421368, -0.90044117647059
367, 1.6084263897025, 0.24843671006622, -0.90044117647059
368, 1.6084263897025, -0.24843671006621, -1.1431617647059
369, 1.5516526280694, -0.49105027421367, -1.1431617647059
370, 1.4585094439541, -0.72215403612847, -1.1431617647059
371, 1.3311800346478, -0.9363311195058, -1.1431617647059
372, 1.1726488935853, -1.1285613950394, -1.1431617647059
373, 0.98663185634821, -1.2943391479975, -1.1431617647059
374, 0.77748900462871, -1.4297786883576, -1.1431617647059
375, 0.55012246960984, -1.5317054280867, -1.1431617647059
376, 0.3098615301655, -1.5977302907949, -1.1431617647059
377, 0.062337699080533, -1.6263057096602, -1.1431617647059
378, -0.1866472748359, -1.6167619010839, -1.1431617647059
379, -0.43125739482507, -1.56932256385, -1.1431617647059
380, -0.66575920699636, -1.4850996358156, -1.1431617647059
381, -0.88465618762699, -1.3660672310297, -1.1431617647059
382, -1.0828175770195, -1.2150153681735, -1.1431617647059
383, -1.2555986401602, -1.0354845748865, -1.1431617647059
384, -1.3989495353717, -0.83168290080017, -1.1431617647059
385, -1.5095102391687, -0.60838728442085, -1.1431617647059
386, -1.5846893023611, -0.37083158573985, -1.1431617647059
387, -1.6227245914265, -0.12458390899139, -1.1431617647059
388, -1.6227245914265, 0.1245839089914, -1.1431617647059
389, -1.5846893023611, 0.37083158573986, -1.1431617647059
390, -1.5095102391687, 0.60838728442085, -1.1431617647059
391, -1.3989495353717, 0.83168290080017, -1.1431617647059
392, -1.2555986401602, 1.0354845748865, -1.1431617647059
393, -1.0828175770195, 1.2150153681735, -1.1431617647059
394, -0.88465618762699, 1.3660672310297, -1.1431617647059
395, -0.66575920699635, 1.4850996358156, -1.1431617647059
396, -0.43125739482507, 1.56932256385, -1.1431617647059
397, -0.1866472748359, 1.6167619010839, -1.1431617647059
398, 0.062337699080532, 1.6263057096602, -1.1431617647059
399, 0.3098615301655, 1.5977302907949, -1.1431617647059
400, 0.55012246960984, 1.5317054280867, -1.1431617647059
401, 0.77748900462871, 1.4297786883576, -1.1431617647059
402, 0.9866318563482, 1.2943391479975, -1.1431617647059
403, 1.1726488935853, 1.1285613950394, -1.1431617647059
404, 1.3311800346478, 0.93633111950581, -1.1431617647059
405, 1.4585094439541, 0.72215403612847, -1.1431617647059
406, 1.5516526280694, 0.49105027421368, -1.1431617647059
407, 1.6084263897025, 0.24843671006622, -1.1431617647059
408, 1.6084263897025, -0.24843671006621, -1.3858823529412
409, 1.5516526280694, -0.49105027421367, -1.3858823529412
410, 1.4585094439541, -0.72215403612847, -1.3858823529412
411, 1.3311800346478, -0.9363311195058, -1.3858823529412
412, 1.1726488935853, -1.1285613950394, -1.3858823529412
413, 0.98663185634821, -1.2943391479975, -1.3858823529412
414, 0.77748900462871, -1.4297786883576, -1.3858823529412
415, 0.55012246960984, -1.5317054280867, -1.3858823529412
416, 0.3098615301655, -1.5977302907949, -1.3858823529412
417, 0.062337699080533, -1.6263057096602, -1.3858823529412
418, -0.1866472748359, -1.6167619010839, -1.3858823529412
419, -0.43125739482507, -1.56932256385, -1.3858823529412
420, -0.66575920699636, -1.4850996358156, -1.3858823529412
421, -0.88465618762699, -1.3660672310297, -1.3858823529412
422, -1.0828175770195, -1.2150153681735, -1.3858823529412
423, -1.2555986401602, -1.0354845748865, -1.3858823529412
424, -1.3989495353717, -0.83168290080017, -1.3858823529412
425, -1.5095102391687, -0.60838728442085, -1.3858823529412
426, -1.5846893023611, -0.37083158573985, -1.3858823529412
427, -1.6227245914265, -0.1245839089914, -1.3858823529412
428, -1.6227245914265, 0.1245839089914, -1.3858823529412
429, -1.5846893023611, 0.37083158573986, -1.3858823529412
430, -1.5095102391687, 0.60838728442085, -1.3858823529412
431, -1.3989495353717, 0.83168290080017, -1.3858823529412
432, -1.2555986401602, 1.0354845748865, -1.3858823529412
433, -1.0828175770195, 1.2150153681735, -1.3858823529412
434, -0.88465618762699, 1.3660672310297, -1.3858823529412
435, -0.66575920699635, 1.4850996358156, -1.3858823529412
436, -0.43125739482507, 1.56932256385, -1.3858823529412
437, -0.1866472748359, 1.6167619010839, -1.3858823529412
438, 0.062337699080532, 1.6263057096602, -1.3858823529412
439, 0.3098615301655, 1.5977302907949, -1.3858823529412
440, 0.55012246960984, 1.5317054280867, -1.3858823529412
441, 0.77748900462871, 1.4297786883576, -1.3858823529412
442, 0.9866318563482, 1.2943391479975, -1.3858823529412
443, 1.1726488935853, 1.1285613950394, -1.3858823529412
444, 1.3311800346478, 0.9363311195058, -1.3858823529412
445, 1.4585094439541, 0.72215403612848, -1.3858823529412
446, 1.5516526280694, 0.49105027421367, -1.3858823529412
447, 1.6084263897025, 0.24843671006622, -1.3858823529412
448, 1.6084263897025, -0.24843671006621, -1.6286029411765
449, 1.5516526280694, -0.49105027421367, -1.6286029411765
450, 1.4585094439541, -0.72215403612847, -1.6286029411765
451, 1.3311800346478, -0.9363311195058, -1.6286029411765
452, 1.1726488935853, -1.1285613950394, -1.6286029411765
453, 0.98663185634821, -1.2943391479975, -1.6286029411765
454, 0.77748900462871, -1.4297786883576, -1.6286029411765
455, 0.55012246960984, -1.5317054280867, -1.6286029411765
456, 0.3098615301655, -1.5977302907949, -1.6286029411765
457, 0.062337699080533, -1.6263057096602, -1.6286029411765
458, -0.1866472748359, -1.6167619010839, -1.6286029411765
459, -0.43125739482507, -1.56932256385, -1.6286029411765
460, -0.66575920699636, -1.4850996358156, -1.6286029411765
461, -0.88465618762699, -1.3660672310297, -1.6286029411765
462, -1.0828175770195, -1.2150153681735, -1.6286029411765
463, -1.2555986401602, -1.0354845748865, -1.6286029411765
464, -1.3989495353717, -0.83168290080017, -1.6286029411765
465, -1.5095102391687, -0.60838728442085, -1.6286029411765
466, -1.5846893023611, -0.37083158573985, -1.6286029411765
467, -1.6227245914265, -0.12458390899139, -1.6286029411765
468, -1.6227245914265, 0.1245839089914, -1.6286029411765
469, -1.5846893023611, 0.37083158573986, -1.6286029411765
470, -1.5095102391687, 0.60838728442085, -1.6286029411765
471, -1.3989495353717, 0.83168290080017, -1.6286029411765
472, -1.2555986401602, 1.0354845748865, -1.6286029411765
473, -1.0828175770195, 1.2150153681735, -1.6286029411765
474, -0.88465618762699, 1.3660672310297, -1.6286029411765
475, -0.66575920699635, 1.4850996358156, -1.6286029411765
476, -0.43125739482507, 1.56932256385, -1.6286029411765
477, -0.18664727483589, 1.6167619010839, -1.6286029411765
478, 0.062337699080532, 1.6263057096602, -1.6286029411765
479, 0.3098615301655, 1.5977302907949, -1.6286029411765
480, 0.55012246960984, 1.5317054280867, -1.6286029411765
481, 0.77748900462871, 1.4297786883576, -1.6286029411765
482, 0.9866318563482, 1.2943391479975, -1.6286029411765
483, 1.1726488935853, 1.1285613950394, -1.6286029411765
484, 1.3311800346478, 0.9363311195058, -1.6286029411765
485, 1.4585094439541, 0.72215403612848, -1.6286029411765
486, 1.5516526280694, 0.49105027421368, -1.6286029411765
487, 1.6084263897025, 0.24843671006622, -1.6286029411765
488, 1.6084263897025, -0.24843671006621, -1.8713235294118
489, 1.5516526280694, -0.49105027421367, -1.8713235294118
490, 1.4585094439541, -0.72215403612847, -1.8713235294118
491, 1.3311800346478, -0.9363311195058, -1.8713235294118
492, 1.1726488935853, -1.1285613950394, -1.8713235294118
493, 0.98663185634821, -1.2943391479975, -1.8713235294118
494, 0.77748900462871, -1.4297786883576, -1.8713235294118
495, 0.55012246960984, -1.5317054280867, -1.8713235294118
496, 0.3098615301655, -1.5977302907949, -1.8713235294118
497, 0.062337699080533, -1.6263057096602, -1.8713235294118
498, -0.1866472748359, -1.6167619010839, -1.8713235294118
499, -0.43125739482507, -1.56932256385, -1.8713235294118
500, -0.66575920699636, -1.4850996358156, -1.8713235294118
501, -0.88465618762699, -1.3660672310297, -1.8713235294118
502, -1.0828175770195, -1.2150153681735, -1.8713235294118
503, -1.2555986401602, -1.0354845748865, -1.8713235294118
504, -1.3989495353717, -0.83168290080017, -1.8713235294118
505, -1.5095102391687, -0.60838728442085, -1.8713235294118
506, -1.5846893023611, -0.37083158573985, -1.8713235294118
507, -1.6227245914265, -0.1245839089914, -1.8713235294118
508, -1.6227245914265, 0.1245839089914, -1.8713235294118
509, -1.5846893023611, 0.37083158573986, -1.8713235294118
510, -1.5095102391687, 0.60838728442085, -1.8713235294118
511, -1.3989495353717, 0.83168290080017, -1.8713235294118
512, -1.2555986401602, 1.0354845748865, -1.8713235294118
513, -1.0828175770195, 1.2150153681735, -1.8713235294118
514, -0.88465618762699, 1.3660672310297, -1.8713235294118
515, -0.66575920699635, 1.4850996358156, -1.8713235294118
516, -0.43125739482507, 1.56932256385, -1.8713235294118
517, -0.18664727483589, 1.6167619010839, -1.8713235294118
518, 0.062337699080532, 1.6263057096602, -1.8713235294118
519, 0.3098615301655, 1.5977302907949, -1.8713235294118
520, 0.55012246960984, 1.5317054280867, -1.8713235294118
521, 0.77748900462871, 1.4297786883576, -1.8713235294118
522, 0.9866318563482, 1.2943391479975, -1.8713235294118
523, 1.1726488935853, 1.1285613950394, -1.8713235294118
524, 1.3311800346478, 0.9363311195058, -1.8713235294118
525, 1.4585094439541, 0.72215403612848, -1.8713235294118
526, 1.5516526280694, 0.49105027421367, -1.8713235294118
527, 1.6084263897025, 0.24843671006622, -1.8713235294118
528, 1.6084263897025, -0.24843671006621, -2.1140441176471
529, 1.5516526280694, -0.49105027421367, -2.1140441176471
530, 1.4585094439541, -0.72215403612847, -2.1140441176471
531, 1.3311800346478, -0.9363311195058, -2.1140441176471
532, 1.1726488935853, -1.1285613950394, -2.1140441176471
533, 0.98663185634821, -1.2943391479975, -2.1140441176471
534, 0.77748900462871, -1.4297786883576, -2.1140441176471
535, 0.55012246960984, -1.5317054280867, -2.1140441176471
536, 0.3098615301655, -1.5977302907949, -2.1140441176471
537, 0.062337699080533, -1.6263057096602, -2.1140441176471
538, -0.1866472748359, -1.6167619010839, -2.1140441176471
539, -0.43125739482507, -1.56932256385, -2.1140441176471
540, -0.66575920699636, -1.4850996358156, -2.1140441176471
541, -0.88465618762699, -1.3660672310297, -2.1140441176471
542, -1.0828175770195, -1.2150153681735, -2.1140441176471
543, -1.2555986401602, -1.0354845748865, -2.1140441176471
544, -1.3989495353717, -0.83168290080017, -2.1140441176471
545, -1.5095102391687, -0.60838728442085, -2.1140441176471
546, -1.5846893023611, -0.37083158573985, -2.1140441176471
547, -1.6227245914265, -0.12458390899139, -2.1140441176471
548, -1.6227245914265, 0.1245839089914, -2.1140441176471
549, -1.5846893023611, 0.37083158573986, -2.1140441176471
550, -1.5095102391687, 0.60838728442085, -2.1140441176471
551, -1.3989495353717, 0.83168290080017, -2.1140441176471
552, -1.2555986401602, 1.0354845748865, -2.1140441176471
553, -1.0828175770195, 1.2150153681735, -2.1140441176471
554, -0.88465618762699, 1.3660672310297, -2.1140441176471
555, -0.66575920699635, 1.4850996358156, -2.1140441176471
556, -0.43125739482507, 1.56932256385, -2.1140441176471
557, -0.1866472748359, 1.6167619010839, -2.1140441176471
558, 0.062337699080532, 1.6263057096602, -2.1140441176471
559, 0.3098615301655, 1.5977302907949, -2.1140441176471
560, 0.55012246960984, 1.5317054280867, -2.1140441176471
561, 0.77748900462871, 1.4297786883576, -2.1140441176471
562, 0.9866318563482, 1.2943391479975, -2.1140441176471
563, 1.1726488935853, 1.1285613950394, -2.1140441176471
564, 1.3311800346478, 0.9363311195058, -2.1140441176471
565, 1.4585094439541, 0.72215403612848, -2.1140441176471
566, 1.5516526280694, 0.49105027421367, -2.1140441176471
567, 1.6084263897025, 0.24843671006622, -2.1140441176471
568, 1.6084263897025, -0.24843671006621, -2.3567647058824
569, 1.5516526280694, -0.49105027421367, -2.3567647058824
570, 1.4585094439541, -0.72215403612847, -2.3567647058824
571, 1.3311800346478, -0.9363311195058, -2.3567647058824
572, 1.1726488935853, -1.1285613950394, -2.3567647058824
573, 0.98663185634821, -1.2943391479975, -2.3567647058824
574, 0.77748900462871, -1.4297786883576, -2.3567647058824
575, 0.55012246960984, -1.5317054280867, -2.3567647058824
576, 0.3098615301655, -1.5977302907949, -2.3567647058824
577, 0.062337699080533, -1.6263057096602, -2.3567647058824
578, -0.1866472748359, -1.6167619010839, -2.3567647058824
579, -0.43125739482507, -1.56932256385, -2.3567647058824
580, -0.66575920699636, -1.4850996358156, -2.3567647058824
581, -0.88465618762699, -1.3660672310297, -2.3567647058824
582, -1.0828175770195, -1.2150153681735, -2.3567647058824
583, -1.2555986401602, -1.0354845748865, -2.3567647058824
584, -1.3989495353717, -0.83168290080017, -2.3567647058824
585, -1.5095102391687, -0.60838728442085, -2.3567647058824
586, -1.5846893023611, -0.37083158573985, -2.3567647058824
587, -1.6227245914265, -0.12458390899139, -2.3567647058824
588, -1.6227245914265, 0.1245839089914, -2.3567647058824
589, -1.5846893023611, 0.37083158573986, -2.3567647058824
590, -1.5095102391687, 0.60838728442085, -2.3567647058824
591, -1.3989495353717, 0.83168290080017, -2.3567647058824
592, -1.2555986401602, 1.0354845748865, -2.3567647058824
593, -1.0828175770195, 1.2150153681735, -2.3567647058824
594, -0.88465618762699, 1.3660672310297, -2.3567647058824
595, -0.66575920699636, 1.4850996358156, -2.3567647058824
596, -0.43125739482506, 1.56932256385, -2.3567647058824
597, -0.1866472748359, 1.6167619010839, -2.3567647058824
598, 0.062337699080532, 1.6263057096602, -2.3567647058824
599, 0.3098615301655, 1.5977302907949, -2.3567647058824
600, 0.55012246960984, 1.5317054280867, -2.3567647058824
601, 0.77748900462871, 1.4297786883576, -2.3567647058824
602, 0.9866318563482, 1.2943391479975, -2.3567647058824
603, 1.1726488935853, 1.1285613950394, -2.3567647058824
604, 1.3311800346478, 0.9363311195058, -2.3567647058824
605, 1.4585094439541, 0.72215403612848, -2.3567647058824
606, 1.5516526280694, 0.49105027421368, -2.3567647058824
607, 1.6084263897025, 0.24843671006622, -2.3567647058824
608, 1.6084263897025, -0.24843671006621, -2.5994852941176
609, 1.5516526280694, -0.49105027421367, -2.5994852941176
610, 1.4585094439541, -0.72215403612847, -2.5994852941176
611, 1.3311800346478, -0.9363311195058, -2.5994852941176
612, 1.1726488935853, -1.1285613950394, -2.5994852941176
613, 0.98663185634821, -1.2943391479975, -2.5994852941176
614, 0.77748900462871, -1.4297786883576, -2.5994852941176
615, 0.55012246960984, -1.5317054280867, -2.5994852941176
616, 0.3098615301655, -1.5977302907949, -2.5994852941176
617, 0.062337699080533, -1.6263057096602, -2.5994852941176
618, -0.1866472748359, -1.6167619010839, -2.5994852941176
619, -0.43125739482507, -1.56932256385, -2.5994852941176
620, -0.66575920699636, -1.4850996358156, -2.5994852941176
621, -0.88465618762699, -1.3660672310297, -2.5994852941176
622, -1.0828175770195, -1.2150153681735, -2.5994852941176
623, -1.2555986401602, -1.0354845748865, -2.5994852941176
624, -1.3989495353717, -0.83168290080017, -2.5994852941176
625, -1.5095102391687, -0.60838728442085, -2.5994852941176
626, -1.5846893023611, -0.37083158573985, -2.5994852941176
627, -1.6227245914265, -0.12458390899139, -2.5994852941176
628, -1.6227245914265, 0.1245839089914, -2.5994852941176
629, -1.5846893023611, 0.37083158573986, -2.5994852941176
630, -1.5095102391687, 0.60838728442085, -2.5994852941176
631, -1.3989495353717, 0.83168290080017, -2.5994852941176
632, -1.2555986401602, 1.0354845748865, -2.5994852941176
633, -1.0828175770195, 1.2150153681735, -2.5994852941176
634, -0.88465618762699, 1.3660672310297, -2.5994852941176
635, -0.66575920699635, 1.4850996358156, -2.5994852941176
636, -0.43125739482507, 1.56932256385, -2.5994852941176
637, -0.1866472748359, 1.6167619010839, -2.5994852941176
638, 0.062337699080532, 1.6263057096602, -2.5994852941176
639, 0.3098615301655, 1.5977302907949, -2.5994852941176
640, 0.55012246960984, 1.5317054280867, -2.5994852941176
641, 0.77748900462871, 1.4297786883576, -2.5994852941176
642, 0.9866318563482, 1.2943391479975, -2.5994852941176
643, 1.1726488935853, 1.1285613950394, -2.5994852941176
644, 1.3311800346478, 0.9363311195058, -2.5994852941176
645, 1.4585094439541, 0.72215403612847, -2.5994852941176
646, 1.5516526280694, 0.49105027421368, -2.5994852941176
647, 1.6084263897025, 0.24843671006622, -2.5994852941176
648, 1.6084263897025, -0.24843671006621, -2.8422058823529
649, 1.5516526280694, -0.49105027421367, -2.8422058823529
650, 1.4585094439541, -0.72215403612847, -2.8422058823529
651, 1.3311800346478, -0.9363311195058, -2.8422058823529
652, 1.1726488935853, -1.1285613950394, -2.8422058823529
653, 0.98663185634821, -1.2943391479975, -2.8422058823529
654, 0.77748900462871, -1.4297786883576, -2.8422058823529
655, 0.55012246960984, -1.5317054280867, -2.8422058823529
656, 0.3098615301655, -1.5977302907949, -2.8422058823529
657, 0.062337699080533, -1.6263057096602, -2.8422058823529
658, -0.1866472748359, -1.6167619010839, -2.8422058823529
659, -0.43125739482507, -1.56932256385, -2.8422058823529
660, -0.66575920699636, -1.4850996358156, -2.8422058823529
661, -0.88465618762699, -1.3660672310297, -2.8422058823529
662, -1.0828175770195, -1.2150153681735, -2.8422058823529
663, -1.2555986401602, -1.0354845748865, -2.8422058823529
664, -1.3989495353717, -0.83168290080017, -2.8422058823529
665, -1.5095102391687, -0.60838728442085, -2.8422058823529
666, -1.5846893023611, -0.37083158573985, -2.8422058823529
667, -1.6227245914265, -0.1245839089914, -2.8422058823529
668, -1.6227245914265, 0.1245839089914, -2.8422058823529
669, -1.5846893023611, 0.37083158573986, -2.8422058823529
670, -1.5095102391687, 0.60838728442085, -2.8422058823529
671, -1.3989495353717, 0.83168290080017, -2.8422058823529
672, -1.2555986401602, 1.0354845748865, -2.8422058823529
673, -1.0828175770195, 1.2150153681735, -2.8422058823529
674, -0.88465618762699, 1.3660672310297, -2.8422058823529
675, -0.66575920699635, 1.4850996358156, -2.8422058823529
676, -0.43125739482507, 1.56932256385, -2.8422058823529
677, -0.1866472748359, 1.6167619010839, -2.8422058823529
678, 0.062337699080531, 1.6263057096602, -2.8422058823529
679, 0.3098615301655, 1.5977302907949, -2.8422058823529
680, 0.55012246960984, 1.5317054280867, -2.8422058823529
681, 0.77748900462871, 1.4297786883576, -2.8422058823529
682, 0.9866318563482, 1.2943391479975, -2.8422058823529
683, 1.1726488935853, 1.1285613950394, -2.8422058823529
684, 1.3311800346478, 0.9363311195058, -2.8422058823529
685, 1.4585094439541, 0.72215403612848, -2.8422058823529
686, 1.5516526280694, 0.49105027421367, -2.8422058823529
687, 1.6084263897025, 0.24843671006622, -2.8422058823529
688, 1.6084263897025, -0.24843671006621, -3.0849264705882
689, 1.5516526280694, -0.49105027421367, -3.0849264705882
690, 1.4585094439541, -0.72215403612847, -3.0849264705882
691, 1.3311800346478, -0.9363311195058, -3.0849264705882
692, 1.1726488935853, -1.1285613950394, -3.0849264705882
693, 0.98663185634821, -1.2943391479975, -3.0849264705882
694, 0.77748900462871, -1.4297786883576, -3.0849264705882
695, 0.55012246960984, -1.5317054280867, -3.0849264705882
696, 0.3098615301655, -1.5977302907949, -3.0849264705882
697, 0.062337699080533, -1.6263057096602, -3.0849264705882
698, -0.1866472748359, -1.6167619010839, -3.0849264705882
699, -0.43125739482507, -1.56932256385, -3.0849264705882
700, -0.66575920699636, -1.4850996358156, -3.0849264705882
701, -0.88465618762699, -1.3660672310297, -3.0849264705882
702, -1.0828175770195, -1.2150153681735, -3.0849264705882
703, -1.2555986401602, -1.0354845748865, -3.0849264705882
704, -1.3989495353717, -0.83168290080017, -3.0849264705882
705, -1.5095102391687, -0.60838728442085, -3.0849264705882
706, -1.5846893023611, -0.37083158573985, -3.0849264705882
707, -1.6227245914265, -0.12458390899139, -3.0849264705882
708, -1.6227245914265, 0.1245839089914, -3.0849264705882
709, -1.5846893023611, 0.37083158573986, -3.0849264705882
710, -1.5095102391687, 0.60838728442085, -3.0849264705882
711, -1.3989495353717, 0.83168290080017, -3.0849264705882
712, -1.2555986401602, 1.0354845748865, -3.0849264705882
713, -1.0828175770195, 1.2150153681735, -3.0849264705882
714, -0.88465618762699, 1.3660672310297, -3.0849264705882
715, -0.66575920699635, 1.4850996358156, -3.0849264705882
716, -0.43125739482507, 1.56932256385, -3.0849264705882
717, -0.1866472748359, 1.6167619010839, -3.0849264705882
718, 0.062337699080532, 1.6263057096602, -3.0849264705882
719, 0.3098615301655, 1.5977302907949, -3.0849264705882
720, 0.55012246960984, 1.5317054280867, -3.0849264705882
721, 0.77748900462871, 1.4297786883576, -3.0849264705882
722, 0.9866318563482, 1.2943391479975, -3.0849264705882
723, 1.1726488935853, 1.1285613950394, -3.0849264705882
724, 1.3311800346478, 0.9363311195058, -3.0849264705882
725, 1.4585094439541, 0.72215403612848, -3.0849264705882
726, 1.5516526280694, 0.49105027421367, -3.0849264705882
727, 1.6084263897025, 0.24843671006622, -3.0849264705882
728, 1.6084263897025, -0.24843671006621, -3.3276470588235
729, 1.5516526280694, -0.49105027421367, -3.3276470588235
730, 1.4585094439541, -0.72215403612847, -3.3276470588235
731, 1.3311800346478, -0.9363311195058, -3.3276470588235
732, 1.1726488935853, -1.1285613950394, -3.3276470588235
733, 0.98663185634821, -1.2943391479975, -3.3276470588235
734, 0.77748900462871, -1.4297786883576, -3.3276470588235
735, 0.55012246960984, -1.5317054280867, -3.3276470588235
736, 0.3098615301655, -1.5977302907949, -3.3276470588235
737, 0.062337699080533, -1.6263057096602, -3.3276470588235
738, -0.1866472748359, -1.6167619010839, -3.3276470588235
739, -0.43125739482507, -1.56932256385, -3.3276470588235
740, -0.66575920699636, -1.4850996358156, -3.3276470588235
741, -0.88465618762699, -1.3660672310297, -3.3276470588235
742, -1.0828175770195, -1.2150153681735, -3.3276470588235
743, -1.2555986401602, -1.0354845748865, -3.3276470588235
744, -1.3989495353717, -0.83168290080017, -3.3276470588235
745, -1.5095102391687, -0.60838728442085, -3.3276470588235
746, -1.5846893023611, -0.37083158573985, -3.3276470588235
747, -1.6227245914265, -0.12458390899139, -3.3276470588235
748, -1.6227245914265, 0.1245839089914, -3.3276470588235
749, -1.5846893023611, 0.37083158573986, -3.3276470588235
750, -1.5095102391687, 0.60838728442085, -3.3276470588235
751, -1.3989495353717, 0.83168290080017, -3.3276470588235
752, -1.2555986401602, 1.0354845748865, -3.3276470588235
753, -1.0828175770195, 1.2150153681735, -3.3276470588235
754, -0.88465618762699, 1.3660672310297, -3.3276470588235
755, -0.66575920699635, 1.4850996358156, -3.3276470588235
756, -0.43125739482507, 1.56932256385, -3.3276470588235
757, -0.1866472748359, 1.6167619010839, -3.3276470588235
758, 0.062337699080532, 1.6263057096602, -3.3276470588235
759, 0.3098615301655, 1.5977302907949, -3.3276470588235
760, 0.55012246960984, 1.5317054280867, -3.3276470588235
761, 0.7774890046287, 1.4297786883576, -3.3276470588235
762, 0.9866318563482, 1.2943391479975, -3.3276470588235
763, 1.1726488935853, 1.1285613950394, -3.3276470588235
764, 1.3311800346478, 0.9363311195058, -3.3276470588235
765, 1.4585094439541, 0.72215403612848, -3.3276470588235
766, 1.5516526280694, 0.49105027421367, -3.3276470588235
767, 1.6084263897025, 0.24843671006622, -3.3276470588235
768, 1.6084263897025, -0.24843671006621, -3.5703676470588
769, 1.5516526280694, -0.49105027421367, -3.5703676470588
770, 1.4585094439541, -0.72215403612847, -3.5703676470588
771, 1.3311800346478, -0.9363311195058, -3.5703676470588
772, 1.1726488935853, -1.1285613950394, -3.5703676470588
773, 0.98663185634821, -1.2943391479975, -3.5703676470588
774, 0.77748900462871, -1.4297786883576, -3.5703676470588
775, 0.55012246960984, -1.5317054280867, -3.5703676470588
776, 0.3098615301655, -1.5977302907949, -3.5703676470588
777, 0.062337699080533, -1.6263057096602, -3.5703676470588
778, -0.1866472748359, -1.6167619010839, -3.5703676470588
779, -0.43125739482507, -1.56932256385, -3.5703676470588
780, -0.66575920699636, -1.4850996358156, -3.5703676470588
781, -0.88465618762699, -1.3660672310297, -3.5703676470588
782, -1.0828175770195, -1.2150153681735, -3.5703676470588
783, -1.2555986401602, -1.0354845748865, -3.5703676470588
784, -1.3989495353717, -0.83168290080017, -3.5703676470588
785, -1.5095102391687, -0.60838728442085, -3.5703676470588
786, -1.5846893023611, -0.37083158573985, -3.5703676470588
787, -1.6227245914265, -0.12458390899139, -3.5703676470588
788, -1.6227245914265, 0.1245839089914, -3.5703676470588
789, -1.5846893023611, 0.37083158573986, -3.5703676470588
790, -1.5095102391687, 0.60838728442085, -3.5703676470588
791, -1.3989495353717, 0.83168290080018, -3.5703676470588
792, -1.2555986401602, 1.0354845748865, -3.5703676470588
793, -1.0828175770195, 1.2150153681735, -3.5703676470588
794, -0.88465618762699, 1.3660672310297, -3.5703676470588
795, -0.66575920699635, 1.4850996358156, -3.5703676470588
796, -0.43125739482507, 1.56932256385, -3.5703676470588
797, -0.1866472748359, 1.6167619010839, -3.5703676470588
798, 0.062337699080532, 1.6263057096602, -3.5703676470588
799, 0.3098615301655, 1.5977302907949, -3.5703676470588
800, 0.55012246960983, 1.5317054280867, -3.5703676470588
801, 0.77748900462871, 1.4297786883576, -3.5703676470588
802, 0.9866318563482, 1.2943391479975, -3.5703676470588
803, 1.1726488935853, 1.1285613950394, -3.5703676470588
804, 1.3311800346478, 0.9363311195058, -3.5703676470588
805, 1.4585094439541, 0.72215403612848, -3.5703676470588
806, 1.5516526280694, 0.49105027421367, -3.5703676470588
807, 1.6084263897025, 0.24843671006622, -3.5703676470588
808, 1.6084263897025, -0.24843671006621, -3.8130882352941
809, 1.5516526280694, -0.49105027421367, -3.8130882352941
810, 1.4585094439541, -0.72215403612847, -3.8130882352941
811, 1.3311800346478, -0.9363311195058, -3.8130882352941
812, 1.1726488935853, -1.1285613950394, -3.8130882352941
813, 0.98663185634821, -1.2943391479975, -3.8130882352941
814, 0.77748900462871, -1.4297786883576, -3.8130882352941
815, 0.55012246960984, -1.5317054280867, -3.8130882352941
816, 0.3098615301655, -1.5977302907949, -3.8130882352941
817, 0.062337699080533, -1.6263057096602, -3.8130882352941
818, -0.1866472748359, -1.6167619010839, -3.8130882352941
819, -0.43125739482507, -1.56932256385, -3.8130882352941
820, -0.66575920699636, -1.4850996358156, -3.8130882352941
821, -0.88465618762699, -1.3660672310297, -3.8130882352941
822, -1.0828175770195, -1.2150153681735, -3.8130882352941
823, -1.2555986401602, -1.0354845748865, -3.8130882352941
824, -1.3989495353717, -0.83168290080017, -3.8130882352941
825, -1.5095102391687, -0.60838728442085, -3.8130882352941
826, -1.5846893023611, -0.37083158573985, -3.8130882352941
827, -1.6227245914265, -0.12458390899139, -3.8130882352941
828, -1.6227245914265, 0.1245839089914, -3.8130882352941
829, -1.5846893023611, 0.37083158573986, -3.8130882352941
830, -1.5095102391687, 0.60838728442085, -3.8130882352941
831, -1.3989495353717, 0.83168290080017, -3.8130882352941
832, -1.2555986401602, 1.0354845748865, -3.8130882352941
833, -1.0828175770195, 1.2150153681735, -3.8130882352941
834, -0.88465618762699, 1.3660672310297, -3.8130882352941
835, -0.66575920699636, 1.4850996358156, -3.8130882352941
836, -0.43125739482507, 1.56932256385, -3.8130882352941
837, -0.1866472748359, 1.6167619010839, -3.8130882352941
838, 0.062337699080532, 1.6263057096602, -3.8130882352941
839, 0.3098615301655, 1.5977302907949, -3.8130882352941
840, 0.55012246960984, 1.5317054280867, -3.8130882352941
841, 0.77748900462871, 1.4297786883576, -3.8130882352941
842, 0.9866318563482, 1.2943391479975, -3.8130882352941
843, 1.1726488935853, 1.1285613950394, -3.8130882352941
844, 1.3311800346478, 0.9363311195058, -3.8130882352941
845, 1.4585094439541, 0.72215403612847, -3.8130882352941
846, 1.5516526280694, 0.49105027421367, -3.8130882352941
847, 1.6084263897025, 0.24843671006622, -3.8130882352941
848, 1.6084263897025, -0.24843671006621, -4.0558088235294
849, 1.5516526280694, -0.49105027421367, -4.0558088235294
850, 1.4585094439541, -0.72215403612847, -4.0558088235294
851, 1.3311800346478, -0.9363311195058, -4.0558088235294
852, 1.1726488935853, -1.1285613950394, -4.0558088235294
853, 0.98663185634821, -1.2943391479975, -4.0558088235294
854, 0.77748900462871, -1.4297786883576, -4.0558088235294
855, 0.55012246960984, -1.5317054280867, -4.0558088235294
856, 0.3098615301655, -1.5977302907949, -4.0558088235294
857, 0.062337699080533, -1.6263057096602, -4.0558088235294
858, -0.1866472748359, -1.6167619010839, -4.0558088235294
859, -0.43125739482507, -1.56932256385, -4.0558088235294
860, -0.66575920699636, -1.4850996358156, -4.0558088235294
861, -0.88465618762699, -1.3660672310297, -4.0558088235294
862, -1.0828175770195, -1.2150153681735, -4.0558088235294
863, -1.2555986401602, -1.0354845748865, -4.0558088235294
864, -1.3989495353717, -0.83168290080017, -4.0558088235294
865, -1.5095102391687, -0.60838728442085, -4.0558088235294
866, -1.5846893023611, -0.37083158573985, -4.0558088235294
867, -1.6227245914265, -0.12458390899139, -4.0558088235294
868, -1.6227245914265, 0.1245839089914, -4.0558088235294
869, -1.5846893023611, 0.37083158573986, -4.0558088235294
870, -1.5095102391687, 0.60838728442085, -4.0558088235294
871, -1.3989495353717, 0.83168290080018, -4.0558088235294
872, -1.2555986401602, 1.0354845748865, -4.0558088235294
873, -1.0828175770195, 1.2150153681735, -4.0558088235294
874, -0.88465618762699, 1.3660672310297, -4.0558088235294
875, -0.66575920699635, 1.4850996358156, -4.0558088235294
876, -0.43125739482507, 1.56932256385, -4.0558088235294
877, -0.18664727483589, 1.6167619010839, -4.0558088235294
878, 0.062337699080532, 1.6263057096602, -4.0558088235294
879, 0.3098615301655, 1.5977302907949, -4.0558088235294
880, 0.55012246960984, 1.5317054280867, -4.0558088235294
881, 0.77748900462871, 1.4297786883576, -4.0558088235294
882, 0.9866318563482, 1.2943391479975, -4.0558088235294
883, 1.1726488935853, 1.1285613950394, -4.0558088235294
884, 1.3311800346478, 0.9363311195058, -4.0558088235294
885, 1.4585094439541, 0.72215403612848, -4.0558088235294
886, 1.5516526280694, 0.49105027421368, -4.0558088235294
887, 1.6084263897025, 0.24843671006622, -4.0558088235294
888, 1.6084263897025, -0.24843671006621, -4.2985294117647
889, 1.5516526280694, -0.49105027421367, -4.2985294117647
890, 1.4585094439541, -0.72215403612847, -4.2985294117647
891, 1.3311800346478, -0.9363311195058, -4.2985294117647
892, 1.1726488935853, -1.1285613950394, -4.2985294117647
893, 0.98663185634821, -1.2943391479975, -4.2985294117647
894, 0.77748900462871, -1.4297786883576, -4.2985294117647
895, 0.55012246960984, -1.5317054280867, -4.2985294117647
896, 0.3098615301655, -1.5977302907949, -4.2985294117647
897, 0.062337699080533, -1.6263057096602, -4.2985294117647
898, -0.1866472748359, -1.6167619010839, -4.2985294117647
899, -0.43125739482507, -1.56932256385, -4.2985294117647
900, -0.66575920699636, -1.4850996358156, -4.2985294117647
901, -0.88465618762699, -1.3660672310297, -4.2985294117647
902, -1.0828175770195, -1.2150153681735, -4.2985294117647
903, -1.2555986401602, -1.0354845748865, -4.2985294117647
904, -1.3989495353717, -0.83168290080017, -4.2985294117647
905, -1.5095102391687, -0.60838728442085, -4.2985294117647
906, -1.5846893023611, -0.37083158573985, -4.2985294117647
907, -1.6227245914265, -0.12458390899139, -4.2985294117647
908, -1.6227245914265, 0.1245839089914, -4.2985294117647
909, -1.5846893023611, 0.37083158573986, -4.2985294117647
910, -1.5095102391687, 0.60838728442085, -4.2985294117647
911, -1.3989495353717, 0.83168290080017, -4.2985294117647
912, -1.2555986401602, 1.0354845748865, -4.2985294117647
913, -1.0828175770195, 1.2150153681735, -4.2985294117647
914, -0.88465618762699, 1.3660672310297, -4.2985294117647
915, -0.66575920699635, 1.4850996358156, -4.2985294117647
916, -0.43125739482507, 1.56932256385, -4.2985294117647
917, -0.1866472748359, 1.6167619010839, -4.2985294117647
918, 0.062337699080532, 1.6263057096602, -4.2985294117647
919, 0.3098615301655, 1.5977302907949, -4.2985294117647
920, 0.55012246960984, 1.5317054280867, -4.2985294117647
921, 0.77748900462871, 1.4297786883576, -4.2985294117647
922, 0.9866318563482, 1.2943391479975, -4.2985294117647
923, 1.1726488935853, 1.1285613950394, -4.2985294117647
924, 1.3311800346478, 0.9363311195058, -4.2985294117647
925, 1.4585094439541, 0.72215403612848, -4.2985294117647
926, 1.5516526280694, 0.49105027421368, -4.2985294117647
927, 1.6084263897025, 0.24843671006622, -4.2985294117647
928, 1.6084263897025, -0.24843671006621, -4.54125
929, 1.5516526280694, -0.49105027421367, -4.54125
930, 1.4585094439541, -0.72215403612847, -4.54125
931, 1.3311800346478, -0.9363311195058, -4.54125
932, 1.1726488935853, -1.1285613950394, -4.54125
933, 0.98663185634821, -1.2943391479975, -4.54125
934, 0.77748900462871, -1.4297786883576, -4.54125
935, 0.55012246960984, -1.5317054280867, -4.54125
936, 0.3098615301655, -1.5977302907949, -4.54125
937, 0.062337699080533, -1.6263057096602, -4.54125
938, -0.1866472748359, -1.6167619010839, -4.54125
939, -0.43125739482507, -1.56932256385, -4.54125
940, -0.66575920699636, -1.4850996358156, -4.54125
941, -0.88465618762699, -1.3660672310297, -4.54125
942, -1.0828175770195, -1.2150153681735, -4.54125
943, -1.2555986401602, -1.0354845748865, -4.54125
944, -1.3989495353717, -0.83168290080017, -4.54125
945, -1.5095102391687, -0.60838728442085, -4.54125
946, -1.5846893023611, -0.37083158573985, -4.54125
947, -1.6227245914265, -0.1245839089914, -4.54125
948, -1.6227245914265, 0.1245839089914, -4.54125
949, -1.5846893023611, 0.37083158573986, -4.54125
950, -1.5095102391687, 0.60838728442085, -4.54125
951, -1.3989495353717, 0.83168290080017, -4.54125
952, -1.2555986401602, 1.0354845748865, -4.54125
953, -1.0828175770195, 1.2150153681735, -4.54125
954, -0.88465618762699, 1.3660672310297, -4.54125
955, -0.66575920699635, 1.4850996358156, -4.54125
956, -0.43125739482507, 1.56932256385, -4.54125
957, -0.1866472748359, 1.6167619010839, -4.54125
958, 0.062337699080532, 1.6263057096602, -4.54125
959, 0.3098615301655, 1.5977302907949, -4.54125
960, 0.55012246960984, 1.5317054280867, -4.54125
961, 0.77748900462871, 1.4297786883576, -4.54125
962, 0.9866318563482, 1.2943391479975, -4.54125
963, 1.1726488935853, 1.1285613950394, -4.54125
964, 1.3311800346478, 0.9363311195058, -4.54125
965, 1.4585094439541, 0.72215403612848, -4.54125
966, 1.5516526280694, 0.49105027421368, -4.54125
967, 1.6084263897025, 0.24843671006622, -4.54125
968, 1.6084263897025, -0.24843671006621, -4.7839705882353
969, 1.5516526280694, -0.49105027421367, -4.7839705882353
970, 1.4585094439541, -0.72215403612847, -4.7839705882353
971, 1.3311800346478, -0.9363311195058, -4.7839705882353
972, 1.1726488935853, -1.1285613950394, -4.7839705882353
973, 0.98663185634821, -1.2943391479975, -4.7839705882353
974, 0.77748900462871, -1.4297786883576, -4.7839705882353
975, 0.55012246960984, -1.5317054280867, -4.7839705882353
976, 0.3098615301655, -1.5977302907949, -4.7839705882353
977, 0.062337699080533, -1.6263057096602, -4.7839705882353
978, -0.1866472748359, -1.6167619010839, -4.7839705882353
979, -0.43125739482507, -1.56932256385, -4.7839705882353
980, -0.66575920699636, -1.4850996358156, -4.7839705882353
981, -0.88465618762699, -1.3660672310297, -4.7839705882353
982, -1.0828175770195, -1.2150153681735, -4.7839705882353
983, -1.2555986401602, -1.0354845748865, -4.7839705882353
984, -1.3989495353717, -0.83168290080017, -4.7839705882353
985, -1.5095102391687, -0.60838728442085, -4.7839705882353
986, -1.5846893023611, -0.37083158573985, -4.7839705882353
987, -1.6227245914265, -0.12458390899139, -4.7839705882353
988, -1.6227245914265, 0.1245839089914, -4.7839705882353
989, -1.5846893023611, 0.37083158573986, -4.7839705882353
990, -1.5095102391687, 0.60838728442085, -4.7839705882353
991, -1.3989495353717, 0.83168290080017, -4.7839705882353
992, -1.2555986401602, 1.0354845748865, -4.7839705882353
993, -1.0828175770195, 1.2150153681735, -4.7839705882353
994, -0.88465618762699, 1.3660672310297, -4.7839705882353
995, -0.66575920699635, 1.4850996358156, -4.7839705882353
996, -0.43125739482507, 1.56932256385, -4.7839705882353
997, -0.1866472748359, 1.6167619010839, -4.7839705882353
998, 0.062337699080532, 1.6263057096602, -4.7839705882353
999, 0.3098615301655, 1.5977302907949, -4.7839705882353
1000, 0.55012246960984, 1.5317054280867, -4.7839705882353
1001, 0.77748900462871, 1.4297786883576, -4.7839705882353
1002, 0.9866318563482, 1.2943391479975, -4.7839705882353
1003, 1.1726488935853, 1.1285613950394, -4.7839705882353
1004, 1.3311800346478, 0.9363311195058, -4.7839705882353
1005, 1.4585094439541, 0.72215403612847, -4.7839705882353
1006, 1.5516526280694, 0.49105027421367, -4.7839705882353
1007, 1.6084263897025, 0.24843671006622, -4.7839705882353
1008, 1.6084263897025, -0.24843671006621, -5.0266911764706
1009, 1.5516526280694, -0.49105027421367, -5.0266911764706
1010, 1.4585094439541, -0.72215403612847, -5.0266911764706
1011, 1.3311800346478, -0.9363311195058, -5.0266911764706
1012, 1.1726488935853, -1.1285613950394, -5.0266911764706
1013, 0.98663185634821, -1.2943391479975, -5.0266911764706
1014, 0.77748900462871, -1.4297786883576, -5.0266911764706
1015, 0.55012246960984, -1.5317054280867, -5.0266911764706
1016, 0.3098615301655, -1.5977302907949, -5.0266911764706
1017, 0.062337699080533, -1.6263057096602, -5.0266911764706
1018, -0.1866472748359, -1.6167619010839, -5.0266911764706
1019, -0.43125739482507, -1.56932256385, -5.0266911764706
1020, -0.66575920699636, -1.4850996358156, -5.0266911764706
1021, -0.88465618762699, -1.3660672310297, -5.0266911764706
1022, -1.0828175770195, -1.2150153681735, -5.0266911764706
1023, -1.2555986401602, -1.0354845748865, -5.0266911764706
1024, -1.3989495353717, -0.83168290080017, -5.0266911764706
1025, -1.5095102391687, -0.60838728442085, -5.0266911764706
1026, -1.5846893023611, -0.37083158573985, -5.0266911764706
1027, -1.6227245914265, -0.12458390899139, -5.0266911764706
1028, -1.6227245914265, 0.1245839089914, -5.0266911764706
1029, -1.5846893023611, 0.37083158573986, -5.0266911764706
1030, -1.5095102391687, 0.60838728442085, -5.0266911764706
1031, -1.3989495353717, 0.83168290080017, -5.0266911764706
1032, -1.2555986401602, 1.0354845748865, -5.0266911764706
1033, -1.0828175770195, 1.2150153681735, -5.0266911764706
1034, -0.88465618762699, 1.3660672310297, -5.0266911764706
1035, -0.66575920699635, 1.4850996358156, -5.0266911764706
1036, -0.43125739482507, 1.56932256385, -5.0266911764706
1037, -0.1866472748359, 1.6167619010839, -5.0266911764706
1038, 0.062337699080532, 1.6263057096602, -5.0266911764706
1039, 0.3098615301655, 1.5977302907949, -5.0266911764706
1040, 0.55012246960984, 1.5317054280867, -5.0266911764706
1041, 0.77748900462871, 1.4297786883576, -5.0266911764706
1042, 0.9866318563482, 1.2943391479975, -5.0266911764706
1043, 1.1726488935853, 1.1285613950394, -5.0266911764706
1044, 1.3311800346478, 0.9363311195058, -5.0266911764706
1045, 1.4585094439541, 0.72215403612848, -5.0266911764706
1046, 1.5516526280694, 0.49105027421367, -5.0266911764706
1047, 1.6084263897025, 0.24843671006622, -5.0266911764706
1048, 1.6084263897025, -0.24843671006621, -5.2694117647059
1049, 1.5516526280694, -0.49105027421367, -5.2694117647059
1050, 1.4585094439541, -0.72215403612847, -5.2694117647059
1051, 1.3311800346478, -0.9363311195058, -5.2694117647059
1052, 1.1726488935853, -1.1285613950394, -5.2694117647059
1053, 0.98663185634821, -1.2943391479975, -5.2694117647059
1054, 0.77748900462871, -1.4297786883576, -5.2694117647059
1055, 0.55012246960984, -1.5317054280867, -5.2694117647059
1056, 0.3098615301655, -1.5977302907949, -5.2694117647059
1057, 0.062337699080533, -1.6263057096602, -5.2694117647059
1058, -0.1866472748359, -1.6167619010839, -5.2694117647059
1059, -0.43125739482507, -1.56932256385, -5.2694117647059
1060, -0.66575920699636, -1.4850996358156, -5.2694117647059
1061, -0.88465618762699, -1.3660672310297, -5.2694117647059
1062, -1.0828175770195, -1.2150153681735, -5.2694117647059
1063, -1.2555986401602, -1.0354845748865, -5.2694117647059
1064, -1.3989495353717, -0.83168290080017, -5.2694117647059
1065, -1.5095102391687, -0.60838728442085, -5.2694117647059
1066, -1.5846893023611, -0.37083158573985, -5.2694117647059
1067, -1.6227245914265, -0.1245839089914, -5.2694117647059
1068, -1.6227245914265, 0.1245839089914, -5.2694117647059
1069, -1.5846893023611, 0.37083158573986, -5.2694117647059
1070, -1.5095102391687, 0.60838728442085, -5.2694117647059
1071, -1.3989495353717, 0.83168290080017, -5.2694117647059
1072, -1.2555986401602, 1.0354845748865, -5.2694117647059
1073, -1.0828175770195, 1.2150153681735, -5.2694117647059
1074, -0.88465618762699, 1.3660672310297, -5.2694117647059
1075, -0.66575920699635, 1.4850996358156, -5.2694117647059
1076, -0.43125739482507, 1.56932256385, -5.2694117647059
1077, -0.1866472748359, 1.6167619010839, -5.2694117647059
1078, 0.062337699080535, 1.6263057096602, -5.2694117647059
1079, 0.3098615301655, 1.5977302907949, -5.2694117647059
1080, 0.55012246960984, 1.5317054280867, -5.2694117647059
1081, 0.77748900462871, 1.4297786883576, -5.2694117647059
1082, 0.9866318563482, 1.2943391479975, -5.2694117647059
1083, 1.1726488935853, 1.1285613950394, -5.2694117647059
1084, 1.3311800346478, 0.9363311195058, -5.2694117647059
1085, 1.4585094439541, 0.72215403612847, -5.2694117647059
1086, 1.5516526280694, 0.49105027421368, -5.2694117647059
1087, 1.6084263897025, 0.24843671006622, -5.2694117647059
1088, 1.6084263897025, -0.24843671006621, -5.5121323529412
1089, 1.5516526280694, -0.49105027421367, -5.5121323529412
1090, 1.4585094439541, -0.72215403612847, -5.5121323529412
1091, 1.3311800346478, -0.9363311195058, -5.5121323529412
1092, 1.1726488935853, -1.1285613950394, -5.5121323529412
1093, 0.98663185634821, -1.2943391479975, -5.5121323529412
1094, 0.77748900462871, -1.4297786883576, -5.5121323529412
1095, 0.55012246960984, -1.5317054280867, -5.5121323529412
1096, 0.3098615301655, -1.5977302907949, -5.5121323529412
1097, 0.062337699080533, -1.6263057096602, -5.5121323529412
1098, -0.1866472748359, -1.6167619010839, -5.5121323529412
1099, -0.43125739482507, -1.56932256385, -5.5121323529412
1100, -0.66575920699636, -1.4850996358156, -5.5121323529412
1101, -0.88465618762699, -1.3660672310297, -5.5121323529412
1102, -1.0828175770195, -1.2150153681735, -5.5121323529412
1103, -1.2555986401602, -1.0354845748865, -5.5121323529412
1104, -1.3989495353717, -0.83168290080017, -5.5121323529412
1105, -1.5095102391687, -0.60838728442085, -5.5121323529412
1106, -1.5846893023611, -0.37083158573985, -5.5121323529412
1107, -1.6227245914265, -0.1245839089914, -5.5121323529412
1108, -1.6227245914265, 0.1245839089914, -5.5121323529412
1109, -1.5846893023611, 0.37083158573986, -5.5121323529412
1110, -1.5095102391687, 0.60838728442085, -5.5121323529412
1111, -1.3989495353717, 0.83168290080017, -5.5121323529412
1112, -1.2555986401602, 1.0354845748865, -5.5121323529412
1113, -1.0828175770195, 1.2150153681735, -5.5121323529412
1114, -0.88465618762699, 1.3660672310297, -5.5121323529412
1115, -0.66575920699635, 1.4850996358156, -5.5121323529412
1116, -0.43125739482507, 1.56932256385, -5.5121323529412
1117, -0.1866472748359, 1.6167619010839, -5.5121323529412
1118, 0.062337699080532, 1.6263057096602, -5.5121323529412
1119, 0.3098615301655, 1.5977302907949, -5.5121323529412
1120, 0.55012246960983, 1.5317054280867, -5.5121323529412
1121, 0.77748900462871, 1.4297786883576, -5.5121323529412
1122, 0.9866318563482, 1.2943391479975, -5.5121323529412
1123, 1.1726488935853, 1.1285613950394, -5.5121323529412
1124, 1.3311800346478, 0.9363311195058, -5.5121323529412
1125, 1.4585094439541, 0.72215403612848, -5.5121323529412
1126, 1.5516526280694, 0.49105027421368, -5.5121323529412
1127, 1.6084263897025, 0.24843671006622, -5.5121323529412
1128, 1.6084263897025, -0.24843671006621, -5.7548529411765
1129, 1.5516526280694, -0.49105027421367, -5.7548529411765
1130, 1.4585094439541, -0.72215403612847, -5.7548529411765
1131, 1.3311800346478, -0.9363311195058, -5.7548529411765
1132, 1.1726488935853, -1.1285613950394, -5.7548529411765
1133, 0.9866318563482, -1.2943391479975, -5.7548529411765
1134, 0.77748900462871, -1.4297786883576, -5.7548529411765
1135, 0.55012246960984, -1.5317054280867, -5.7548529411765
1136, 0.3098615301655, -1.5977302907949, -5.7548529411765
1137, 0.062337699080533, -1.6263057096602, -5.7548529411765
1138, -0.1866472748359, -1.6167619010839, -5.7548529411765
1139, -0.43125739482507, -1.56932256385, -5.7548529411765
1140, -0.66575920699636, -1.4850996358156, -5.7548529411765
1141, -0.88465618762699, -1.3660672310297, -5.7548529411765
1142, -1.0828175770195, -1.2150153681735, -5.7548529411765
1143, -1.2555986401602, -1.0354845748865, -5.7548529411765
1144, -1.3989495353717, -0.83168290080017, -5.7548529411765
1145, -1.5095102391687, -0.60838728442085, -5.7548529411765
1146, -1.5846893023611, -0.37083158573985, -5.7548529411765
1147, -1.6227245914265, -0.12458390899139, -5.7548529411765
1148, -1.6227245914265, 0.1245839089914, -5.7548529411765
1149, -1.5846893023611, 0.37083158573986, -5.7548529411765
1150, -1.5095102391687, 0.60838728442085, -5.7548529411765
1151, -1.3989495353717, 0.83168290080017, -5.7548529411765
1152, -1.2555986401602, 1.0354845748865, -5.7548529411765
1153, -1.0828175770195, 1.2150153681735, -5.7548529411765
1154, -0.88465618762699, 1.3660672310297, -5.7548529411765
1155, -0.66575920699635, 1.4850996358156, -5.7548529411765
1156, -0.43125739482507, 1.56932256385, -5.7548529411765
1157, -0.1866472748359, 1.6167619010839, -5.7548529411765
1158, 0.062337699080532, 1.6263057096602, -5.7548529411765
1159, 0.3098615301655, 1.5977302907949, -5.7548529411765
1160, 0.55012246960983, 1.5317054280867, -5.7548529411765
1161, 0.77748900462871, 1.4297786883576, -5.7548529411765
1162, 0.9866318563482, 1.2943391479975, -5.7548529411765
1163, 1.1726488935853, 1.1285613950394, -5.7548529411765
1164, 1.3311800346478, 0.9363311195058, -5.7548529411765
1165, 1.4585094439541, 0.72215403612847, -5.7548529411765
1166, 1.5516526280694, 0.49105027421367, -5.7548529411765
1167, 1.6084263897025, 0.24843671006622, -5.7548529411765
1168, 1.6084263897025, -0.24843671006621, -5.9975735294118
1169, 1.5516526280694, -0.49105027421367, -5.9975735294118
1170, 1.4585094439541, -0.72215403612847, -5.9975735294118
1171, 1.3311800346478, -0.9363311195058, -5.9975735294118
1172, 1.1726488935853, -1.1285613950394, -5.9975735294118
1173, 0.98663185634821, -1.2943391479975, -5.9975735294118
1174, 0.77748900462871, -1.4297786883576, -5.9975735294118
1175, 0.55012246960984, -1.5317054280867, -5.9975735294118
1176, 0.3098615301655, -1.5977302907949, -5.9975735294118
1177, 0.062337699080533, -1.6263057096602, -5.9975735294118
1178, -0.1866472748359, -1.6167619010839, -5.9975735294118
1179, -0.43125739482507, -1.56932256385, -5.9975735294118
1180, -0.66575920699636, -1.4850996358156, -5.9975735294118
1181, -0.88465618762699, -1.3660672310297, -5.9975735294118
1182, -1.0828175770195, -1.2150153681735, -5.9975735294118
1183, -1.2555986401602, -1.0354845748865, -5.9975735294118
1184, -1.3989495353717, -0.83168290080017, -5.9975735294118
1185, -1.5095102391687, -0.60838728442085, -5.9975735294118
1186, -1.5846893023611, -0.37083158573985, -5.9975735294118
1187, -1.6227245914265, -0.12458390899139, -5.9975735294118
1188, -1.6227245914265, 0.1245839089914, -5.9975735294118
1189, -1.5846893023611, 0.37083158573986, -5.9975735294118
1190, -1.5095102391687, 0.60838728442085, -5.9975735294118
1191, -1.3989495353717, 0.83168290080018, -5.9975735294118
1192, -1.2555986401602, 1.0354845748865, -5.9975735294118
1193, -1.0828175770195, 1.2150153681735, -5.9975735294118
1194, -0.88465618762699, 1.3660672310297, -5.9975735294118
1195, -0.66575920699635, 1.4850996358156, -5.9975735294118
1196, -0.43125739482507, 1.56932256385, -5.9975735294118
1197, -0.1866472748359, 1.6167619010839, -5.9975735294118
1198, 0.062337699080535, 1.6263057096602, -5.9975735294118
1199, 0.3098615301655, 1.5977302907949, -5.9975735294118
1200, 0.55012246960984, 1.5317054280867, -5.9975735294118
1201, 0.77748900462871, 1.4297786883576, -5.9975735294118
1202, 0.9866318563482, 1.2943391479975, -5.9975735294118
1203, 1.1726488935853, 1.1285613950394, -5.9975735294118
1204, 1.3311800346478, 0.93633111950581, -5.9975735294118
1205, 1.4585094439541, 0.72215403612848, -5.9975735294118
1206, 1.5516526280694, 0.49105027421367, -5.9975735294118
1207, 1.6084263897025, 0.24843671006622, -5.9975735294118
1208, 1.6084263897025, -0.24843671006621, -6.2402941176471
1209, 1.5516526280694, -0.49105027421367, -6.2402941176471
1210, 1.4585094439541, -0.72215403612847, -6.2402941176471
1211, 1.3311800346478, -0.9363311195058, -6.2402941176471
1212, 1.1726488935853, -1.1285613950394, -6.2402941176471
1213, 0.98663185634821, -1.2943391479975, -6.2402941176471
1214, 0.77748900462871, -1.4297786883576, -6.2402941176471
1215, 0.55012246960984, -1.5317054280867, -6.2402941176471
1216, 0.3098615301655, -1.5977302907949, -6.2402941176471
1217, 0.062337699080533, -1.6263057096602, -6.2402941176471
1218, -0.1866472748359, -1.6167619010839, -6.2402941176471
1219, -0.43125739482507, -1.56932256385, -6.2402941176471
1220, -0.66575920699636, -1.4850996358156, -6.2402941176471
1221, -0.88465618762699, -1.3660672310297, -6.2402941176471
1222, -1.0828175770195, -1.2150153681735, -6.2402941176471
1223, -1.2555986401602, -1.0354845748865, -6.2402941176471
1224, -1.3989495353717, -0.83168290080017, -6.2402941176471
1225, -1.5095102391687, -0.60838728442085, -6.2402941176471
1226, -1.5846893023611, -0.37083158573985, -6.2402941176471
1227, -1.6227245914265, -0.1245839089914, -6.2402941176471
1228, -1.6227245914265, 0.1245839089914, -6.2402941176471
1229, -1.5846893023611, 0.37083158573986, -6.2402941176471
1230, -1.5095102391687, 0.60838728442085, -6.2402941176471
1231, -1.3989495353717, 0.83168290080017, -6.2402941176471
1232, -1.2555986401602, 1.0354845748865, -6.2402941176471
1233, -1.0828175770195, 1.2150153681735, -6.2402941176471
1234, -0.88465618762699, 1.3660672310297, -6.2402941176471
1235, -0.66575920699635, 1.4850996358156, -6.2402941176471
1236, -0.43125739482507, 1.56932256385, -6.2402941176471
1237, -0.1866472748359, 1.6167619010839, -6.2402941176471
1238, 0.062337699080532, 1.6263057096602, -6.2402941176471
1239, 0.3098615301655, 1.5977302907949, -6.2402941176471
1240, 0.55012246960983, 1.5317054280867, -6.2402941176471
1241, 0.77748900462871, 1.4297786883576, -6.2402941176471
1242, 0.9866318563482, 1.2943391479975, -6.2402941176471
1243, 1.1726488935853, 1.1285613950394, -6.2402941176471
1244, 1.3311800346478, 0.9363311195058, -6.2402941176471
1245, 1.4585094439541, 0.72215403612848, -6.2402941176471
1246, 1.5516526280694, 0.49105027421368, -6.2402941176471
1247, 1.6084263897025, 0.24843671006622, -6.2402941176471
1248, 1.6084263897025, -0.24843671006621, -6.4830147058824
1249, 1.5516526280694, -0.49105027421367, -6.4830147058824
1250, 1.4585094439541, -0.72215403612847, -6.4830147058824
1251, 1.3311800346478, -0.9363311195058, -6.4830147058824
1252, 1.1726488935853, -1.1285613950394, -6.4830147058824
1253, 0.9866318563482, -1.2943391479975, -6.4830147058824
1254, 0.77748900462871, -1.4297786883576, -6.4830147058824
1255, 0.55012246960984, -1.5317054280867, -6.4830147058824
1256, 0.3098615301655, -1.5977302907949, -6.4830147058824
1257, 0.062337699080533, -1.6263057096602, -6.4830147058824
1258, -0.1866472748359, -1.6167619010839, -6.4830147058824
1259, -0.43125739482507, -1.56932256385, -6.4830147058824
1260, -0.66575920699636, -1.4850996358156, -6.4830147058824
1261, -0.88465618762699, -1.3660672310297, -6.4830147058824
1262, -1.0828175770195, -1.2150153681735, -6.4830147058824
1263, -1.2555986401602, -1.0354845748865, -6.4830147058824
1264, -1.3989495353717, -0.83168290080017, -6.4830147058824
1265, -1.5095102391687, -0.60838728442085, -6.4830147058824
1266, -1.5846893023611, -0.37083158573985, -6.4830147058824
1267, -1.6227245914265, -0.12458390899139, -6.4830147058824
1268, -1.6227245914265, 0.1245839089914, -6.4830147058824
1269, -1.5846893023611, 0.37083158573986, -6.4830147058824
1270, -1.5095102391687, 0.60838728442085, -6.4830147058824
1271, -1.3989495353717, 0.83168290080017, -6.4830147058824
1272, -1.2555986401602, 1.0354845748865, -6.4830147058824
1273, -1.0828175770195, 1.2150153681735, -6.4830147058824
1274, -0.88465618762699, 1.3660672310297, -6.4830147058824
1275, -0.66575920699635, 1.4850996358156, -6.4830147058824
1276, -0.43125739482507, 1.56932256385, -6.4830147058824
1277, -0.1866472748359, 1.6167619010839, -6.4830147058824
1278, 0.062337699080532, 1.6263057096602, -6.4830147058824
1279, 0.3098615301655, 1.5977302907949, -6.4830147058824
1280, 0.55012246960984, 1.5317054280867, -6.4830147058824
1281, 0.77748900462871, 1.4297786883576, -6.4830147058824
1282, 0.9866318563482, 1.2943391479975, -6.4830147058824
1283, 1.1726488935853, 1.1285613950394, -6.4830147058824
1284, 1.3311800346478, 0.93633111950581, -6.4830147058824
1285, 1.4585094439541, 0.72215403612848, -6.4830147058824
1286, 1.5516526280694, 0.49105027421367, -6.4830147058824
1287, 1.6084263897025, 0.24843671006622, -6.4830147058824
1288, 1.6084263897025, -0.24843671006621, -6.7257352941177
1289, 1.5516526280694, -0.49105027421367, -6.7257352941177
1290, 1.4585094439541, -0.72215403612847, -6.7257352941177
1291, 1.3311800346478, -0.9363311195058, -6.7257352941177
1292, 1.1726488935853, -1.1285613950394, -6.7257352941176
1293, 0.98663185634821, -1.2943391479975, -6.7257352941177
1294, 0.77748900462871, -1.4297786883576, -6.7257352941176
1295, 0.55012246960984, -1.5317054280867, -6.7257352941177
1296, 0.3098615301655, -1.5977302907949, -6.7257352941177
1297, 0.062337699080533, -1.6263057096602, -6.7257352941177
1298, -0.1866472748359, -1.6167619010839, -6.7257352941177
1299, -0.43125739482507, -1.56932256385, -6.7257352941177
1300, -0.66575920699636, -1.4850996358156, -6.7257352941177
1301, -0.88465618762699, -1.3660672310297, -6.7257352941177
1302, -1.0828175770195, -1.2150153681735, -6.7257352941177
1303, -1.2555986401602, -1.0354845748865, -6.7257352941177
1304, -1.3989495353717, -0.83168290080017, -6.7257352941177
1305, -1.5095102391687, -0.60838728442085, -6.7257352941177
1306, -1.5846893023611, -0.37083158573985, -6.7257352941177
1307, -1.6227245914265, -0.12458390899139, -6.7257352941177
1308, -1.6227245914265, 0.1245839089914, -6.7257352941177
1309, -1.5846893023611, 0.37083158573986, -6.7257352941177
1310, -1.5095102391687, 0.60838728442085, -6.7257352941177
1311, -1.3989495353717, 0.83168290080017, -6.7257352941177
1312, -1.2555986401602, 1.0354845748865, -6.7257352941177
1313, -1.0828175770195, 1.2150153681735, -6.7257352941177
1314, -0.88465618762699, 1.3660672310297, -6.7257352941177
1315, -0.66575920699636, 1.4850996358156, -6.7257352941177
1316, -0.43125739482507, 1.56932256385, -6.7257352941177
1317, -0.1866472748359, 1.6167619010839, -6.7257352941176
1318, 0.062337699080534, 1.6263057096602, -6.7257352941177
1319, 0.3098615301655, 1.5977302907949, -6.7257352941177
1320, 0.55012246960984, 1.5317054280867, -6.7257352941177
1321, 0.77748900462871, 1.4297786883576, -6.7257352941177
1322, 0.9866318563482, 1.2943391479975, -6.7257352941177
1323, 1.1726488935853, 1.1285613950394, -6.7257352941177
1324, 1.3311800346478, 0.93633111950581, -6.7257352941177
1325, 1.4585094439541, 0.72215403612848, -6.7257352941177
1326, 1.5516526280694, 0.49105027421367, -6.7257352941177
1327, 1.6084263897025, 0.24843671006622, -6.7257352941177
1328, 1.6084263897025, -0.24843671006621, -6.9684558823529
1329, 1.5516526280694, -0.49105027421367, -6.9684558823529
1330, 1.4585094439541, -0.72215403612847, -6.9684558823529
1331, 1.3311800346478, -0.9363311195058, -6.9684558823529
1332, 1.1726488935853, -1.1285613950394, -6.9684558823529
1333, 0.98663185634821, -1.2943391479975, -6.9684558823529
1334, 0.77748900462871, -1.4297786883576, -6.9684558823529
1335, 0.55012246960984, -1.5317054280867, -6.9684558823529
1336, 0.3098615301655, -1.5977302907949, -6.9684558823529
1337, 0.062337699080534, -1.6263057096602, -6.9684558823529
1338, -0.1866472748359, -1.6167619010839, -6.9684558823529
1339, -0.43125739482507, -1.56932256385, -6.9684558823529
1340, -0.66575920699636, -1.4850996358156, -6.9684558823529
1341, -0.88465618762699, -1.3660672310297, -6.9684558823529
1342, -1.0828175770195, -1.2150153681735, -6.9684558823529
1343, -1.2555986401602, -1.0354845748865, -6.9684558823529
1344, -1.3989495353717, -0.83168290080017, -6.9684558823529
1345, -1.5095102391687, -0.60838728442085, -6.9684558823529
1346, -1.5846893023611, -0.37083158573985, -6.9684558823529
1347, -1.6227245914265, -0.12458390899139, -6.9684558823529
1348, -1.6227245914265, 0.1245839089914, -6.9684558823529
1349, -1.5846893023611, 0.37083158573986, -6.9684558823529
1350, -1.5095102391687, 0.60838728442085, -6.9684558823529
1351, -1.3989495353717, 0.83168290080017, -6.9684558823529
1352, -1.2555986401602, 1.0354845748865, -6.9684558823529
1353, -1.0828175770195, 1.2150153681735, -6.9684558823529
1354, -0.88465618762699, 1.3660672310297, -6.9684558823529
1355, -0.66575920699635, 1.4850996358156, -6.9684558823529
1356, -0.43125739482507, 1.56932256385, -6.9684558823529
1357, -0.1866472748359, 1.6167619010839, -6.9684558823529
1358, 0.062337699080529, 1.6263057096602, -6.9684558823529
1359, 0.3098615301655, 1.5977302907949, -6.9684558823529
1360, 0.55012246960983, 1.5317054280867, -6.9684558823529
1361, 0.77748900462871, 1.4297786883576, -6.9684558823529
1362, 0.9866318563482, 1.2943391479975, -6.9684558823529
1363, 1.1726488935853, 1.1285613950394, -6.9684558823529
1364, 1.3311800346478, 0.9363311195058, -6.9684558823529
1365, 1.4585094439541, 0.72215403612847, -6.9684558823529
1366, 1.5516526280694, 0.49105027421368, -6.9684558823529
1367, 1.6084263897025, 0.24843671006622, -6.9684558823529
1368, 1.6084263897025, -0.24843671006621, -7.2111764705882
1369, 1.5516526280694, -0.49105027421367, -7.2111764705882
1370, 1.4585094439541, -0.72215403612847, -7.2111764705882
1371, 1.3311800346478, -0.9363311195058, -7.2111764705882
1372, 1.1726488935853, -1.1285613950394, -7.2111764705882
1373, 0.9866318563482, -1.2943391479975, -7.2111764705882
1374, 0.77748900462871, -1.4297786883576, -7.2111764705882
1375, 0.55012246960984, -1.5317054280867, -7.2111764705882
1376, 0.3098615301655, -1.5977302907949, -7.2111764705882
1377, 0.062337699080535, -1.6263057096602, -7.2111764705882
1378, -0.1866472748359, -1.6167619010839, -7.2111764705882
1379, -0.43125739482507, -1.56932256385, -7.2111764705882
1380, -0.66575920699636, -1.4850996358156, -7.2111764705882
1381, -0.88465618762699, -1.3660672310297, -7.2111764705882
1382, -1.0828175770195, -1.2150153681735, -7.2111764705882
1383, -1.2555986401602, -1.0354845748865, -7.2111764705882
1384, -1.3989495353717, -0.83168290080017, -7.2111764705882
1385, -1.5095102391687, -0.60838728442085, -7.2111764705882
1386, -1.5846893023611, -0.37083158573985, -7.2111764705882
1387, -1.6227245914265, -0.12458390899139, -7.2111764705882
1388, -1.6227245914265, 0.1245839089914, -7.2111764705882
1389, -1.5846893023611, 0.37083158573986, -7.2111764705882
1390, -1.5095102391687, 0.60838728442085, -7.2111764705882
1391, -1.3989495353717, 0.83168290080017, -7.2111764705882
1392, -1.2555986401602, 1.0354845748865, -7.2111764705882
1393, -1.0828175770195, 1.2150153681735, -7.2111764705882
1394, -0.88465618762698, 1.3660672310298, -7.2111764705882
1395, -0.66575920699635, 1.4850996358156, -7.2111764705882
1396, -0.43125739482507, 1.56932256385, -7.2111764705882
1397, -0.1866472748359, 1.6167619010839, -7.2111764705882
1398, 0.062337699080532, 1.6263057096602, -7.2111764705882
1399, 0.3098615301655, 1.5977302907949, -7.2111764705882
1400, 0.55012246960984, 1.5317054280867, -7.2111764705882
1401, 0.77748900462871, 1.4297786883576, -7.2111764705882
1402, 0.9866318563482, 1.2943391479975, -7.2111764705882
1403, 1.1726488935853, 1.1285613950394, -7.2111764705882
1404, 1.3311800346478, 0.9363311195058, -7.2111764705882
1405, 1.4585094439541, 0.72215403612848, -7.2111764705882
1406, 1.5516526280694, 0.49105027421368, -7.2111764705882
1407, 1.6084263897025, 0.24843671006622, -7.2111764705882
1408, 1.6084263897025, -0.24843671006621, -7.4538970588235
1409, 1.5516526280694, -0.49105027421367, -7.4538970588235
1410, 1.4585094439541, -0.72215403612847, -7.4538970588235
1411, 1.3311800346478, -0.9363311195058, -7.4538970588235
1412, 1.1726488935853, -1.1285613950394, -7.4538970588235
1413, 0.98663185634821, -1.2943391479975, -7.4538970588235
1414, 0.77748900462871, -1.4297786883576, -7.4538970588235
1415, 0.55012246960984, -1.5317054280867, -7.4538970588235
1416, 0.3098615301655, -1.5977302907949, -7.4538970588235
1417, 0.062337699080534, -1.6263057096602, -7.4538970588235
1418, -0.1866472748359, -1.6167619010839, -7.4538970588235
1419, -0.43125739482507, -1.56932256385, -7.4538970588235
1420, -0.66575920699636, -1.4850996358156, -7.4538970588235
1421, -0.88465618762699, -1.3660672310297, -7.4538970588235
1422, -1.0828175770195, -1.2150153681735, -7.4538970588235
1423, -1.2555986401602, -1.0354845748865, -7.4538970588235
1424, -1.3989495353717, -0.83168290080017, -7.4538970588235
1425, -1.5095102391687, -0.60838728442085, -7.4538970588235
1426, -1.5846893023611, -0.37083158573985, -7.4538970588235
1427, -1.6227245914265, -0.12458390899139, -7.4538970588235
1428, -1.6227245914265, 0.1245839089914, -7.4538970588235
1429, -1.5846893023611, 0.37083158573986, -7.4538970588235
1430, -1.5095102391687, 0.60838728442085, -7.4538970588235
1431, -1.3989495353717, 0.83168290080017, -7.4538970588235
1432, -1.2555986401602, 1.0354845748865, -7.4538970588235
1433, -1.0828175770195, 1.2150153681735, -7.4538970588235
1434, -0.88465618762699, 1.3660672310297, -7.4538970588235
1435, -0.66575920699635, 1.4850996358156, -7.4538970588235
1436, -0.43125739482507, 1.56932256385, -7.4538970588235
1437, -0.1866472748359, 1.6167619010839, -7.4538970588235
1438, 0.062337699080535, 1.6263057096602, -7.4538970588235
1439, 0.3098615301655, 1.5977302907949, -7.4538970588235
1440, 0.55012246960984, 1.5317054280867, -7.4538970588235
1441, 0.77748900462871, 1.4297786883576, -7.4538970588235
1442, 0.9866318563482, 1.2943391479975, -7.4538970588235
1443, 1.1726488935853, 1.1285613950394, -7.4538970588235
1444, 1.3311800346478, 0.9363311195058, -7.4538970588235
1445, 1.4585094439541, 0.72215403612847, -7.4538970588235
1446, 1.5516526280694, 0.49105027421367, -7.4538970588235
1447, 1.6084263897025, 0.24843671006622, -7.4538970588235
1448, 1.6084263897025, -0.24843671006621, -7.6966176470588
1449, 1.5516526280694, -0.49105027421367, -7.6966176470588
1450, 1.4585094439541, -0.72215403612847, -7.6966176470588
1451, 1.3311800346478, -0.9363311195058, -7.6966176470588
1452, 1.1726488935853, -1.1285613950394, -7.6966176470588
1453, 0.9866318563482, -1.2943391479975, -7.6966176470588
1454, 0.77748900462871, -1.4297786883576, -7.6966176470588
1455, 0.55012246960984, -1.5317054280867, -7.6966176470588
1456, 0.3098615301655, -1.5977302907949, -7.6966176470588
1457, 0.062337699080533, -1.6263057096602, -7.6966176470588
1458, -0.1866472748359, -1.6167619010839, -7.6966176470588
1459, -0.43125739482507, -1.56932256385, -7.6966176470588
1460, -0.66575920699636, -1.4850996358156, -7.6966176470588
1461, -0.88465618762699, -1.3660672310297, -7.6966176470588
1462, -1.0828175770195, -1.2150153681735, -7.6966176470588
1463, -1.2555986401602, -1.0354845748865, -7.6966176470588
1464, -1.3989495353717, -0.83168290080017, -7.6966176470588
1465, -1.5095102391687, -0.60838728442085, -7.6966176470588
1466, -1.5846893023611, -0.37083158573985, -7.6966176470588
1467, -1.6227245914265, -0.12458390899139, -7.6966176470588
1468, -1.6227245914265, 0.1245839089914, -7.6966176470588
1469, -1.5846893023611, 0.37083158573986, -7.6966176470588
1470, -1.5095102391687, 0.60838728442085, -7.6966176470588
1471, -1.3989495353717, 0.83168290080017, -7.6966176470588
1472, -1.2555986401602, 1.0354845748865, -7.6966176470588
1473, -1.0828175770195, 1.2150153681735, -7.6966176470588
1474, -0.88465618762699, 1.3660672310297, -7.6966176470588
1475, -0.66575920699635, 1.4850996358156, -7.6966176470588
1476, -0.43125739482507, 1.56932256385, -7.6966176470588
1477, -0.1866472748359, 1.6167619010839, -7.6966176470588
1478, 0.062337699080529, 1.6263057096602, -7.6966176470588
1479, 0.3098615301655, 1.5977302907949, -7.6966176470588
1480, 0.55012246960984, 1.5317054280867, -7.6966176470588
1481, 0.77748900462871, 1.4297786883576, -7.6966176470588
1482, 0.9866318563482, 1.2943391479975, -7.6966176470588
1483, 1.1726488935853, 1.1285613950394, -7.6966176470588
1484, 1.3311800346478, 0.9363311195058, -7.6966176470588
1485, 1.4585094439541, 0.72215403612848, -7.6966176470588
1486, 1.5516526280694, 0.49105027421367, -7.6966176470588
1487, 1.6084263897025, 0.24843671006622, -7.6966176470588
1488, 1.6084263897025, -0.24843671006621, -7.9393382352941
1489, 1.5516526280694, -0.49105027421367, -7.9393382352941
1490, 1.4585094439541, -0.72215403612847, -7.9393382352941
1491, 1.3311800346478, -0.9363311195058, -7.9393382352941
1492, 1.1726488935853, -1.1285613950394, -7.9393382352941
1493, 0.98663185634821, -1.2943391479975, -7.9393382352941
1494, 0.77748900462871, -1.4297786883576, -7.9393382352941
1495, 0.55012246960984, -1.5317054280867, -7.9393382352941
1496, 0.3098615301655, -1.5977302907949, -7.9393382352941
1497, 0.062337699080533, -1.6263057096602, -7.9393382352941
1498, -0.1866472748359, -1.6167619010839, -7.9393382352941
1499, -0.43125739482507, -1.56932256385, -7.9393382352941
1500, -0.66575920699636, -1.4850996358156, -7.9393382352941
1501, -0.88465618762699, -1.3660672310297, -7.9393382352941
1502, -1.0828175770195, -1.2150153681735, -7.9393382352941
1503, -1.2555986401602, -1.0354845748865, -7.9393382352941
1504, -1.3989495353717, -0.83168290080017, -7.9393382352941
1505, -1.5095102391687, -0.60838728442085, -7.9393382352941
1506, -1.5846893023611, -0.37083158573985, -7.9393382352941
1507, -1.6227245914265, -0.12458390899139, -7.9393382352941
1508, -1.6227245914265, 0.1245839089914, -7.9393382352941
1509, -1.5846893023611, 0.37083158573986, -7.9393382352941
1510, -1.5095102391687, 0.60838728442085, -7.9393382352941
1511, -1.3989495353717, 0.83168290080017, -7.9393382352941
1512, -1.2555986401602, 1.0354845748865, -7.9393382352941
1513, -1.0828175770195, 1.2150153681735, -7.9393382352941
1514, -0.88465618762699, 1.3660672310297, -7.9393382352941
1515, -0.66575920699636, 1.4850996358156, -7.9393382352941
1516, -0.43125739482507, 1.56932256385, -7.9393382352941
1517, -0.1866472748359, 1.6167619010839, -7.9393382352941
1518, 0.062337699080532, 1.6263057096602, -7.9393382352941
1519, 0.3098615301655, 1.5977302907949, -7.9393382352941
1520, 0.55012246960984, 1.5317054280867, -7.9393382352941
1521, 0.77748900462871, 1.4297786883576, -7.9393382352941
1522, 0.9866318563482, 1.2943391479975, -7.9393382352941
1523, 1.1726488935853, 1.1285613950394, -7.9393382352941
1524, 1.3311800346478, 0.93633111950581, -7.9393382352941
1525, 1.4585094439541, 0.72215403612848, -7.9393382352941
1526, 1.5516526280694, 0.49105027421368, -7.9393382352941
1527, 1.6084263897025, 0.24843671006622, -7.9393382352941
1528, 1.6084263897025, -0.24843671006621, -8.1820588235294
1529, 1.5516526280694, -0.49105027421367, -8.1820588235294
1530, 1.4585094439541, -0.72215403612847, -8.1820588235294
1531, 1.3311800346478, -0.9363311195058, -8.1820588235294
1532, 1.1726488935853, -1.1285613950394, -8.1820588235294
1533, 0.98663185634821, -1.2943391479975, -8.1820588235294
1534, 0.77748900462871, -1.4297786883576, -8.1820588235294
1535, 0.55012246960984, -1.5317054280867, -8.1820588235294
1536, 0.3098615301655, -1.5977302907949, -8.1820588235294
1537, 0.062337699080533, -1.6263057096602, -8.1820588235294
1538, -0.1866472748359, -1.6167619010839, -8.1820588235294
1539, -0.43125739482507, -1.56932256385, -8.1820588235294
1540, -0.66575920699636, -1.4850996358156, -8.1820588235294
1541, -0.88465618762699, -1.3660672310297, -8.1820588235294
1542, -1.0828175770195, -1.2150153681735, -8.1820588235294
1543, -1.2555986401602, -1.0354845748865, -8.1820588235294
1544, -1.3989495353717, -0.83168290080017, -8.1820588235294
1545, -1.5095102391687, -0.60838728442085, -8.1820588235294
1546, -1.5846893023611, -0.37083158573985, -8.1820588235294
1547, -1.6227245914265, -0.12458390899139, -8.1820588235294
1548, -1.6227245914265, 0.1245839089914, -8.1820588235294
1549, -1.5846893023611, 0.37083158573986, -8.1820588235294
1550, -1.5095102391687, 0.60838728442085, -8.1820588235294
1551, -1.3989495353717, 0.83168290080017, -8.1820588235294
1552, -1.2555986401602, 1.0354845748865, -8.1820588235294
1553, -1.0828175770195, 1.2150153681735, -8.1820588235294
1554, -0.88465618762699, 1.3660672310297, -8.1820588235294
1555, -0.66575920699635, 1.4850996358156, -8.1820588235294
1556, -0.43125739482507, 1.56932256385, -8.1820588235294
1557, -0.1866472748359, 1.6167619010839, -8.1820588235294
1558, 0.062337699080532, 1.6263057096602, -8.1820588235294
1559, 0.3098615301655, 1.5977302907949, -8.1820588235294
1560, 0.55012246960984, 1.5317054280867, -8.1820588235294
1561, 0.77748900462871, 1.4297786883576, -8.1820588235294
1562, 0.9866318563482, 1.2943391479975, -8.1820588235294
1563, 1.1726488935853, 1.1285613950394, -8.1820588235294
1564, 1.3311800346478, 0.9363311195058, -8.1820588235294
1565, 1.4585094439541, 0.72215403612848, -8.1820588235294
1566, 1.5516526280694, 0.49105027421368, -8.1820588235294
1567, 1.6084263897025, 0.24843671006622, -8.1820588235294
1568, 1.6084263897025, -0.24843671006621, -8.4247794117647
1569, 1.5516526280694, -0.49105027421367, -8.4247794117647
1570, 1.4585094439541, -0.72215403612847, -8.4247794117647
1571, 1.3311800346478, -0.9363311195058, -8.4247794117647
1572, 1.1726488935853, -1.1285613950394, -8.4247794117647
1573, 0.98663185634821, -1.2943391479975, -8.4247794117647
1574, 0.77748900462871, -1.4297786883576, -8.4247794117647
1575, 0.55012246960984, -1.5317054280867, -8.4247794117647
1576, 0.3098615301655, -1.5977302907949, -8.4247794117647
1577, 0.062337699080531, -1.6263057096602, -8.4247794117647
1578, -0.1866472748359, -1.6167619010839, -8.4247794117647
1579, -0.43125739482507, -1.56932256385, -8.4247794117647
1580, -0.66575920699636, -1.4850996358156, -8.4247794117647
1581, -0.88465618762699, -1.3660672310297, -8.4247794117647
1582, -1.0828175770195, -1.2150153681735, -8.4247794117647
1583, -1.2555986401602, -1.0354845748865, -8.4247794117647
1584, -1.3989495353717, -0.83168290080017, -8.4247794117647
1585, -1.5095102391687, -0.60838728442085, -8.4247794117647
1586, -1.5846893023611, -0.37083158573985, -8.4247794117647
1587, -1.6227245914265, -0.12458390899139, -8.4247794117647
1588, -1.6227245914265, 0.1245839089914, -8.4247794117647
1589, -1.5846893023611, 0.37083158573986, -8.4247794117647
1590, -1.5095102391687, 0.60838728442085, -8.4247794117647
1591, -1.3989495353717, 0.83168290080017, -8.4247794117647
1592, -1.2555986401602, 1.0354845748865, -8.4247794117647
1593, -1.0828175770195, 1.2150153681735, -8.4247794117647
1594, -0.88465618762699, 1.3660672310297, -8.4247794117647
1595, -0.66575920699635, 1.4850996358156, -8.4247794117647
1596, -0.43125739482507, 1.56932256385, -8.4247794117647
1597, -0.1866472748359, 1.6167619010839, -8.4247794117647
1598, 0.062337699080528, 1.6263057096602, -8.4247794117647
1599, 0.3098615301655, 1.5977302907949, -8.4247794117647
1600, 0.55012246960984, 1.5317054280867, -8.4247794117647
1601, 0.77748900462871, 1.4297786883576, -8.4247794117647
1602, 0.9866318563482, 1.2943391479975, -8.4247794117647
1603, 1.1726488935853, 1.1285613950394, -8.4247794117647
1604, 1.3311800346478, 0.93633111950581, -8.4247794117647
1605, 1.4585094439541, 0.72215403612848, -8.4247794117647
1606, 1.5516526280694, 0.49105027421368, -8.4247794117647
1607, 1.6084263897025, 0.24843671006622, -8.4247794117647
1608, 1.6084263897025, -0.24843671006621, -0.2075
1609, 1.5516526280694, -0.49105027421367, -0.2075
1610, 1.4585094439541, -0.72215403612847, -0.2075
1611, 1.3311800346478, -0.9363311195058, -0.2075
1612, 1.1726488935853, -1.1285613950394, -0.2075
1613, 0.98663185634821, -1.2943391479975, -0.2075
1614, 0.77748900462871, -1.4297786883576, -0.2075
1615, 0.55012246960984, -1.5317054280867, -0.2075
1616, 0.3098615301655, -1.5977302907949, -0.2075
1617, 0.062337699080533, -1.6263057096602, -0.2075
1618, -0.1866472748359, -1.6167619010839, -0.2075
1619, -0.43125739482507, -1.56932256385, -0.2075
1620, -0.66575920699636, -1.4850996358156, -0.2075
1621, -0.88465618762699, -1.3660672310297, -0.2075
1622, -1.0828175770195, -1.2150153681735, -0.2075
1623, -1.2555986401602, -1.0354845748865, -0.2075
1624, -1.3989495353717, -0.83168290080017, -0.2075
1625, -1.5095102391687, -0.60838728442085, -0.2075
1626, -1.5846893023611, -0.37083158573985, -0.2075
1627, -1.6227245914265, -0.12458390899139, -0.2075
1628, -1.6227245914265, 0.1245839089914, -0.2075
1629, -1.5846893023611, 0.37083158573986, -0.2075
1630, -1.5095102391687, 0.60838728442085, -0.2075
1631, -1.3989495353717, 0.83168290080017, -0.2075
1632, -1.2555986401602, 1.0354845748865, -0.2075
1633, -1.0828175770195, 1.2150153681735, -0.2075
1634, -0.88465618762699, 1.3660672310297, -0.2075
1635, -0.66575920699635, 1.4850996358156, -0.2075
1636, -0.43125739482507, 1.56932256385, -0.2075
1637, -0.1866472748359, 1.6167619010839, -0.2075
1638, 0.062337699080532, 1.6263057096602, -0.2075
1639, 0.3098615301655, 1.5977302907949, -0.2075
1640, 0.55012246960984, 1.5317054280867, -0.2075
1641, 0.77748900462871, 1.4297786883576, -0.2075
1642, 0.9866318563482, 1.2943391479975, -0.2075
1643, 1.1726488935853, 1.1285613950394, -0.2075
1644, 1.3311800346478, 0.9363311195058, -0.2075
1645, 1.4585094439541, 0.72215403612848, -0.2075
1646, 1.5516526280694, 0.49105027421368, -0.2075
1647, 1.6084263897025, 0.24843671006622, -0.2075
1648, 1.6084263897025, -0.24843671006621, -8.9175
1649, 1.5516526280694, -0.49105027421367, -8.9175
1650, 1.4585094439541, -0.72215403612847, -8.9175
1651, 1.3311800346478, -0.9363311195058, -8.9175
1652, 1.1726488935853, -1.1285613950394, -8.9175
1653, 0.98663185634821, -1.2943391479975, -8.9175
1654, 0.77748900462871, -1.4297786883576, -8.9175
1655, 0.55012246960984, -1.5317054280867, -8.9175
1656, 0.3098615301655, -1.5977302907949, -8.9175
1657, 0.062337699080533, -1.6263057096602, -8.9175
1658, -0.1866472748359, -1.6167619010839, -8.9175
1659, -0.43125739482507, -1.56932256385, -8.9175
1660, -0.66575920699636, -1.4850996358156, -8.9175
1661, -0.88465618762699, -1.3660672310297, -8.9175
1662, -1.0828175770195, -1.2150153681735, -8.9175
1663, -1.2555986401602, -1.0354845748865, -8.9175
1664, -1.3989495353717, -0.83168290080017, -8.9175
1665, -1.5095102391687, -0.60838728442085, -8.9175
1666, -1.5846893023611, -0.37083158573985, -8.9175
1667, -1.6227245914265, -0.12458390899139, -8.9175
1668, -1.6227245914265, 0.1245839089914, -8.9175
1669, -1.5846893023611, 0.37083158573986, -8.9175
1670, -1.5095102391687, 0.60838728442085, -8.9175
1671, -1.3989495353717, 0.83168290080017, -8.9175
1672, -1.2555986401602, 1.0354845748865, -8.9175
1673, -1.0828175770195, 1.2150153681735, -8.9175
1674, -0.88465618762699, 1.3660672310297, -8.9175
1675, -0.66575920699635, 1.4850996358156, -8.9175
1676, -0.43125739482507, 1.56932256385, -8.9175
1677, -0.1866472748359, 1.6167619010839, -8.9175
1678, 0.062337699080532, 1.6263057096602, -8.9175
1679, 0.3098615301655, 1.5977302907949, -8.9175
1680, 0.55012246960984, 1.5317054280867, -8.9175
1681, 0.77748900462871, 1.4297786883576, -8.9175
1682, 0.9866318563482, 1.2943391479975, -8.9175
1683, 1.1726488935853, 1.1285613950394, -8.9175
1684, 1.3311800346478, 0.9363311195058, -8.9175
1685, 1.4585094439541, 0.72215403612848, -8.9175
1686, 1.5516526280694, 0.49105027421368, -8.9175
1687, 1.6084263897025, 0.24843671006622, -8.9175
1688, 1.6084263897025, -0.24843671006621, -9.1675
1689, 1.5516526280694, -0.49105027421367, -9.1675
1690, 1.4585094439541, -0.72215403612847, -9.1675
1691, 1.3311800346478, -0.9363311195058, -9.1675
1692, 1.1726488935853, -1.1285613950394, -9.1675
1693, 0.98663185634821, -1.2943391479975, -9.1675
1694, 0.77748900462871, -1.4297786883576, -9.1675
1695, 0.55012246960984, -1.5317054280867, -9.1675
1696, 0.3098615301655, -1.5977302907949, -9.1675
1697, 0.062337699080533, -1.6263057096602, -9.1675
1698, -0.1866472748359, -1.6167619010839, -9.1675
1699, -0.43125739482507, -1.56932256385, -9.1675
1700, -0.66575920699636, -1.4850996358156, -9.1675
1701, -0.88465618762699, -1.3660672310297, -9.1675
1702, -1.0828175770195, -1.2150153681735, -9.1675
1703, -1.2555986401602, -1.0354845748865, -9.1675
1704, -1.3989495353717, -0.83168290080017, -9.1675
1705, -1.5095102391687, -0.60838728442085, -9.1675
1706, -1.5846893023611, -0.37083158573985, -9.1675
1707, -1.6227245914265, -0.12458390899139, -9.1675
1708, -1.6227245914265, 0.1245839089914, -9.1675
1709, -1.5846893023611, 0.37083158573986, -9.1675
1710, -1.5095102391687, 0.60838728442085, -9.1675
1711, -1.3989495353717, 0.83168290080017, -9.1675
1712, -1.2555986401602, 1.0354845748865, -9.1675
1713, -1.0828175770195, 1.2150153681735, -9.1675
1714, -0.88465618762699, 1.3660672310297, -9.1675
1715, -0.66575920699635, 1.4850996358156, -9.1675
1716, -0.43125739482507, 1.56932256385, -9.1675
1717, -0.1866472748359, 1.6167619010839, -9.1675
1718, 0.062337699080531, 1.6263057096602, -9.1675
1719, 0.3098615301655, 1.5977302907949, -9.1675
1720, 0.55012246960984, 1.5317054280867, -9.1675
1721, 0.77748900462871, 1.4297786883576, -9.1675
1722, 0.9866318563482, 1.2943391479975, -9.1675
1723, 1.1726488935853, 1.1285613950394, -9.1675
1724, 1.3311800346478, 0.9363311195058, -9.1675
1725, 1.4585094439541, 0.72215403612848, -9.1675
1726, 1.5516526280694, 0.49105027421368, -9.1675
1727, 1.6084263897025, 0.24843671006622, -9.1675
1728, 1.6084263897025, -0.24843671006621, -9.4175
1729, 1.5516526280694, -0.49105027421367, -9.4175
1730, 1.4585094439541, -0.72215403612847, -9.4175
1731, 1.3311800346478, -0.9363311195058, -9.4175
1732, 1.1726488935853, -1.1285613950394, -9.4175
1733, 0.98663185634821, -1.2943391479975, -9.4175
1734, 0.77748900462871, -1.4297786883576, -9.4175
1735, 0.55012246960984, -1.5317054280867, -9.4175
1736, 0.3098615301655, -1.5977302907949, -9.4175
1737, 0.062337699080533, -1.6263057096602, -9.4175
1738, -0.1866472748359, -1.6167619010839, -9.4175
1739, -0.43125739482507, -1.56932256385, -9.4175
1740, -0.66575920699636, -1.4850996358156, -9.4175
1741, -0.88465618762699, -1.3660672310297, -9.4175
1742, -1.0828175770195, -1.2150153681735, -9.4175
1743, -1.2555986401602, -1.0354845748865, -9.4175
1744, -1.3989495353717, -0.83168290080017, -9.4175
1745, -1.5095102391687, -0.60838728442085, -9.4175
1746, -1.5846893023611, -0.37083158573985, -9.4175
1747, -1.6227245914265, -0.12458390899139, -9.4175
1748, -1.6227245914265, 0.1245839089914, -9.4175
1749, -1.5846893023611, 0.37083158573986, -9.4175
1750, -1.5095102391687, 0.60838728442085, -9.4175
1751, -1.3989495353717, 0.83168290080017, -9.4175
1752, -1.2555986401602, 1.0354845748865, -9.4175
1753, -1.0828175770195, 1.2150153681735, -9.4175
1754, -0.88465618762699, 1.3660672310297, -9.4175
1755, -0.66575920699635, 1.4850996358156, -9.4175
1756, -0.43125739482507, 1.56932256385, -9.4175
1757, -0.1866472748359, 1.6167619010839, -9.4175
1758, 0.062337699080532, 1.6263057096602, -9.4175
1759, 0.3098615301655, 1.5977302907949, -9.4175
1760, 0.55012246960983, 1.5317054280867, -9.4175
1761, 0.77748900462871, 1.4297786883576, -9.4175
1762, 0.9866318563482, 1.2943391479975, -9.4175
1763, 1.1726488935853, 1.1285613950394, -9.4175
1764, 1.3311800346478, 0.9363311195058, -9.4175
1765, 1.4585094439541, 0.72215403612848, -9.4175
1766, 1.5516526280694, 0.49105027421368, -9.4175
1767, 1.6084263897025, 0.24843671006622, -9.4175
1768, 1.6084263897025, -0.24843671006621, -9.6675
1769, 1.5516526280694, -0.49105027421367, -9.6675
1770, 1.4585094439541, -0.72215403612847, -9.6675
1771, 1.3311800346478, -0.9363311195058, -9.6675
1772, 1.1726488935853, -1.1285613950394, -9.6675
1773, 0.98663185634821, -1.2943391479975, -9.6675
1774, 0.77748900462871, -1.4297786883576, -9.6675
1775, 0.55012246960984, -1.5317054280867, -9.6675
1776, 0.3098615301655, -1.5977302907949, -9.6675
1777, 0.062337699080533, -1.6263057096602, -9.6675
1778, -0.1866472748359, -1.6167619010839, -9.6675
1779, -0.43125739482507, -1.56932256385, -9.6675
1780, -0.66575920699636, -1.4850996358156, -9.6675
1781, -0.88465618762699, -1.3660672310297, -9.6675
1782, -1.0828175770195, -1.2150153681735, -9.6675
1783, -1.2555986401602, -1.0354845748865, -9.6675
1784, -1.3989495353717, -0.83168290080017, -9.6675
1785, -1.5095102391687, -0.60838728442085, -9.6675
1786, -1.5846893023611, -0.37083158573985, -9.6675
1787, -1.6227245914265, -0.12458390899139, -9.6675
1788, -1.6227245914265, 0.1245839089914, -9.6675
1789, -1.5846893023611, 0.37083158573986, -9.6675
1790, -1.5095102391687, 0.60838728442085, -9.6675
1791, -1.3989495353717, 0.83168290080017, -9.6675
1792, -1.2555986401602, 1.0354845748865, -9.6675
1793, -1.0828175770195, 1.2150153681735, -9.6675
1794, -0.88465618762699, 1.3660672310297, -9.6675
1795, -0.66575920699635, 1.4850996358156, -9.6675
1796, -0.43125739482507, 1.56932256385, -9.6675
1797, -0.1866472748359, 1.6167619010839, -9.6675
1798, 0.062337699080532, 1.6263057096602, -9.6675
1799, 0.3098615301655, 1.5977302907949, -9.6675
1800, 0.55012246960984, 1.5317054280867, -9.6675
1801, 0.77748900462871, 1.4297786883576, -9.6675
1802, 0.9866318563482, 1.2943391479975, -9.6675
1803, 1.1726488935853, 1.1285613950394, -9.6675
1804, 1.3311800346478, 0.9363311195058, -9.6675
1805, 1.4585094439541, 0.72215403612848, -9.6675
1806, 1.5516526280694, 0.49105027421368, -9.6675
1807, 1.6084263897025, 0.24843671006622, -9.6675
1808, 1.6084263897025, -0.24843671006621, -9.9175
1809, 1.5516526280694, -0.49105027421367, -9.9175
1810, 1.4585094439541, -0.72215403612847, -9.9175
1811, 1.3311800346478, -0.9363311195058, -9.9175
1812, 1.1726488935853, -1.1285613950394, -9.9175
1813, 0.98663185634821, -1.2943391479975, -9.9175
1814, 0.77748900462871, -1.4297786883576, -9.9175
1815, 0.55012246960984, -1.5317054280867, -9.9175
1816, 0.3098615301655, -1.5977302907949, -9.9175
1817, 0.062337699080533, -1.6263057096602, -9.9175
1818, -0.1866472748359, -1.6167619010839, -9.9175
1819, -0.43125739482507, -1.56932256385, -9.9175
1820, -0.66575920699636, -1.4850996358156, -9.9175
1821, -0.88465618762699, -1.3660672310297, -9.9175
1822, -1.0828175770195, -1.2150153681735, -9.9175
1823, -1.2555986401602, -1.0354845748865, -9.9175
1824, -1.3989495353717, -0.83168290080017, -9.9175
1825, -1.5095102391687, -0.60838728442085, -9.9175
1826, -1.5846893023611, -0.37083158573985, -9.9175
1827, -1.6227245914265, -0.12458390899139, -9.9175
1828, -1.6227245914265, 0.1245839089914, -9.9175
1829, -1.5846893023611, 0.37083158573986, -9.9175
1830, -1.5095102391687, 0.60838728442085, -9.9175
1831, -1.3989495353717, 0.83168290080017, -9.9175
1832, -1.2555986401602, 1.0354845748865, -9.9175
1833, -1.0828175770195, 1.2150153681735, -9.9175
1834, -0.88465618762699, 1.3660672310297, -9.9175
1835, -0.66575920699635, 1.4850996358156, -9.9175
1836, -0.43125739482507, 1.56932256385, -9.9175
1837, -0.1866472748359, 1.6167619010839, -9.9175
1838, 0.062337699080532, 1.6263057096602, -9.9175
1839, 0.3098615301655, 1.5977302907949, -9.9175
1840, 0.55012246960984, 1.5317054280867, -9.9175
1841, 0.77748900462871, 1.4297786883576, -9.9175
1842, 0.9866318563482, 1.2943391479975, -9.9175
1843, 1.1726488935853, 1.1285613950394, -9.9175
1844, 1.3311800346478, 0.9363311195058, -9.9175
1845, 1.4585094439541, 0.72215403612848, -9.9175
1846, 1.5516526280694, 0.49105027421368, -9.9175
1847, 1.6084263897025, 0.24843671006622, -9.9175
1848, 1.6084263897025, -0.24843671006621, -10.1675
1849, 1.5516526280694, -0.49105027421367, -10.1675
1850, 1.4585094439541, -0.72215403612847, -10.1675
1851, 1.3311800346478, -0.9363311195058, -10.1675
1852, 1.1726488935853, -1.1285613950394, -10.1675
1853, 0.98663185634821, -1.2943391479975, -10.1675
1854, 0.77748900462871, -1.4297786883576, -10.1675
1855, 0.55012246960984, -1.5317054280867, -10.1675
1856, 0.3098615301655, -1.5977302907949, -10.1675
1857, 0.062337699080533, -1.6263057096602, -10.1675
1858, -0.1866472748359, -1.6167619010839, -10.1675
1859, -0.43125739482507, -1.56932256385, -10.1675
1860, -0.66575920699636, -1.4850996358156, -10.1675
1861, -0.88465618762699, -1.3660672310297, -10.1675
1862, -1.0828175770195, -1.2150153681735, -10.1675
1863, -1.2555986401602, -1.0354845748865, -10.1675
1864, -1.3989495353717, -0.83168290080017, -10.1675
1865, -1.5095102391687, -0.60838728442085, -10.1675
1866, -1.5846893023611, -0.37083158573985, -10.1675
1867, -1.6227245914265, -0.12458390899139, -10.1675
1868, -1.6227245914265, 0.1245839089914, -10.1675
1869, -1.5846893023611, 0.37083158573986, -10.1675
1870, -1.5095102391687, 0.60838728442085, -10.1675
1871, -1.3989495353717, 0.83168290080017, -10.1675
1872, -1.2555986401602, 1.0354845748865, -10.1675
1873, -1.0828175770195, 1.2150153681735, -10.1675
1874, -0.88465618762699, 1.3660672310297, -10.1675
1875, -0.66575920699635, 1.4850996358156, -10.1675
1876, -0.43125739482507, 1.56932256385, -10.1675
1877, -0.1866472748359, 1.6167619010839, -10.1675
1878, 0.062337699080531, 1.6263057096602, -10.1675
1879, 0.3098615301655, 1.5977302907949, -10.1675
1880, 0.55012246960984, 1.5317054280867, -10.1675
1881, 0.77748900462871, 1.4297786883576, -10.1675
1882, 0.9866318563482, 1.2943391479975, -10.1675
1883, 1.1726488935853, 1.1285613950394, -10.1675
1884, 1.3311800346478, 0.9363311195058, -10.1675
1885, 1.4585094439541, 0.72215403612848, -10.1675
1886, 1.5516526280694, 0.49105027421368, -10.1675
1887, 1.6084263897025, 0.24843671006622, -10.1675
1888, 1.6084263897025, -0.24843671006621, -10.4175
1889, 1.5516526280694, -0.49105027421367, -10.4175
1890, 1.4585094439541, -0.72215403612847, -10.4175
1891, 1.3311800346478, -0.9363311195058, -10.4175
1892, 1.1726488935853, -1.1285613950394, -10.4175
1893, 0.98663185634821, -1.2943391479975, -10.4175
1894, 0.77748900462871, -1.4297786883576, -10.4175
1895, 0.55012246960984, -1.5317054280867, -10.4175
1896, 0.3098615301655, -1.5977302907949, -10.4175
1897, 0.062337699080533, -1.6263057096602, -10.4175
1898, -0.1866472748359, -1.6167619010839, -10.4175
1899, -0.43125739482507, -1.56932256385, -10.4175
1900, -0.66575920699636, -1.4850996358156, -10.4175
1901, -0.88465618762699, -1.3660672310297, -10.4175
1902, -1.0828175770195, -1.2150153681735, -10.4175
1903, -1.2555986401602, -1.0354845748865, -10.4175
1904, -1.3989495353717, -0.83168290080017, -10.4175
1905, -1.5095102391687, -0.60838728442085, -10.4175
1906, -1.5846893023611, -0.37083158573985, -10.4175
1907, -1.6227245914265, -0.12458390899139, -10.4175
1908, -1.6227245914265, 0.1245839089914, -10.4175
1909, -1.5846893023611, 0.37083158573986, -10.4175
1910, -1.5095102391687, 0.60838728442085, -10.4175
1911, -1.3989495353717, 0.83168290080017, -10.4175
1912, -1.2555986401602, 1.0354845748865, -10.4175
1913, -1.0828175770195, 1.2150153681735, -10.4175
1914, -0.88465618762699, 1.3660672310297, -10.4175
1915, -0.66575920699635, 1.4850996358156, -10.4175
1916, -0.43125739482507, 1.56932256385, -10.4175
1917, -0.1866472748359, 1.6167619010839, -10.4175
1918, 0.062337699080532, 1.6263057096602, -10.4175
1919, 0.3098615301655, 1.5977302907949, -10.4175
1920, 0.55012246960984, 1.5317054280867, -10.4175
1921, 0.77748900462871, 1.4297786883576, -10.4175
1922, 0.9866318563482, 1.2943391479975, -10.4175
1923, 1.1726488935853, 1.1285613950394, -10.4175
1924, 1.3311800346478, 0.9363311195058, -10.4175
1925, 1.4585094439541, 0.72215403612848, -10.4175
1926, 1.5516526280694, 0.49105027421367, -10.4175
1927, 1.6084263897025, 0.24843671006622, -10.4175
2218, 1.6227245914265, -0.12458390899139, -0.65772058823529
2219, 1.6084263897025, -0.24843671006621, -0.53636029411765
2220, 1.5846893023611, -0.37083158573985, -0.65772058823529
2221, 1.5516526280694, -0.49105027421367, -0.53636029411765
2222, 1.5095102391687, -0.60838728442085, -0.65772058823529
2223, 1.4585094439541, -0.72215403612847, -0.53636029411765
2224, 1.3989495353717, -0.83168290080017, -0.65772058823529
2225, 1.3311800346478, -0.9363311195058, -0.53636029411765
2226, 1.2555986401602, -1.0354845748865, -0.65772058823529
2227, 1.1726488935853, -1.1285613950394, -0.53636029411765
2228, 1.0828175770195, -1.2150153681735, -0.65772058823529
2229, 0.98663185634821, -1.2943391479975, -0.53636029411765
2230, 0.88465618762699, -1.3660672310297, -0.65772058823529
2231, 0.77748900462871, -1.4297786883576, -0.53636029411765
2232, 0.66575920699636, -1.4850996358156, -0.65772058823529
2233, 0.55012246960984, -1.5317054280867, -0.53636029411765
2234, 0.43125739482507, -1.56932256385, -0.65772058823529
2235, 0.3098615301655, -1.5977302907949, -0.53636029411765
2236, 0.1866472748359, -1.6167619010839, -0.65772058823529
2237, 0.062337699080533, -1.6263057096602, -0.53636029411765
2238, -0.062337699080532, -1.6263057096602, -0.65772058823529
2239, -0.1866472748359, -1.6167619010839, -0.53636029411765
2240, -0.3098615301655, -1.5977302907949, -0.65772058823529
2241, -0.43125739482507, -1.56932256385, -0.53636029411765
2242, -0.55012246960984, -1.5317054280867, -0.65772058823529
2243, -0.66575920699636, -1.4850996358156, -0.53636029411765
2244, -0.77748900462871, -1.4297786883576, -0.65772058823529
2245, -0.88465618762699, -1.3660672310297, -0.53636029411765
2246, -0.98663185634821, -1.2943391479975, -0.65772058823529
2247, -1.0828175770195, -1.2150153681735, -0.53636029411765
2248, -1.1726488935853, -1.1285613950394, -0.65772058823529
2249, -1.2555986401602, -1.0354845748865, -0.53636029411765
2250, -1.3311800346478, -0.9363311195058, -0.65772058823529
2251, -1.3989495353717, -0.83168290080017, -0.53636029411765
2252, -1.4585094439541, -0.72215403612848, -0.65772058823529
2253, -1.5095102391687, -0.60838728442085, -0.53636029411765
2254, -1.5516526280694, -0.49105027421367, -0.65772058823529
2255, -1.5846893023611, -0.37083158573985, -0.53636029411765
2256, -1.6084263897025, -0.24843671006622, -0.65772058823529
2257, -1.6227245914265, -0.12458390899139, -0.53636029411765
2258, -1.6275, 2.5920538562821e-15, -0.65772058823529
2259, -1.6227245914265, 0.1245839089914, -0.53636029411765
2260, -1.6084263897025, 0.24843671006622, -0.65772058823529
2261, -1.5846893023611, 0.37083158573986, -0.53636029411765
2262, -1.5516526280694, 0.49105027421368, -0.65772058823529
2263, -1.5095102391687, 0.60838728442085, -0.53636029411765
2264, -1.4585094439541, 0.72215403612848, -0.65772058823529
2265, -1.3989495353717, 0.83168290080017, -0.53636029411765
2266, -1.3311800346478, 0.93633111950581, -0.65772058823529
2267, -1.2555986401602, 1.0354845748865, -0.53636029411765
2268, -1.1726488935853, 1.1285613950394, -0.65772058823529
2269, -1.0828175770195, 1.2150153681735, -0.53636029411765
2270, -0.9866318563482, 1.2943391479975, -0.65772058823529
2271, -0.88465618762699, 1.3660672310297, -0.53636029411765
2272, -0.77748900462871, 1.4297786883576, -0.65772058823529
2273, -0.66575920699635, 1.4850996358156, -0.53636029411765
2274, -0.55012246960984, 1.5317054280867, -0.65772058823529
2275, -0.43125739482507, 1.56932256385, -0.53636029411765
2276, -0.3098615301655, 1.5977302907949, -0.65772058823529
2277, -0.1866472748359, 1.6167619010839, -0.53636029411765
2278, -0.062337699080533, 1.6263057096602, -0.65772058823529
2279, 0.062337699080533, 1.6263057096602, -0.53636029411765
2280, 0.1866472748359, 1.6167619010839, -0.65772058823529
2281, 0.3098615301655, 1.5977302907949, -0.53636029411765
2282, 0.43125739482507, 1.56932256385, -0.65772058823529
2283, 0.55012246960984, 1.5317054280867, -0.53636029411765
2284, 0.66575920699635, 1.4850996358156, -0.65772058823529
2285, 0.77748900462871, 1.4297786883576, -0.53636029411765
2286, 0.88465618762699, 1.3660672310297, -0.65772058823529
2287, 0.9866318563482, 1.2943391479975, -0.53636029411765
2288, 1.0828175770195, 1.2150153681735, -0.65772058823529
2289, 1.1726488935853, 1.1285613950394, -0.53636029411765
2290, 1.2555986401602, 1.0354845748865, -0.65772058823529
2291, 1.3311800346478, 0.9363311195058, -0.53636029411765
2292, 1.3989495353717, 0.83168290080017, -0.65772058823529
2293, 1.4585094439541, 0.72215403612848, -0.53636029411765
2294, 1.5095102391687, 0.60838728442085, -0.65772058823529
2295, 1.5516526280694, 0.49105027421368, -0.53636029411765
2296, 1.5846893023611, 0.37083158573986, -0.65772058823529
2297, 1.6084263897025, 0.24843671006622, -0.53636029411765
2298, 1.6227245914265, 0.1245839089914, -0.65772058823529
2299, 1.6227245914265, -0.12458390899139, -0.90044117647059
2300, 1.6084263897025, -0.24843671006621, -0.77908088235294
2301, 1.5846893023611, -0.37083158573985, -0.90044117647059
2302, 1.5516526280694, -0.49105027421367, -0.77908088235294
2303, 1.5095102391687, -0.60838728442085, -0.90044117647059
2304, 1.4585094439541, -0.72215403612847, -0.77908088235294
2305, 1.3989495353717, -0.83168290080017, -0.90044117647059
2306, 1.3311800346478, -0.9363311195058, -0.77908088235294
2307, 1.2555986401602, -1.0354845748865, -0.90044117647059
2308, 1.1726488935853, -1.1285613950394, -0.77908088235294
2309, 1.0828175770195, -1.2150153681735, -0.90044117647059
2310, 0.98663185634821, -1.2943391479975, -0.77908088235294
2311, 0.88465618762699, -1.3660672310297, -0.90044117647059
2312, 0.77748900462871, -1.4297786883576, -0.77908088235294
2313, 0.66575920699636, -1.4850996358156, -0.90044117647059
2314, 0.55012246960984, -1.5317054280867, -0.77908088235294
2315, 0.43125739482507, -1.56932256385, -0.90044117647059
2316, 0.3098615301655, -1.5977302907949, -0.77908088235294
2317, 0.1866472748359, -1.6167619010839, -0.90044117647059
2318, 0.062337699080533, -1.6263057096602, -0.77908088235294
2319, -0.062337699080532, -1.6263057096602, -0.90044117647059
2320, -0.1866472748359, -1.6167619010839, -0.77908088235294
2321, -0.3098615301655, -1.5977302907949, -0.90044117647059
2322, -0.43125739482507, -1.56932256385, -0.77908088235294
2323, -0.55012246960984, -1.5317054280867, -0.90044117647059
2324, -0.66575920699636, -1.4850996358156, -0.77908088235294
2325, -0.77748900462871, -1.4297786883576, -0.90044117647059
2326, -0.88465618762699, -1.3660672310297, -0.77908088235294
2327, -0.98663185634821, -1.2943391479975, -0.90044117647059
2328, -1.0828175770195, -1.2150153681735, -0.77908088235294
2329, -1.1726488935853, -1.1285613950394, -0.90044117647059
2330, -1.2555986401602, -1.0354845748865, -0.77908088235294
2331, -1.3311800346478, -0.9363311195058, -0.90044117647059
2332, -1.3989495353717, -0.83168290080017, -0.77908088235294
2333, -1.4585094439541, -0.72215403612848, -0.90044117647059
2334, -1.5095102391687, -0.60838728442085, -0.77908088235294
2335, -1.5516526280694, -0.49105027421367, -0.90044117647059
2336, -1.5846893023611, -0.37083158573985, -0.77908088235294
2337, -1.6084263897025, -0.24843671006622, -0.90044117647059
2338, -1.6227245914265, -0.12458390899139, -0.77908088235294
2339, -1.6275, 2.5920538562821e-15, -0.90044117647059
2340, -1.6227245914265, 0.1245839089914, -0.77908088235294
2341, -1.6084263897025, 0.24843671006622, -0.90044117647059
2342, -1.5846893023611, 0.37083158573986, -0.77908088235294
2343, -1.5516526280694, 0.49105027421368, -0.90044117647059
2344, -1.5095102391687, 0.60838728442085, -0.77908088235294
2345, -1.4585094439541, 0.72215403612848, -0.90044117647059
2346, -1.3989495353717, 0.83168290080017, -0.77908088235294
2347, -1.3311800346478, 0.93633111950581, -0.90044117647059
2348, -1.2555986401602, 1.0354845748865, -0.77908088235294
2349, -1.1726488935853, 1.1285613950394, -0.90044117647059
2350, -1.0828175770195, 1.2150153681735, -0.77908088235294
2351, -0.9866318563482, 1.2943391479975, -0.90044117647059
2352, -0.88465618762699, 1.3660672310297, -0.77908088235294
2353, -0.77748900462871, 1.4297786883576, -0.90044117647059
2354, -0.66575920699635, 1.4850996358156, -0.77908088235294
2355, -0.55012246960984, 1.5317054280867, -0.90044117647059
2356, -0.43125739482507, 1.56932256385, -0.77908088235294
2357, -0.3098615301655, 1.5977302907949, -0.90044117647059
2358, -0.1866472748359, 1.6167619010839, -0.77908088235294
2359, -0.062337699080533, 1.6263057096602, -0.90044117647059
2360, 0.062337699080533, 1.6263057096602, -0.77908088235294
2361, 0.1866472748359, 1.6167619010839, -0.90044117647059
2362, 0.3098615301655, 1.5977302907949, -0.77908088235294
2363, 0.43125739482507, 1.56932256385, -0.90044117647059
2364, 0.55012246960984, 1.5317054280867, -0.77908088235294
2365, 0.66575920699635, 1.4850996358156, -0.90044117647059
2366, 0.77748900462871, 1.4297786883576, -0.77908088235294
2367, 0.88465618762699, 1.3660672310297, -0.90044117647059
2368, 0.9866318563482, 1.2943391479975, -0.77908088235294
2369, 1.0828175770195, 1.2150153681735, -0.90044117647059
2370, 1.1726488935853, 1.1285613950394, -0.77908088235294
2371, 1.2555986401602, 1.0354845748865, -0.90044117647059
2372, 1.3311800346478, 0.9363311195058, -0.77908088235294
2373, 1.3989495353717, 0.83168290080017, -0.90044117647059
2374, 1.4585094439541, 0.72215403612848, -0.77908088235294
2375, 1.5095102391687, 0.60838728442085, -0.90044117647059
2376, 1.5516526280694, 0.49105027421368, -0.77908088235294
2377, 1.5846893023611, 0.37083158573986, -0.90044117647059
2378, 1.6084263897025, 0.24843671006622, -0.77908088235294
2379, 1.6227245914265, 0.1245839089914, -0.90044117647059
2380, 1.6227245914265, -0.12458390899139, -1.1431617647059
2381, 1.6084263897025, -0.24843671006621, -1.0218014705882
2382, 1.5846893023611, -0.37083158573985, -1.1431617647059
2383, 1.5516526280694, -0.49105027421367, -1.0218014705882
2384, 1.5095102391687, -0.60838728442085, -1.1431617647059
2385, 1.4585094439541, -0.72215403612847, -1.0218014705882
2386, 1.3989495353717, -0.83168290080017, -1.1431617647059
2387, 1.3311800346478, -0.9363311195058, -1.0218014705882
2388, 1.2555986401602, -1.0354845748865, -1.1431617647059
2389, 1.1726488935853, -1.1285613950394, -1.0218014705882
2390, 1.0828175770195, -1.2150153681735, -1.1431617647059
2391, 0.98663185634821, -1.2943391479975, -1.0218014705882
2392, 0.88465618762699, -1.3660672310297, -1.1431617647059
2393, 0.77748900462871, -1.4297786883576, -1.0218014705882
2394, 0.66575920699636, -1.4850996358156, -1.1431617647059
2395, 0.55012246960984, -1.5317054280867, -1.0218014705882
2396, 0.43125739482507, -1.56932256385, -1.1431617647059
2397, 0.3098615301655, -1.5977302907949, -1.0218014705882
2398, 0.1866472748359, -1.6167619010839, -1.1431617647059
2399, 0.062337699080533, -1.6263057096602, -1.0218014705882
2400, -0.062337699080532, -1.6263057096602, -1.1431617647059
2401, -0.1866472748359, -1.6167619010839, -1.0218014705882
2402, -0.3098615301655, -1.5977302907949, -1.1431617647059
2403, -0.43125739482507, -1.56932256385, -1.0218014705882
2404, -0.55012246960984, -1.5317054280867, -1.1431617647059
2405, -0.66575920699636, -1.4850996358156, -1.0218014705882
2406, -0.77748900462871, -1.4297786883576, -1.1431617647059
2407, -0.88465618762699, -1.3660672310297, -1.0218014705882
2408, -0.98663185634821, -1.2943391479975, -1.1431617647059
2409, -1.0828175770195, -1.2150153681735, -1.0218014705882
2410, -1.1726488935853, -1.1285613950394, -1.1431617647059
2411, -1.2555986401602, -1.0354845748865, -1.0218014705882
2412, -1.3311800346478, -0.9363311195058, -1.1431617647059
2413, -1.3989495353717, -0.83168290080017, -1.0218014705882
2414, -1.4585094439541, -0.72215403612848, -1.1431617647059
2415, -1.5095102391687, -0.60838728442085, -1.0218014705882
2416, -1.5516526280694, -0.49105027421367, -1.1431617647059
2417, -1.5846893023611, -0.37083158573985, -1.0218014705882
2418, -1.6084263897025, -0.24843671006622, -1.1431617647059
2419, -1.6227245914265, -0.12458390899139, -1.0218014705882
2420, -1.6275, 2.5920538562821e-15, -1.1431617647059
2421, -1.6227245914265, 0.1245839089914, -1.0218014705882
2422, -1.6084263897025, 0.24843671006622, -1.1431617647059
2423, -1.5846893023611, 0.37083158573986, -1.0218014705882
2424, -1.5516526280694, 0.49105027421368, -1.1431617647059
2425, -1.5095102391687, 0.60838728442085, -1.0218014705882
2426, -1.4585094439541, 0.72215403612848, -1.1431617647059
2427, -1.3989495353717, 0.83168290080017, -1.0218014705882
2428, -1.3311800346478, 0.93633111950581, -1.1431617647059
2429, -1.2555986401602, 1.0354845748865, -1.0218014705882
2430, -1.1726488935853, 1.1285613950394, -1.1431617647059
2431, -1.0828175770195, 1.2150153681735, -1.0218014705882
2432, -0.9866318563482, 1.2943391479975, -1.1431617647059
2433, -0.88465618762699, 1.3660672310297, -1.0218014705882
2434, -0.77748900462871, 1.4297786883576, -1.1431617647059
2435, -0.66575920699635, 1.4850996358156, -1.0218014705882
2436, -0.55012246960984, 1.5317054280867, -1.1431617647059
2437, -0.43125739482507, 1.56932256385, -1.0218014705882
2438, -0.3098615301655, 1.5977302907949, -1.1431617647059
2439, -0.1866472748359, 1.6167619010839, -1.0218014705882
2440, -0.062337699080533, 1.6263057096602, -1.1431617647059
2441, 0.062337699080533, 1.6263057096602, -1.0218014705882
2442, 0.1866472748359, 1.6167619010839, -1.1431617647059
2443, 0.3098615301655, 1.5977302907949, -1.0218014705882
2444, 0.43125739482507, 1.56932256385, -1.1431617647059
2445, 0.55012246960984, 1.5317054280867, -1.0218014705882
2446, 0.66575920699635, 1.4850996358156, -1.1431617647059
2447, 0.77748900462871, 1.4297786883576, -1.0218014705882
2448, 0.88465618762699, 1.3660672310297, -1.1431617647059
2449, 0.9866318563482, 1.2943391479975, -1.0218014705882
2450, 1.0828175770195, 1.2150153681735, -1.1431617647059
2451, 1.1726488935853, 1.1285613950394, -1.0218014705882
2452, 1.2555986401602, 1.0354845748865, -1.1431617647059
2453, 1.3311800346478, 0.9363311195058, -1.0218014705882
2454, 1.3989495353717, 0.83168290080017, -1.1431617647059
2455, 1.4585094439541, 0.72215403612848, -1.0218014705882
2456, 1.5095102391687, 0.60838728442085, -1.1431617647059
2457, 1.5516526280694, 0.49105027421368, -1.0218014705882
2458, 1.5846893023611, 0.37083158573986, -1.1431617647059
2459, 1.6084263897025, 0.24843671006622, -1.0218014705882
2460, 1.6227245914265, 0.1245839089914, -1.1431617647059
2461, 1.6227245914265, -0.12458390899139, -1.3858823529412
2462, 1.6084263897025, -0.24843671006621, -1.2645220588235
2463, 1.5846893023611, -0.37083158573985, -1.3858823529412
2464, 1.5516526280694, -0.49105027421367, -1.2645220588235
2465, 1.5095102391687, -0.60838728442085, -1.3858823529412
2466, 1.4585094439541, -0.72215403612847, -1.2645220588235
2467, 1.3989495353717, -0.83168290080017, -1.3858823529412
2468, 1.3311800346478, -0.9363311195058, -1.2645220588235
2469, 1.2555986401602, -1.0354845748865, -1.3858823529412
2470, 1.1726488935853, -1.1285613950394, -1.2645220588235
2471, 1.0828175770195, -1.2150153681735, -1.3858823529412
2472, 0.98663185634821, -1.2943391479975, -1.2645220588235
2473, 0.88465618762699, -1.3660672310297, -1.3858823529412
2474, 0.77748900462871, -1.4297786883576, -1.2645220588235
2475, 0.66575920699636, -1.4850996358156, -1.3858823529412
2476, 0.55012246960984, -1.5317054280867, -1.2645220588235
2477, 0.43125739482507, -1.56932256385, -1.3858823529412
2478, 0.3098615301655, -1.5977302907949, -1.2645220588235
2479, 0.1866472748359, -1.6167619010839, -1.3858823529412
2480, 0.062337699080533, -1.6263057096602, -1.2645220588235
2481, -0.062337699080532, -1.6263057096602, -1.3858823529412
2482, -0.1866472748359, -1.6167619010839, -1.2645220588235
2483, -0.3098615301655, -1.5977302907949, -1.3858823529412
2484, -0.43125739482507, -1.56932256385, -1.2645220588235
2485, -0.55012246960984, -1.5317054280867, -1.3858823529412
2486, -0.66575920699636, -1.4850996358156, -1.2645220588235
2487, -0.77748900462871, -1.4297786883576, -1.3858823529412
2488, -0.88465618762699, -1.3660672310297, -1.2645220588235
2489, -0.98663185634821, -1.2943391479975, -1.3858823529412
2490, -1.0828175770195, -1.2150153681735, -1.2645220588235
2491, -1.1726488935853, -1.1285613950394, -1.3858823529412
2492, -1.2555986401602, -1.0354845748865, -1.2645220588235
2493, -1.3311800346478, -0.9363311195058, -1.3858823529412
2494, -1.3989495353717, -0.83168290080017, -1.2645220588235
2495, -1.4585094439541, -0.72215403612848, -1.3858823529412
2496, -1.5095102391687, -0.60838728442085, -1.2645220588235
2497, -1.5516526280694, -0.49105027421367, -1.3858823529412
2498, -1.5846893023611, -0.37083158573985, -1.2645220588235
2499, -1.6084263897025, -0.24843671006622, -1.3858823529412
2500, -1.6227245914265, -0.12458390899139, -1.2645220588235
2501, -1.6275, -2.9896689984185e-16, -1.3858823529412
2502, -1.6227245914265, 0.1245839089914, -1.2645220588235
2503, -1.6084263897025, 0.24843671006622, -1.3858823529412
2504, -1.5846893023611, 0.37083158573986, -1.2645220588235
2505, -1.5516526280694, 0.49105027421368, -1.3858823529412
2506, -1.5095102391687, 0.60838728442085, -1.2645220588235
2507, -1.4585094439541, 0.72215403612848, -1.3858823529412
2508, -1.3989495353717, 0.83168290080017, -1.2645220588235
2509, -1.3311800346478, 0.93633111950581, -1.3858823529412
2510, -1.2555986401602, 1.0354845748865, -1.2645220588235
2511, -1.1726488935853, 1.1285613950394, -1.3858823529412
2512, -1.0828175770195, 1.2150153681735, -1.2645220588235
2513, -0.9866318563482, 1.2943391479975, -1.3858823529412
2514, -0.88465618762699, 1.3660672310297, -1.2645220588235
2515, -0.77748900462871, 1.4297786883576, -1.3858823529412
2516, -0.66575920699635, 1.4850996358156, -1.2645220588235
2517, -0.55012246960984, 1.5317054280867, -1.3858823529412
2518, -0.43125739482507, 1.56932256385, -1.2645220588235
2519, -0.3098615301655, 1.5977302907949, -1.3858823529412
2520, -0.1866472748359, 1.6167619010839, -1.2645220588235
2521, -0.062337699080533, 1.6263057096602, -1.3858823529412
2522, 0.062337699080533, 1.6263057096602, -1.2645220588235
2523, 0.1866472748359, 1.6167619010839, -1.3858823529412
2524, 0.3098615301655, 1.5977302907949, -1.2645220588235
2525, 0.43125739482507, 1.56932256385, -1.3858823529412
2526, 0.55012246960984, 1.5317054280867, -1.2645220588235
2527, 0.66575920699635, 1.4850996358156, -1.3858823529412
2528, 0.77748900462871, 1.4297786883576, -1.2645220588235
2529, 0.88465618762699, 1.3660672310297, -1.3858823529412
2530, 0.9866318563482, 1.2943391479975, -1.2645220588235
2531, 1.0828175770195, 1.2150153681735, -1.3858823529412
2532, 1.1726488935853, 1.1285613950394, -1.2645220588235
2533, 1.2555986401602, 1.0354845748865, -1.3858823529412
2534, 1.3311800346478, 0.9363311195058, -1.2645220588235
2535, 1.3989495353717, 0.83168290080017, -1.3858823529412
2536, 1.4585094439541, 0.72215403612848, -1.2645220588235
2537, 1.5095102391687, 0.60838728442085, -1.3858823529412
2538, 1.5516526280694, 0.49105027421368, -1.2645220588235
2539, 1.5846893023611, 0.37083158573986, -1.3858823529412
2540, 1.6084263897025, 0.24843671006622, -1.2645220588235
2541, 1.6227245914265, 0.1245839089914, -1.3858823529412
2542, 1.6227245914265, -0.12458390899139, -1.6286029411765
2543, 1.6084263897025, -0.24843671006621, -1.5072426470588
2544, 1.5846893023611, -0.37083158573985, -1.6286029411765
2545, 1.5516526280694, -0.49105027421367, -1.5072426470588
2546, 1.5095102391687, -0.60838728442085, -1.6286029411765
2547, 1.4585094439541, -0.72215403612847, -1.5072426470588
2548, 1.3989495353717, -0.83168290080017, -1.6286029411765
2549, 1.3311800346478, -0.9363311195058, -1.5072426470588
2550, 1.2555986401602, -1.0354845748865, -1.6286029411765
2551, 1.1726488935853, -1.1285613950394, -1.5072426470588
2552, 1.0828175770195, -1.2150153681735, -1.6286029411765
2553, 0.98663185634821, -1.2943391479975, -1.5072426470588
2554, 0.88465618762699, -1.3660672310297, -1.6286029411765
2555, 0.77748900462871, -1.4297786883576, -1.5072426470588
2556, 0.66575920699636, -1.4850996358156, -1.6286029411765
2557, 0.55012246960984, -1.5317054280867, -1.5072426470588
2558, 0.43125739482507, -1.56932256385, -1.6286029411765
2559, 0.3098615301655, -1.5977302907949, -1.5072426470588
2560, 0.1866472748359, -1.6167619010839, -1.6286029411765
2561, 0.062337699080533, -1.6263057096602, -1.5072426470588
2562, -0.062337699080532, -1.6263057096602, -1.6286029411765
2563, -0.1866472748359, -1.6167619010839, -1.5072426470588
2564, -0.3098615301655, -1.5977302907949, -1.6286029411765
2565, -0.43125739482507, -1.56932256385, -1.5072426470588
2566, -0.55012246960984, -1.5317054280867, -1.6286029411765
2567, -0.66575920699636, -1.4850996358156, -1.5072426470588
2568, -0.77748900462871, -1.4297786883576, -1.6286029411765
2569, -0.88465618762699, -1.3660672310297, -1.5072426470588
2570, -0.98663185634821, -1.2943391479975, -1.6286029411765
2571, -1.0828175770195, -1.2150153681735, -1.5072426470588
2572, -1.1726488935853, -1.1285613950394, -1.6286029411765
2573, -1.2555986401602, -1.0354845748865, -1.5072426470588
2574, -1.3311800346478, -0.9363311195058, -1.6286029411765
2575, -1.3989495353717, -0.83168290080017, -1.5072426470588
2576, -1.4585094439541, -0.72215403612848, -1.6286029411765
2577, -1.5095102391687, -0.60838728442085, -1.5072426470588
2578, -1.5516526280694, -0.49105027421367, -1.6286029411765
2579, -1.5846893023611, -0.37083158573985, -1.5072426470588
2580, -1.6084263897025, -0.24843671006622, -1.6286029411765
2581, -1.6227245914265, -0.12458390899139, -1.5072426470588
2582, -1.6275, 4.037564234344e-15, -1.6286029411765
2583, -1.6227245914265, 0.1245839089914, -1.5072426470588
2584, -1.6084263897025, 0.24843671006622, -1.6286029411765
2585, -1.5846893023611, 0.37083158573986, -1.5072426470588
2586, -1.5516526280694, 0.49105027421368, -1.6286029411765
2587, -1.5095102391687, 0.60838728442085, -1.5072426470588
2588, -1.4585094439541, 0.72215403612848, -1.6286029411765
2589, -1.3989495353717, 0.83168290080017, -1.5072426470588
2590, -1.3311800346478, 0.93633111950581, -1.6286029411765
2591, -1.2555986401602, 1.0354845748865, -1.5072426470588
2592, -1.1726488935853, 1.1285613950394, -1.6286029411765
2593, -1.0828175770195, 1.2150153681735, -1.5072426470588
2594, -0.9866318563482, 1.2943391479975, -1.6286029411765
2595, -0.88465618762699, 1.3660672310297, -1.5072426470588
2596, -0.77748900462871, 1.4297786883576, -1.6286029411765
2597, -0.66575920699635, 1.4850996358156, -1.5072426470588
2598, -0.55012246960984, 1.5317054280867, -1.6286029411765
2599, -0.43125739482507, 1.56932256385, -1.5072426470588
2600, -0.3098615301655, 1.5977302907949, -1.6286029411765
2601, -0.1866472748359, 1.6167619010839, -1.5072426470588
2602, -0.062337699080532, 1.6263057096602, -1.6286029411765
2603, 0.062337699080533, 1.6263057096602, -1.5072426470588
2604, 0.1866472748359, 1.6167619010839, -1.6286029411765
2605, 0.3098615301655, 1.5977302907949, -1.5072426470588
2606, 0.43125739482507, 1.56932256385, -1.6286029411765
2607, 0.55012246960984, 1.5317054280867, -1.5072426470588
2608, 0.66575920699635, 1.4850996358156, -1.6286029411765
2609, 0.77748900462871, 1.4297786883576, -1.5072426470588
2610, 0.88465618762699, 1.3660672310297, -1.6286029411765
2611, 0.9866318563482, 1.2943391479975, -1.5072426470588
2612, 1.0828175770195, 1.2150153681735, -1.6286029411765
2613, 1.1726488935853, 1.1285613950394, -1.5072426470588
2614, 1.2555986401602, 1.0354845748865, -1.6286029411765
2615, 1.3311800346478, 0.9363311195058, -1.5072426470588
2616, 1.3989495353717, 0.83168290080017, -1.6286029411765
2617, 1.4585094439541, 0.72215403612848, -1.5072426470588
2618, 1.5095102391687, 0.60838728442085, -1.6286029411765
2619, 1.5516526280694, 0.49105027421368, -1.5072426470588
2620, 1.5846893023611, 0.37083158573986, -1.6286029411765
2621, 1.6084263897025, 0.24843671006622, -1.5072426470588
2622, 1.6227245914265, 0.1245839089914, -1.6286029411765
2623, 1.6227245914265, -0.12458390899139, -1.8713235294118
2624, 1.6084263897025, -0.24843671006621, -1.7499632352941
2625, 1.5846893023611, -0.37083158573985, -1.8713235294118
2626, 1.5516526280694, -0.49105027421367, -1.7499632352941
2627, 1.5095102391687, -0.60838728442085, -1.8713235294118
2628, 1.4585094439541, -0.72215403612847, -1.7499632352941
2629, 1.3989495353717, -0.83168290080017, -1.8713235294118
2630, 1.3311800346478, -0.9363311195058, -1.7499632352941
2631, 1.2555986401602, -1.0354845748865, -1.8713235294118
2632, 1.1726488935853, -1.1285613950394, -1.7499632352941
2633, 1.0828175770195, -1.2150153681735, -1.8713235294118
2634, 0.98663185634821, -1.2943391479975, -1.7499632352941
2635, 0.88465618762699, -1.3660672310297, -1.8713235294118
2636, 0.77748900462871, -1.4297786883576, -1.7499632352941
2637, 0.66575920699636, -1.4850996358156, -1.8713235294118
2638, 0.55012246960984, -1.5317054280867, -1.7499632352941
2639, 0.43125739482507, -1.56932256385, -1.8713235294118
2640, 0.3098615301655, -1.5977302907949, -1.7499632352941
2641, 0.1866472748359, -1.6167619010839, -1.8713235294118
2642, 0.062337699080533, -1.6263057096602, -1.7499632352941
2643, -0.062337699080532, -1.6263057096602, -1.8713235294118
2644, -0.1866472748359, -1.6167619010839, -1.7499632352941
2645, -0.3098615301655, -1.5977302907949, -1.8713235294118
2646, -0.43125739482507, -1.56932256385, -1.7499632352941
2647, -0.55012246960984, -1.5317054280867, -1.8713235294118
2648, -0.66575920699636, -1.4850996358156, -1.7499632352941
2649, -0.77748900462871, -1.4297786883576, -1.8713235294118
2650, -0.88465618762699, -1.3660672310297, -1.7499632352941
2651, -0.98663185634821, -1.2943391479975, -1.8713235294118
2652, -1.0828175770195, -1.2150153681735, -1.7499632352941
2653, -1.1726488935853, -1.1285613950394, -1.8713235294118
2654, -1.2555986401602, -1.0354845748865, -1.7499632352941
2655, -1.3311800346478, -0.9363311195058, -1.8713235294118
2656, -1.3989495353717, -0.83168290080017, -1.7499632352941
2657, -1.4585094439541, -0.72215403612848, -1.8713235294118
2658, -1.5095102391687, -0.60838728442085, -1.7499632352941
2659, -1.5516526280694, -0.49105027421367, -1.8713235294118
2660, -1.5846893023611, -0.37083158573985, -1.7499632352941
2661, -1.6084263897025, -0.24843671006622, -1.8713235294118
2662, -1.6227245914265, -0.12458390899139, -1.7499632352941
2663, -1.6275, -2.9896689984185e-16, -1.8713235294118
2664, -1.6227245914265, 0.1245839089914, -1.7499632352941
2665, -1.6084263897025, 0.24843671006622, -1.8713235294118
2666, -1.5846893023611, 0.37083158573986, -1.7499632352941
2667, -1.5516526280694, 0.49105027421368, -1.8713235294118
2668, -1.5095102391687, 0.60838728442085, -1.7499632352941
2669, -1.4585094439541, 0.72215403612848, -1.8713235294118
2670, -1.3989495353717, 0.83168290080017, -1.7499632352941
2671, -1.3311800346478, 0.93633111950581, -1.8713235294118
2672, -1.2555986401602, 1.0354845748865, -1.7499632352941
2673, -1.1726488935853, 1.1285613950394, -1.8713235294118
2674, -1.0828175770195, 1.2150153681735, -1.7499632352941
2675, -0.9866318563482, 1.2943391479975, -1.8713235294118
2676, -0.88465618762699, 1.3660672310297, -1.7499632352941
2677, -0.77748900462871, 1.4297786883576, -1.8713235294118
2678, -0.66575920699635, 1.4850996358156, -1.7499632352941
2679, -0.55012246960984, 1.5317054280867, -1.8713235294118
2680, -0.43125739482507, 1.56932256385, -1.7499632352941
2681, -0.3098615301655, 1.5977302907949, -1.8713235294118
2682, -0.18664727483589, 1.6167619010839, -1.7499632352941
2683, -0.062337699080532, 1.6263057096602, -1.8713235294118
2684, 0.062337699080533, 1.6263057096602, -1.7499632352941
2685, 0.1866472748359, 1.6167619010839, -1.8713235294118
2686, 0.3098615301655, 1.5977302907949, -1.7499632352941
2687, 0.43125739482507, 1.56932256385, -1.8713235294118
2688, 0.55012246960984, 1.5317054280867, -1.7499632352941
2689, 0.66575920699635, 1.4850996358156, -1.8713235294118
2690, 0.77748900462871, 1.4297786883576, -1.7499632352941
2691, 0.88465618762699, 1.3660672310297, -1.8713235294118
2692, 0.9866318563482, 1.2943391479975, -1.7499632352941
2693, 1.0828175770195, 1.2150153681735, -1.8713235294118
2694, 1.1726488935853, 1.1285613950394, -1.7499632352941
2695, 1.2555986401602, 1.0354845748865, -1.8713235294118
2696, 1.3311800346478, 0.9363311195058, -1.7499632352941
2697, 1.3989495353717, 0.83168290080017, -1.8713235294118
2698, 1.4585094439541, 0.72215403612848, -1.7499632352941
2699, 1.5095102391687, 0.60838728442085, -1.8713235294118
2700, 1.5516526280694, 0.49105027421367, -1.7499632352941
2701, 1.5846893023611, 0.37083158573985, -1.8713235294118
2702, 1.6084263897025, 0.24843671006622, -1.7499632352941
2703, 1.6227245914265, 0.1245839089914, -1.8713235294118
2704, 1.6227245914265, -0.12458390899139, -2.1140441176471
2705, 1.6084263897025, -0.24843671006621, -1.9926838235294
2706, 1.5846893023611, -0.37083158573985, -2.1140441176471
2707, 1.5516526280694, -0.49105027421367, -1.9926838235294
2708, 1.5095102391687, -0.60838728442085, -2.1140441176471
2709, 1.4585094439541, -0.72215403612847, -1.9926838235294
2710, 1.3989495353717, -0.83168290080017, -2.1140441176471
2711, 1.3311800346478, -0.9363311195058, -1.9926838235294
2712, 1.2555986401602, -1.0354845748865, -2.1140441176471
2713, 1.1726488935853, -1.1285613950394, -1.9926838235294
2714, 1.0828175770195, -1.2150153681735, -2.1140441176471
2715, 0.98663185634821, -1.2943391479975, -1.9926838235294
2716, 0.88465618762699, -1.3660672310297, -2.1140441176471
2717, 0.77748900462871, -1.4297786883576, -1.9926838235294
2718, 0.66575920699636, -1.4850996358156, -2.1140441176471
2719, 0.55012246960984, -1.5317054280867, -1.9926838235294
2720, 0.43125739482507, -1.56932256385, -2.1140441176471
2721, 0.3098615301655, -1.5977302907949, -1.9926838235294
2722, 0.1866472748359, -1.6167619010839, -2.1140441176471
2723, 0.062337699080533, -1.6263057096602, -1.9926838235294
2724, -0.062337699080533, -1.6263057096602, -2.1140441176471
2725, -0.1866472748359, -1.6167619010839, -1.9926838235294
2726, -0.3098615301655, -1.5977302907949, -2.1140441176471
2727, -0.43125739482507, -1.56932256385, -1.9926838235294
2728, -0.55012246960984, -1.5317054280867, -2.1140441176471
2729, -0.66575920699636, -1.4850996358156, -1.9926838235294
2730, -0.77748900462871, -1.4297786883576, -2.1140441176471
2731, -0.88465618762699, -1.3660672310297, -1.9926838235294
2732, -0.98663185634821, -1.2943391479975, -2.1140441176471
2733, -1.0828175770195, -1.2150153681735, -1.9926838235294
2734, -1.1726488935853, -1.1285613950394, -2.1140441176471
2735, -1.2555986401602, -1.0354845748865, -1.9926838235294
2736, -1.3311800346478, -0.9363311195058, -2.1140441176471
2737, -1.3989495353717, -0.83168290080017, -1.9926838235294
2738, -1.4585094439541, -0.72215403612848, -2.1140441176471
2739, -1.5095102391687, -0.60838728442085, -1.9926838235294
2740, -1.5516526280694, -0.49105027421367, -2.1140441176471
2741, -1.5846893023611, -0.37083158573985, -1.9926838235294
2742, -1.6084263897025, -0.24843671006622, -2.1140441176471
2743, -1.6227245914265, -0.12458390899139, -1.9926838235294
2744, -1.6275, 2.5920538562821e-15, -2.1140441176471
2745, -1.6227245914265, 0.1245839089914, -1.9926838235294
2746, -1.6084263897025, 0.24843671006622, -2.1140441176471
2747, -1.5846893023611, 0.37083158573986, -1.9926838235294
2748, -1.5516526280694, 0.49105027421368, -2.1140441176471
2749, -1.5095102391687, 0.60838728442085, -1.9926838235294
2750, -1.4585094439541, 0.72215403612848, -2.1140441176471
2751, -1.3989495353717, 0.83168290080017, -1.9926838235294
2752, -1.3311800346478, 0.93633111950581, -2.1140441176471
2753, -1.2555986401602, 1.0354845748865, -1.9926838235294
2754, -1.1726488935853, 1.1285613950394, -2.1140441176471
2755, -1.0828175770195, 1.2150153681735, -1.9926838235294
2756, -0.9866318563482, 1.2943391479975, -2.1140441176471
2757, -0.88465618762699, 1.3660672310297, -1.9926838235294
2758, -0.77748900462871, 1.4297786883576, -2.1140441176471
2759, -0.66575920699635, 1.4850996358156, -1.9926838235294
2760, -0.55012246960984, 1.5317054280867, -2.1140441176471
2761, -0.43125739482507, 1.56932256385, -1.9926838235294
2762, -0.3098615301655, 1.5977302907949, -2.1140441176471
2763, -0.1866472748359, 1.6167619010839, -1.9926838235294
2764, -0.062337699080533, 1.6263057096602, -2.1140441176471
2765, 0.062337699080533, 1.6263057096602, -1.9926838235294
2766, 0.1866472748359, 1.6167619010839, -2.1140441176471
2767, 0.3098615301655, 1.5977302907949, -1.9926838235294
2768, 0.43125739482507, 1.56932256385, -2.1140441176471
2769, 0.55012246960984, 1.5317054280867, -1.9926838235294
2770, 0.66575920699635, 1.4850996358156, -2.1140441176471
2771, 0.77748900462871, 1.4297786883576, -1.9926838235294
2772, 0.88465618762699, 1.3660672310297, -2.1140441176471
2773, 0.9866318563482, 1.2943391479975, -1.9926838235294
2774, 1.0828175770195, 1.2150153681735, -2.1140441176471
2775, 1.1726488935853, 1.1285613950394, -1.9926838235294
2776, 1.2555986401602, 1.0354845748865, -2.1140441176471
2777, 1.3311800346478, 0.9363311195058, -1.9926838235294
2778, 1.3989495353717, 0.83168290080017, -2.1140441176471
2779, 1.4585094439541, 0.72215403612848, -1.9926838235294
2780, 1.5095102391687, 0.60838728442085, -2.1140441176471
2781, 1.5516526280694, 0.49105027421367, -1.9926838235294
2782, 1.5846893023611, 0.37083158573986, -2.1140441176471
2783, 1.6084263897025, 0.24843671006622, -1.9926838235294
2784, 1.6227245914265, 0.1245839089914, -2.1140441176471
2785, 1.6227245914265, -0.12458390899139, -2.3567647058824
2786, 1.6084263897025, -0.24843671006621, -2.2354044117647
2787, 1.5846893023611, -0.37083158573985, -2.3567647058824
2788, 1.5516526280694, -0.49105027421367, -2.2354044117647
2789, 1.5095102391687, -0.60838728442085, -2.3567647058824
2790, 1.4585094439541, -0.72215403612847, -2.2354044117647
2791, 1.3989495353717, -0.83168290080017, -2.3567647058824
2792, 1.3311800346478, -0.9363311195058, -2.2354044117647
2793, 1.2555986401602, -1.0354845748865, -2.3567647058824
2794, 1.1726488935853, -1.1285613950394, -2.2354044117647
2795, 1.0828175770195, -1.2150153681735, -2.3567647058824
2796, 0.98663185634821, -1.2943391479975, -2.2354044117647
2797, 0.88465618762699, -1.3660672310297, -2.3567647058824
2798, 0.77748900462871, -1.4297786883576, -2.2354044117647
2799, 0.66575920699636, -1.4850996358156, -2.3567647058824
2800, 0.55012246960984, -1.5317054280867, -2.2354044117647
2801, 0.43125739482507, -1.56932256385, -2.3567647058824
2802, 0.3098615301655, -1.5977302907949, -2.2354044117647
2803, 0.1866472748359, -1.6167619010839, -2.3567647058824
2804, 0.062337699080533, -1.6263057096602, -2.2354044117647
2805, -0.062337699080532, -1.6263057096602, -2.3567647058824
2806, -0.1866472748359, -1.6167619010839, -2.2354044117647
2807, -0.3098615301655, -1.5977302907949, -2.3567647058824
2808, -0.43125739482507, -1.56932256385, -2.2354044117647
2809, -0.55012246960984, -1.5317054280867, -2.3567647058824
2810, -0.66575920699636, -1.4850996358156, -2.2354044117647
2811, -0.77748900462871, -1.4297786883576, -2.3567647058824
2812, -0.88465618762699, -1.3660672310297, -2.2354044117647
2813, -0.98663185634821, -1.2943391479975, -2.3567647058824
2814, -1.0828175770195, -1.2150153681735, -2.2354044117647
2815, -1.1726488935853, -1.1285613950394, -2.3567647058824
2816, -1.2555986401602, -1.0354845748865, -2.2354044117647
2817, -1.3311800346478, -0.9363311195058, -2.3567647058824
2818, -1.3989495353717, -0.83168290080017, -2.2354044117647
2819, -1.4585094439541, -0.72215403612848, -2.3567647058824
2820, -1.5095102391687, -0.60838728442085, -2.2354044117647
2821, -1.5516526280694, -0.49105027421367, -2.3567647058824
2822, -1.5846893023611, -0.37083158573985, -2.2354044117647
2823, -1.6084263897025, -0.24843671006622, -2.3567647058824
2824, -1.6227245914265, -0.12458390899139, -2.2354044117647
2825, -1.6275, 1.1465434782201e-15, -2.3567647058824
2826, -1.6227245914265, 0.1245839089914, -2.2354044117647
2827, -1.6084263897025, 0.24843671006622, -2.3567647058824
2828, -1.5846893023611, 0.37083158573986, -2.2354044117647
2829, -1.5516526280694, 0.49105027421368, -2.3567647058824
2830, -1.5095102391687, 0.60838728442085, -2.2354044117647
2831, -1.4585094439541, 0.72215403612848, -2.3567647058824
2832, -1.3989495353717, 0.83168290080017, -2.2354044117647
2833, -1.3311800346478, 0.93633111950581, -2.3567647058824
2834, -1.2555986401602, 1.0354845748865, -2.2354044117647
2835, -1.1726488935853, 1.1285613950394, -2.3567647058824
2836, -1.0828175770195, 1.2150153681735, -2.2354044117647
2837, -0.9866318563482, 1.2943391479975, -2.3567647058824
2838, -0.88465618762699, 1.3660672310297, -2.2354044117647
2839, -0.77748900462871, 1.4297786883576, -2.3567647058824
2840, -0.66575920699635, 1.4850996358156, -2.2354044117647
2841, -0.55012246960984, 1.5317054280867, -2.3567647058824
2842, -0.43125739482507, 1.56932256385, -2.2354044117647
2843, -0.3098615301655, 1.5977302907949, -2.3567647058824
2844, -0.1866472748359, 1.6167619010839, -2.2354044117647
2845, -0.062337699080533, 1.6263057096602, -2.3567647058824
2846, 0.062337699080533, 1.6263057096602, -2.2354044117647
2847, 0.1866472748359, 1.6167619010839, -2.3567647058824
2848, 0.3098615301655, 1.5977302907949, -2.2354044117647
2849, 0.43125739482507, 1.56932256385, -2.3567647058824
2850, 0.55012246960984, 1.5317054280867, -2.2354044117647
2851, 0.66575920699636, 1.4850996358156, -2.3567647058824
2852, 0.77748900462871, 1.4297786883576, -2.2354044117647
2853, 0.88465618762699, 1.3660672310297, -2.3567647058824
2854, 0.9866318563482, 1.2943391479975, -2.2354044117647
2855, 1.0828175770195, 1.2150153681735, -2.3567647058824
2856, 1.1726488935853, 1.1285613950394, -2.2354044117647
2857, 1.2555986401602, 1.0354845748865, -2.3567647058824
2858, 1.3311800346478, 0.9363311195058, -2.2354044117647
2859, 1.3989495353717, 0.83168290080017, -2.3567647058824
2860, 1.4585094439541, 0.72215403612848, -2.2354044117647
2861, 1.5095102391687, 0.60838728442085, -2.3567647058824
2862, 1.5516526280694, 0.49105027421367, -2.2354044117647
2863, 1.5846893023611, 0.37083158573986, -2.3567647058824
2864, 1.6084263897025, 0.24843671006622, -2.2354044117647
2865, 1.6227245914265, 0.1245839089914, -2.3567647058824
2866, 1.6227245914265, -0.12458390899139, -2.5994852941176
2867, 1.6084263897025, -0.24843671006621, -2.478125
2868, 1.5846893023611, -0.37083158573985, -2.5994852941176
2869, 1.5516526280694, -0.49105027421367, -2.478125
2870, 1.5095102391687, -0.60838728442085, -2.5994852941176
2871, 1.4585094439541, -0.72215403612847, -2.478125
2872, 1.3989495353717, -0.83168290080017, -2.5994852941176
2873, 1.3311800346478, -0.9363311195058, -2.478125
2874, 1.2555986401602, -1.0354845748865, -2.5994852941176
2875, 1.1726488935853, -1.1285613950394, -2.478125
2876, 1.0828175770195, -1.2150153681735, -2.5994852941176
2877, 0.98663185634821, -1.2943391479975, -2.478125
2878, 0.88465618762699, -1.3660672310297, -2.5994852941176
2879, 0.77748900462871, -1.4297786883576, -2.478125
2880, 0.66575920699636, -1.4850996358156, -2.5994852941176
2881, 0.55012246960984, -1.5317054280867, -2.478125
2882, 0.43125739482507, -1.56932256385, -2.5994852941176
2883, 0.3098615301655, -1.5977302907949, -2.478125
2884, 0.1866472748359, -1.6167619010839, -2.5994852941176
2885, 0.062337699080533, -1.6263057096602, -2.478125
2886, -0.062337699080534, -1.6263057096602, -2.5994852941176
2887, -0.1866472748359, -1.6167619010839, -2.478125
2888, -0.3098615301655, -1.5977302907949, -2.5994852941176
2889, -0.43125739482507, -1.56932256385, -2.478125
2890, -0.55012246960984, -1.5317054280867, -2.5994852941176
2891, -0.66575920699636, -1.4850996358156, -2.478125
2892, -0.77748900462871, -1.4297786883576, -2.5994852941176
2893, -0.88465618762699, -1.3660672310297, -2.478125
2894, -0.98663185634821, -1.2943391479975, -2.5994852941176
2895, -1.0828175770195, -1.2150153681735, -2.478125
2896, -1.1726488935853, -1.1285613950394, -2.5994852941176
2897, -1.2555986401602, -1.0354845748865, -2.478125
2898, -1.3311800346478, -0.9363311195058, -2.5994852941176
2899, -1.3989495353717, -0.83168290080017, -2.478125
2900, -1.4585094439541, -0.72215403612848, -2.5994852941176
2901, -1.5095102391687, -0.60838728442085, -2.478125
2902, -1.5516526280694, -0.49105027421367, -2.5994852941176
2903, -1.5846893023611, -0.37083158573985, -2.478125
2904, -1.6084263897025, -0.24843671006622, -2.5994852941176
2905, -1.6227245914265, -0.12458390899139, -2.478125
2906, -1.6275, 1.1465434782201e-15, -2.5994852941176
2907, -1.6227245914265, 0.1245839089914, -2.478125
2908, -1.6084263897025, 0.24843671006622, -2.5994852941176
2909, -1.5846893023611, 0.37083158573986, -2.478125
2910, -1.5516526280694, 0.49105027421367, -2.5994852941176
2911, -1.5095102391687, 0.60838728442085, -2.478125
2912, -1.4585094439541, 0.72215403612848, -2.5994852941176
2913, -1.3989495353717, 0.83168290080017, -2.478125
2914, -1.3311800346478, 0.93633111950581, -2.5994852941176
2915, -1.2555986401602, 1.0354845748865, -2.478125
2916, -1.1726488935853, 1.1285613950394, -2.5994852941176
2917, -1.0828175770195, 1.2150153681735, -2.478125
2918, -0.9866318563482, 1.2943391479975, -2.5994852941176
2919, -0.88465618762699, 1.3660672310297, -2.478125
2920, -0.77748900462871, 1.4297786883576, -2.5994852941176
2921, -0.66575920699635, 1.4850996358156, -2.478125
2922, -0.55012246960984, 1.5317054280867, -2.5994852941176
2923, -0.43125739482506, 1.56932256385, -2.478125
2924, -0.3098615301655, 1.5977302907949, -2.5994852941176
2925, -0.1866472748359, 1.6167619010839, -2.478125
2926, -0.062337699080533, 1.6263057096602, -2.5994852941176
2927, 0.062337699080533, 1.6263057096602, -2.478125
2928, 0.1866472748359, 1.6167619010839, -2.5994852941176
2929, 0.3098615301655, 1.5977302907949, -2.478125
2930, 0.43125739482507, 1.56932256385, -2.5994852941176
2931, 0.55012246960984, 1.5317054280867, -2.478125
2932, 0.66575920699635, 1.4850996358156, -2.5994852941176
2933, 0.77748900462871, 1.4297786883576, -2.478125
2934, 0.88465618762699, 1.3660672310297, -2.5994852941176
2935, 0.9866318563482, 1.2943391479975, -2.478125
2936, 1.0828175770195, 1.2150153681735, -2.5994852941176
2937, 1.1726488935853, 1.1285613950394, -2.478125
2938, 1.2555986401602, 1.0354845748865, -2.5994852941176
2939, 1.3311800346478, 0.9363311195058, -2.478125
2940, 1.3989495353717, 0.83168290080017, -2.5994852941176
2941, 1.4585094439541, 0.72215403612848, -2.478125
2942, 1.5095102391687, 0.60838728442085, -2.5994852941176
2943, 1.5516526280694, 0.49105027421368, -2.478125
2944, 1.5846893023611, 0.37083158573986, -2.5994852941176
2945, 1.6084263897025, 0.24843671006622, -2.478125
2946, 1.6227245914265, 0.1245839089914, -2.5994852941176
2947, 1.6227245914265, -0.12458390899139, -2.8422058823529
2948, 1.6084263897025, -0.24843671006621, -2.7208455882353
2949, 1.5846893023611, -0.37083158573985, -2.8422058823529
2950, 1.5516526280694, -0.49105027421367, -2.7208455882353
2951, 1.5095102391687, -0.60838728442085, -2.8422058823529
2952, 1.4585094439541, -0.72215403612847, -2.7208455882353
2953, 1.3989495353717, -0.83168290080017, -2.8422058823529
2954, 1.3311800346478, -0.9363311195058, -2.7208455882353
2955, 1.2555986401602, -1.0354845748865, -2.8422058823529
2956, 1.1726488935853, -1.1285613950394, -2.7208455882353
2957, 1.0828175770195, -1.2150153681735, -2.8422058823529
2958, 0.98663185634821, -1.2943391479975, -2.7208455882353
2959, 0.88465618762699, -1.3660672310297, -2.8422058823529
2960, 0.77748900462871, -1.4297786883576, -2.7208455882353
2961, 0.66575920699636, -1.4850996358156, -2.8422058823529
2962, 0.55012246960984, -1.5317054280867, -2.7208455882353
2963, 0.43125739482507, -1.56932256385, -2.8422058823529
2964, 0.3098615301655, -1.5977302907949, -2.7208455882353
2965, 0.1866472748359, -1.6167619010839, -2.8422058823529
2966, 0.062337699080533, -1.6263057096602, -2.7208455882353
2967, -0.062337699080532, -1.6263057096602, -2.8422058823529
2968, -0.1866472748359, -1.6167619010839, -2.7208455882353
2969, -0.3098615301655, -1.5977302907949, -2.8422058823529
2970, -0.43125739482507, -1.56932256385, -2.7208455882353
2971, -0.55012246960984, -1.5317054280867, -2.8422058823529
2972, -0.66575920699636, -1.4850996358156, -2.7208455882353
2973, -0.77748900462871, -1.4297786883576, -2.8422058823529
2974, -0.88465618762699, -1.3660672310297, -2.7208455882353
2975, -0.98663185634821, -1.2943391479975, -2.8422058823529
2976, -1.0828175770195, -1.2150153681735, -2.7208455882353
2977, -1.1726488935853, -1.1285613950394, -2.8422058823529
2978, -1.2555986401602, -1.0354845748865, -2.7208455882353
2979, -1.3311800346478, -0.9363311195058, -2.8422058823529
2980, -1.3989495353717, -0.83168290080017, -2.7208455882353
2981, -1.4585094439541, -0.72215403612848, -2.8422058823529
2982, -1.5095102391687, -0.60838728442085, -2.7208455882353
2983, -1.5516526280694, -0.49105027421367, -2.8422058823529
2984, -1.5846893023611, -0.37083158573985, -2.7208455882353
2985, -1.6084263897025, -0.24843671006622, -2.8422058823529
2986, -1.6227245914265, -0.12458390899139, -2.7208455882353
2987, -1.6275, 2.5920538562821e-15, -2.8422058823529
2988, -1.6227245914265, 0.1245839089914, -2.7208455882353
2989, -1.6084263897025, 0.24843671006622, -2.8422058823529
2990, -1.5846893023611, 0.37083158573986, -2.7208455882353
2991, -1.5516526280694, 0.49105027421368, -2.8422058823529
2992, -1.5095102391687, 0.60838728442085, -2.7208455882353
2993, -1.4585094439541, 0.72215403612848, -2.8422058823529
2994, -1.3989495353717, 0.83168290080017, -2.7208455882353
2995, -1.3311800346478, 0.93633111950581, -2.8422058823529
2996, -1.2555986401602, 1.0354845748865, -2.7208455882353
2997, -1.1726488935853, 1.1285613950394, -2.8422058823529
2998, -1.0828175770195, 1.2150153681735, -2.7208455882353
2999, -0.9866318563482, 1.2943391479975, -2.8422058823529
3000, -0.88465618762699, 1.3660672310297, -2.7208455882353
3001, -0.77748900462871, 1.4297786883576, -2.8422058823529
3002, -0.66575920699635, 1.4850996358156, -2.7208455882353
3003, -0.55012246960984, 1.5317054280867, -2.8422058823529
3004, -0.43125739482507, 1.56932256385, -2.7208455882353
3005, -0.3098615301655, 1.5977302907949, -2.8422058823529
3006, -0.1866472748359, 1.6167619010839, -2.7208455882353
3007, -0.062337699080533, 1.6263057096602, -2.8422058823529
3008, 0.062337699080533, 1.6263057096602, -2.7208455882353
3009, 0.1866472748359, 1.6167619010839, -2.8422058823529
3010, 0.3098615301655, 1.5977302907949, -2.7208455882353
3011, 0.43125739482507, 1.56932256385, -2.8422058823529
3012, 0.55012246960984, 1.5317054280867, -2.7208455882353
3013, 0.66575920699635, 1.4850996358156, -2.8422058823529
3014, 0.77748900462871, 1.4297786883576, -2.7208455882353
3015, 0.88465618762699, 1.3660672310297, -2.8422058823529
3016, 0.9866318563482, 1.2943391479975, -2.7208455882353
3017, 1.0828175770195, 1.2150153681735, -2.8422058823529
3018, 1.1726488935853, 1.1285613950394, -2.7208455882353
3019, 1.2555986401602, 1.0354845748865, -2.8422058823529
3020, 1.3311800346478, 0.9363311195058, -2.7208455882353
3021, 1.3989495353717, 0.83168290080017, -2.8422058823529
3022, 1.4585094439541, 0.72215403612847, -2.7208455882353
3023, 1.5095102391687, 0.60838728442085, -2.8422058823529
3024, 1.5516526280694, 0.49105027421367, -2.7208455882353
3025, 1.5846893023611, 0.37083158573985, -2.8422058823529
3026, 1.6084263897025, 0.24843671006622, -2.7208455882353
3027, 1.6227245914265, 0.1245839089914, -2.8422058823529
3028, 1.6227245914265, -0.12458390899139, -3.0849264705882
3029, 1.6084263897025, -0.24843671006621, -2.9635661764706
3030, 1.5846893023611, -0.37083158573985, -3.0849264705882
3031, 1.5516526280694, -0.49105027421367, -2.9635661764706
3032, 1.5095102391687, -0.60838728442085, -3.0849264705882
3033, 1.4585094439541, -0.72215403612847, -2.9635661764706
3034, 1.3989495353717, -0.83168290080017, -3.0849264705882
3035, 1.3311800346478, -0.9363311195058, -2.9635661764706
3036, 1.2555986401602, -1.0354845748865, -3.0849264705882
3037, 1.1726488935853, -1.1285613950394, -2.9635661764706
3038, 1.0828175770195, -1.2150153681735, -3.0849264705882
3039, 0.98663185634821, -1.2943391479975, -2.9635661764706
3040, 0.88465618762699, -1.3660672310297, -3.0849264705882
3041, 0.77748900462871, -1.4297786883576, -2.9635661764706
3042, 0.66575920699636, -1.4850996358156, -3.0849264705882
3043, 0.55012246960984, -1.5317054280867, -2.9635661764706
3044, 0.43125739482507, -1.56932256385, -3.0849264705882
3045, 0.3098615301655, -1.5977302907949, -2.9635661764706
3046, 0.1866472748359, -1.6167619010839, -3.0849264705882
3047, 0.062337699080533, -1.6263057096602, -2.9635661764706
3048, -0.062337699080532, -1.6263057096602, -3.0849264705882
3049, -0.1866472748359, -1.6167619010839, -2.9635661764706
3050, -0.3098615301655, -1.5977302907949, -3.0849264705882
3051, -0.43125739482507, -1.56932256385, -2.9635661764706
3052, -0.55012246960984, -1.5317054280867, -3.0849264705882
3053, -0.66575920699636, -1.4850996358156, -2.9635661764706
3054, -0.77748900462871, -1.4297786883576, -3.0849264705882
3055, -0.88465618762699, -1.3660672310297, -2.9635661764706
3056, -0.98663185634821, -1.2943391479975, -3.0849264705882
3057, -1.0828175770195, -1.2150153681735, -2.9635661764706
3058, -1.1726488935853, -1.1285613950394, -3.0849264705882
3059, -1.2555986401602, -1.0354845748865, -2.9635661764706
3060, -1.3311800346478, -0.9363311195058, -3.0849264705882
3061, -1.3989495353717, -0.83168290080017, -2.9635661764706
3062, -1.4585094439541, -0.72215403612848, -3.0849264705882
3063, -1.5095102391687, -0.60838728442085, -2.9635661764706
3064, -1.5516526280694, -0.49105027421367, -3.0849264705882
3065, -1.5846893023611, -0.37083158573985, -2.9635661764706
3066, -1.6084263897025, -0.24843671006622, -3.0849264705882
3067, -1.6227245914265, -0.12458390899139, -2.9635661764706
3068, -1.6275, 1.1465434782201e-15, -3.0849264705882
3069, -1.6227245914265, 0.1245839089914, -2.9635661764706
3070, -1.6084263897025, 0.24843671006622, -3.0849264705882
3071, -1.5846893023611, 0.37083158573986, -2.9635661764706
3072, -1.5516526280694, 0.49105027421368, -3.0849264705882
3073, -1.5095102391687, 0.60838728442085, -2.9635661764706
3074, -1.4585094439541, 0.72215403612848, -3.0849264705882
3075, -1.3989495353717, 0.83168290080017, -2.9635661764706
3076, -1.3311800346478, 0.93633111950581, -3.0849264705882
3077, -1.2555986401602, 1.0354845748865, -2.9635661764706
3078, -1.1726488935853, 1.1285613950394, -3.0849264705882
3079, -1.0828175770195, 1.2150153681735, -2.9635661764706
3080, -0.9866318563482, 1.2943391479975, -3.0849264705882
3081, -0.88465618762699, 1.3660672310297, -2.9635661764706
3082, -0.77748900462871, 1.4297786883576, -3.0849264705882
3083, -0.66575920699635, 1.4850996358156, -2.9635661764706
3084, -0.55012246960984, 1.5317054280867, -3.0849264705882
3085, -0.43125739482507, 1.56932256385, -2.9635661764706
3086, -0.3098615301655, 1.5977302907949, -3.0849264705882
3087, -0.1866472748359, 1.6167619010839, -2.9635661764706
3088, -0.062337699080533, 1.6263057096602, -3.0849264705882
3089, 0.062337699080533, 1.6263057096602, -2.9635661764706
3090, 0.1866472748359, 1.6167619010839, -3.0849264705882
3091, 0.3098615301655, 1.5977302907949, -2.9635661764706
3092, 0.43125739482507, 1.56932256385, -3.0849264705882
3093, 0.55012246960984, 1.5317054280867, -2.9635661764706
3094, 0.66575920699636, 1.4850996358156, -3.0849264705882
3095, 0.77748900462871, 1.4297786883576, -2.9635661764706
3096, 0.88465618762699, 1.3660672310297, -3.0849264705882
3097, 0.9866318563482, 1.2943391479975, -2.9635661764706
3098, 1.0828175770195, 1.2150153681735, -3.0849264705882
3099, 1.1726488935853, 1.1285613950394, -2.9635661764706
3100, 1.2555986401602, 1.0354845748865, -3.0849264705882
3101, 1.3311800346478, 0.9363311195058, -2.9635661764706
3102, 1.3989495353717, 0.83168290080017, -3.0849264705882
3103, 1.4585094439541, 0.72215403612848, -2.9635661764706
3104, 1.5095102391687, 0.60838728442085, -3.0849264705882
3105, 1.5516526280694, 0.49105027421367, -2.9635661764706
3106, 1.5846893023611, 0.37083158573986, -3.0849264705882
3107, 1.6084263897025, 0.24843671006622, -2.9635661764706
3108, 1.6227245914265, 0.1245839089914, -3.0849264705882
3109, 1.6227245914265, -0.12458390899139, -3.3276470588235
3110, 1.6084263897025, -0.24843671006621, -3.2062867647059
3111, 1.5846893023611, -0.37083158573985, -3.3276470588235
3112, 1.5516526280694, -0.49105027421367, -3.2062867647059
3113, 1.5095102391687, -0.60838728442085, -3.3276470588235
3114, 1.4585094439541, -0.72215403612847, -3.2062867647059
3115, 1.3989495353717, -0.83168290080017, -3.3276470588235
3116, 1.3311800346478, -0.9363311195058, -3.2062867647059
3117, 1.2555986401602, -1.0354845748865, -3.3276470588235
3118, 1.1726488935853, -1.1285613950394, -3.2062867647059
3119, 1.0828175770195, -1.2150153681735, -3.3276470588235
3120, 0.98663185634821, -1.2943391479975, -3.2062867647059
3121, 0.88465618762699, -1.3660672310297, -3.3276470588235
3122, 0.77748900462871, -1.4297786883576, -3.2062867647059
3123, 0.66575920699636, -1.4850996358156, -3.3276470588235
3124, 0.55012246960984, -1.5317054280867, -3.2062867647059
3125, 0.43125739482507, -1.56932256385, -3.3276470588235
3126, 0.3098615301655, -1.5977302907949, -3.2062867647059
3127, 0.1866472748359, -1.6167619010839, -3.3276470588235
3128, 0.062337699080533, -1.6263057096602, -3.2062867647059
3129, -0.062337699080533, -1.6263057096602, -3.3276470588235
3130, -0.1866472748359, -1.6167619010839, -3.2062867647059
3131, -0.3098615301655, -1.5977302907949, -3.3276470588235
3132, -0.43125739482507, -1.56932256385, -3.2062867647059
3133, -0.55012246960984, -1.5317054280867, -3.3276470588235
3134, -0.66575920699636, -1.4850996358156, -3.2062867647059
3135, -0.77748900462871, -1.4297786883576, -3.3276470588235
3136, -0.88465618762699, -1.3660672310297, -3.2062867647059
3137, -0.98663185634821, -1.2943391479975, -3.3276470588235
3138, -1.0828175770195, -1.2150153681735, -3.2062867647059
3139, -1.1726488935853, -1.1285613950394, -3.3276470588235
3140, -1.2555986401602, -1.0354845748865, -3.2062867647059
3141, -1.3311800346478, -0.9363311195058, -3.3276470588235
3142, -1.3989495353717, -0.83168290080017, -3.2062867647059
3143, -1.4585094439541, -0.72215403612848, -3.3276470588235
3144, -1.5095102391687, -0.60838728442085, -3.2062867647059
3145, -1.5516526280694, -0.49105027421367, -3.3276470588235
3146, -1.5846893023611, -0.37083158573985, -3.2062867647059
3147, -1.6084263897025, -0.24843671006622, -3.3276470588235
3148, -1.6227245914265, -0.12458390899139, -3.2062867647059
3149, -1.6275, 2.5920538562821e-15, -3.3276470588235
3150, -1.6227245914265, 0.1245839089914, -3.2062867647059
3151, -1.6084263897025, 0.24843671006622, -3.3276470588235
3152, -1.5846893023611, 0.37083158573986, -3.2062867647059
3153, -1.5516526280694, 0.49105027421368, -3.3276470588235
3154, -1.5095102391687, 0.60838728442085, -3.2062867647059
3155, -1.4585094439541, 0.72215403612848, -3.3276470588235
3156, -1.3989495353717, 0.83168290080017, -3.2062867647059
3157, -1.3311800346478, 0.93633111950581, -3.3276470588235
3158, -1.2555986401602, 1.0354845748865, -3.2062867647059
3159, -1.1726488935853, 1.1285613950394, -3.3276470588235
3160, -1.0828175770195, 1.2150153681735, -3.2062867647059
3161, -0.9866318563482, 1.2943391479975, -3.3276470588235
3162, -0.88465618762699, 1.3660672310297, -3.2062867647059
3163, -0.77748900462871, 1.4297786883576, -3.3276470588235
3164, -0.66575920699635, 1.4850996358156, -3.2062867647059
3165, -0.55012246960984, 1.5317054280867, -3.3276470588235
3166, -0.43125739482507, 1.56932256385, -3.2062867647059
3167, -0.3098615301655, 1.5977302907949, -3.3276470588235
3168, -0.1866472748359, 1.6167619010839, -3.2062867647059
3169, -0.062337699080533, 1.6263057096602, -3.3276470588235
3170, 0.062337699080533, 1.6263057096602, -3.2062867647059
3171, 0.1866472748359, 1.6167619010839, -3.3276470588235
3172, 0.3098615301655, 1.5977302907949, -3.2062867647059
3173, 0.43125739482507, 1.56932256385, -3.3276470588235
3174, 0.55012246960984, 1.5317054280867, -3.2062867647059
3175, 0.66575920699635, 1.4850996358156, -3.3276470588235
3176, 0.77748900462871, 1.4297786883576, -3.2062867647059
3177, 0.88465618762699, 1.3660672310297, -3.3276470588235
3178, 0.9866318563482, 1.2943391479975, -3.2062867647059
3179, 1.0828175770195, 1.2150153681735, -3.3276470588235
3180, 1.1726488935853, 1.1285613950394, -3.2062867647059
3181, 1.2555986401602, 1.0354845748865, -3.3276470588235
3182, 1.3311800346478, 0.9363311195058, -3.2062867647059
3183, 1.3989495353717, 0.83168290080017, -3.3276470588235
3184, 1.4585094439541, 0.72215403612848, -3.2062867647059
3185, 1.5095102391687, 0.60838728442085, -3.3276470588235
3186, 1.5516526280694, 0.49105027421367, -3.2062867647059
3187, 1.5846893023611, 0.37083158573985, -3.3276470588235
3188, 1.6084263897025, 0.24843671006622, -3.2062867647059
3189, 1.6227245914265, 0.1245839089914, -3.3276470588235
3190, 1.6227245914265, -0.12458390899139, -3.5703676470588
3191, 1.6084263897025, -0.24843671006621, -3.4490073529412
3192, 1.5846893023611, -0.37083158573985, -3.5703676470588
3193, 1.5516526280694, -0.49105027421367, -3.4490073529412
3194, 1.5095102391687, -0.60838728442085, -3.5703676470588
3195, 1.4585094439541, -0.72215403612847, -3.4490073529412
3196, 1.3989495353717, -0.83168290080017, -3.5703676470588
3197, 1.3311800346478, -0.9363311195058, -3.4490073529412
3198, 1.2555986401602, -1.0354845748865, -3.5703676470588
3199, 1.1726488935853, -1.1285613950394, -3.4490073529412
3200, 1.0828175770195, -1.2150153681735, -3.5703676470588
3201, 0.98663185634821, -1.2943391479975, -3.4490073529412
3202, 0.88465618762699, -1.3660672310297, -3.5703676470588
3203, 0.77748900462871, -1.4297786883576, -3.4490073529412
3204, 0.66575920699636, -1.4850996358156, -3.5703676470588
3205, 0.55012246960984, -1.5317054280867, -3.4490073529412
3206, 0.43125739482507, -1.56932256385, -3.5703676470588
3207, 0.3098615301655, -1.5977302907949, -3.4490073529412
3208, 0.1866472748359, -1.6167619010839, -3.5703676470588
3209, 0.062337699080533, -1.6263057096602, -3.4490073529412
3210, -0.062337699080532, -1.6263057096602, -3.5703676470588
3211, -0.1866472748359, -1.6167619010839, -3.4490073529412
3212, -0.3098615301655, -1.5977302907949, -3.5703676470588
3213, -0.43125739482507, -1.56932256385, -3.4490073529412
3214, -0.55012246960984, -1.5317054280867, -3.5703676470588
3215, -0.66575920699636, -1.4850996358156, -3.4490073529412
3216, -0.77748900462871, -1.4297786883576, -3.5703676470588
3217, -0.88465618762699, -1.3660672310297, -3.4490073529412
3218, -0.98663185634821, -1.2943391479975, -3.5703676470588
3219, -1.0828175770195, -1.2150153681735, -3.4490073529412
3220, -1.1726488935853, -1.1285613950394, -3.5703676470588
3221, -1.2555986401602, -1.0354845748865, -3.4490073529412
3222, -1.3311800346478, -0.9363311195058, -3.5703676470588
3223, -1.3989495353717, -0.83168290080017, -3.4490073529412
3224, -1.4585094439541, -0.72215403612848, -3.5703676470588
3225, -1.5095102391687, -0.60838728442085, -3.4490073529412
3226, -1.5516526280694, -0.49105027421367, -3.5703676470588
3227, -1.5846893023611, -0.37083158573985, -3.4490073529412
3228, -1.6084263897025, -0.24843671006621, -3.5703676470588
3229, -1.6227245914265, -0.12458390899139, -3.4490073529412
3230, -1.6275, 2.5920538562821e-15, -3.5703676470588
3231, -1.6227245914265, 0.1245839089914, -3.4490073529412
3232, -1.6084263897025, 0.24843671006622, -3.5703676470588
3233, -1.5846893023611, 0.37083158573986, -3.4490073529412
3234, -1.5516526280694, 0.49105027421368, -3.5703676470588
3235, -1.5095102391687, 0.60838728442085, -3.4490073529412
3236, -1.4585094439541, 0.72215403612848, -3.5703676470588
3237, -1.3989495353717, 0.83168290080018, -3.4490073529412
3238, -1.3311800346478, 0.93633111950581, -3.5703676470588
3239, -1.2555986401602, 1.0354845748865, -3.4490073529412
3240, -1.1726488935853, 1.1285613950394, -3.5703676470588
3241, -1.0828175770195, 1.2150153681735, -3.4490073529412
3242, -0.9866318563482, 1.2943391479975, -3.5703676470588
3243, -0.88465618762699, 1.3660672310297, -3.4490073529412
3244, -0.77748900462871, 1.4297786883576, -3.5703676470588
3245, -0.66575920699635, 1.4850996358156, -3.4490073529412
3246, -0.55012246960984, 1.5317054280867, -3.5703676470588
3247, -0.43125739482507, 1.56932256385, -3.4490073529412
3248, -0.3098615301655, 1.5977302907949, -3.5703676470588
3249, -0.1866472748359, 1.6167619010839, -3.4490073529412
3250, -0.062337699080533, 1.6263057096602, -3.5703676470588
3251, 0.062337699080533, 1.6263057096602, -3.4490073529412
3252, 0.1866472748359, 1.6167619010839, -3.5703676470588
3253, 0.3098615301655, 1.5977302907949, -3.4490073529412
3254, 0.43125739482507, 1.56932256385, -3.5703676470588
3255, 0.55012246960984, 1.5317054280867, -3.4490073529412
3256, 0.66575920699635, 1.4850996358156, -3.5703676470588
3257, 0.77748900462871, 1.4297786883576, -3.4490073529412
3258, 0.88465618762699, 1.3660672310297, -3.5703676470588
3259, 0.9866318563482, 1.2943391479975, -3.4490073529412
3260, 1.0828175770195, 1.2150153681735, -3.5703676470588
3261, 1.1726488935853, 1.1285613950394, -3.4490073529412
3262, 1.2555986401602, 1.0354845748865, -3.5703676470588
3263, 1.3311800346478, 0.9363311195058, -3.4490073529412
3264, 1.3989495353717, 0.83168290080017, -3.5703676470588
3265, 1.4585094439541, 0.72215403612848, -3.4490073529412
3266, 1.5095102391687, 0.60838728442085, -3.5703676470588
3267, 1.5516526280694, 0.49105027421367, -3.4490073529412
3268, 1.5846893023611, 0.37083158573985, -3.5703676470588
3269, 1.6084263897025, 0.24843671006622, -3.4490073529412
3270, 1.6227245914265, 0.1245839089914, -3.5703676470588
3271, 1.6227245914265, -0.12458390899139, -3.8130882352941
3272, 1.6084263897025, -0.24843671006621, -3.6917279411765
3273, 1.5846893023611, -0.37083158573985, -3.8130882352941
3274, 1.5516526280694, -0.49105027421367, -3.6917279411765
3275, 1.5095102391687, -0.60838728442085, -3.8130882352941
3276, 1.4585094439541, -0.72215403612847, -3.6917279411765
3277, 1.3989495353717, -0.83168290080017, -3.8130882352941
3278, 1.3311800346478, -0.9363311195058, -3.6917279411765
3279, 1.2555986401602, -1.0354845748865, -3.8130882352941
3280, 1.1726488935853, -1.1285613950394, -3.6917279411765
3281, 1.0828175770195, -1.2150153681735, -3.8130882352941
3282, 0.98663185634821, -1.2943391479975, -3.6917279411765
3283, 0.88465618762699, -1.3660672310297, -3.8130882352941
3284, 0.77748900462871, -1.4297786883576, -3.6917279411765
3285, 0.66575920699636, -1.4850996358156, -3.8130882352941
3286, 0.55012246960984, -1.5317054280867, -3.6917279411765
3287, 0.43125739482507, -1.56932256385, -3.8130882352941
3288, 0.3098615301655, -1.5977302907949, -3.6917279411765
3289, 0.1866472748359, -1.6167619010839, -3.8130882352941
3290, 0.062337699080533, -1.6263057096602, -3.6917279411765
3291, -0.062337699080533, -1.6263057096602, -3.8130882352941
3292, -0.1866472748359, -1.6167619010839, -3.6917279411765
3293, -0.3098615301655, -1.5977302907949, -3.8130882352941
3294, -0.43125739482507, -1.56932256385, -3.6917279411765
3295, -0.55012246960984, -1.5317054280867, -3.8130882352941
3296, -0.66575920699636, -1.4850996358156, -3.6917279411765
3297, -0.77748900462871, -1.4297786883576, -3.8130882352941
3298, -0.88465618762699, -1.3660672310297, -3.6917279411765
3299, -0.98663185634821, -1.2943391479975, -3.8130882352941
3300, -1.0828175770195, -1.2150153681735, -3.6917279411765
3301, -1.1726488935853, -1.1285613950394, -3.8130882352941
3302, -1.2555986401602, -1.0354845748865, -3.6917279411765
3303, -1.3311800346478, -0.9363311195058, -3.8130882352941
3304, -1.3989495353717, -0.83168290080017, -3.6917279411765
3305, -1.4585094439541, -0.72215403612848, -3.8130882352941
3306, -1.5095102391687, -0.60838728442085, -3.6917279411765
3307, -1.5516526280694, -0.49105027421367, -3.8130882352941
3308, -1.5846893023611, -0.37083158573985, -3.6917279411765
3309, -1.6084263897025, -0.24843671006622, -3.8130882352941
3310, -1.6227245914265, -0.12458390899139, -3.6917279411765
3311, -1.6275, 2.5920538562821e-15, -3.8130882352941
3312, -1.6227245914265, 0.1245839089914, -3.6917279411765
3313, -1.6084263897025, 0.24843671006622, -3.8130882352941
3314, -1.5846893023611, 0.37083158573986, -3.6917279411765
3315, -1.5516526280694, 0.49105027421368, -3.8130882352941
3316, -1.5095102391687, 0.60838728442085, -3.6917279411765
3317, -1.4585094439541, 0.72215403612848, -3.8130882352941
3318, -1.3989495353717, 0.83168290080017, -3.6917279411765
3319, -1.3311800346478, 0.93633111950581, -3.8130882352941
3320, -1.2555986401602, 1.0354845748865, -3.6917279411765
3321, -1.1726488935853, 1.1285613950394, -3.8130882352941
3322, -1.0828175770195, 1.2150153681735, -3.6917279411765
3323, -0.9866318563482, 1.2943391479975, -3.8130882352941
3324, -0.88465618762699, 1.3660672310297, -3.6917279411765
3325, -0.77748900462871, 1.4297786883576, -3.8130882352941
3326, -0.66575920699635, 1.4850996358156, -3.6917279411765
3327, -0.55012246960984, 1.5317054280867, -3.8130882352941
3328, -0.43125739482507, 1.56932256385, -3.6917279411765
3329, -0.3098615301655, 1.5977302907949, -3.8130882352941
3330, -0.1866472748359, 1.6167619010839, -3.6917279411765
3331, -0.062337699080533, 1.6263057096602, -3.8130882352941
3332, 0.062337699080533, 1.6263057096602, -3.6917279411765
3333, 0.1866472748359, 1.6167619010839, -3.8130882352941
3334, 0.3098615301655, 1.5977302907949, -3.6917279411765
3335, 0.43125739482507, 1.56932256385, -3.8130882352941
3336, 0.55012246960984, 1.5317054280867, -3.6917279411765
3337, 0.66575920699636, 1.4850996358156, -3.8130882352941
3338, 0.77748900462871, 1.4297786883576, -3.6917279411765
3339, 0.88465618762699, 1.3660672310297, -3.8130882352941
3340, 0.9866318563482, 1.2943391479975, -3.6917279411765
3341, 1.0828175770195, 1.2150153681735, -3.8130882352941
3342, 1.1726488935853, 1.1285613950394, -3.6917279411765
3343, 1.2555986401602, 1.0354845748865, -3.8130882352941
3344, 1.3311800346478, 0.9363311195058, -3.6917279411765
3345, 1.3989495353717, 0.83168290080017, -3.8130882352941
3346, 1.4585094439541, 0.72215403612848, -3.6917279411765
3347, 1.5095102391687, 0.60838728442085, -3.8130882352941
3348, 1.5516526280694, 0.49105027421367, -3.6917279411765
3349, 1.5846893023611, 0.37083158573986, -3.8130882352941
3350, 1.6084263897025, 0.24843671006622, -3.6917279411765
3351, 1.6227245914265, 0.1245839089914, -3.8130882352941
3352, 1.6227245914265, -0.12458390899139, -4.0558088235294
3353, 1.6084263897025, -0.24843671006621, -3.9344485294118
3354, 1.5846893023611, -0.37083158573985, -4.0558088235294
3355, 1.5516526280694, -0.49105027421367, -3.9344485294118
3356, 1.5095102391687, -0.60838728442085, -4.0558088235294
3357, 1.4585094439541, -0.72215403612847, -3.9344485294118
3358, 1.3989495353717, -0.83168290080017, -4.0558088235294
3359, 1.3311800346478, -0.9363311195058, -3.9344485294118
3360, 1.2555986401602, -1.0354845748865, -4.0558088235294
3361, 1.1726488935853, -1.1285613950394, -3.9344485294118
3362, 1.0828175770195, -1.2150153681735, -4.0558088235294
3363, 0.98663185634821, -1.2943391479975, -3.9344485294118
3364, 0.88465618762699, -1.3660672310297, -4.0558088235294
3365, 0.77748900462871, -1.4297786883576, -3.9344485294118
3366, 0.66575920699636, -1.4850996358156, -4.0558088235294
3367, 0.55012246960984, -1.5317054280867, -3.9344485294118
3368, 0.43125739482507, -1.56932256385, -4.0558088235294
3369, 0.3098615301655, -1.5977302907949, -3.9344485294118
3370, 0.1866472748359, -1.6167619010839, -4.0558088235294
3371, 0.062337699080533, -1.6263057096602, -3.9344485294118
3372, -0.062337699080532, -1.6263057096602, -4.0558088235294
3373, -0.1866472748359, -1.6167619010839, -3.9344485294118
3374, -0.3098615301655, -1.5977302907949, -4.0558088235294
3375, -0.43125739482507, -1.56932256385, -3.9344485294118
3376, -0.55012246960984, -1.5317054280867, -4.0558088235294
3377, -0.66575920699636, -1.4850996358156, -3.9344485294118
3378, -0.77748900462871, -1.4297786883576, -4.0558088235294
3379, -0.88465618762699, -1.3660672310297, -3.9344485294118
3380, -0.98663185634821, -1.2943391479975, -4.0558088235294
3381, -1.0828175770195, -1.2150153681735, -3.9344485294118
3382, -1.1726488935853, -1.1285613950394, -4.0558088235294
3383, -1.2555986401602, -1.0354845748865, -3.9344485294118
3384, -1.3311800346478, -0.9363311195058, -4.0558088235294
3385, -1.3989495353717, -0.83168290080017, -3.9344485294118
3386, -1.4585094439541, -0.72215403612848, -4.0558088235294
3387, -1.5095102391687, -0.60838728442085, -3.9344485294118
3388, -1.5516526280694, -0.49105027421367, -4.0558088235294
3389, -1.5846893023611, -0.37083158573985, -3.9344485294118
3390, -1.6084263897025, -0.24843671006621, -4.0558088235294
3391, -1.6227245914265, -0.12458390899139, -3.9344485294118
3392, -1.6275, 2.5920538562821e-15, -4.0558088235294
3393, -1.6227245914265, 0.1245839089914, -3.9344485294118
3394, -1.6084263897025, 0.24843671006622, -4.0558088235294
3395, -1.5846893023611, 0.37083158573986, -3.9344485294118
3396, -1.5516526280694, 0.49105027421368, -4.0558088235294
3397, -1.5095102391687, 0.60838728442085, -3.9344485294118
3398, -1.4585094439541, 0.72215403612848, -4.0558088235294
3399, -1.3989495353717, 0.83168290080017, -3.9344485294118
3400, -1.3311800346478, 0.93633111950581, -4.0558088235294
3401, -1.2555986401602, 1.0354845748865, -3.9344485294118
3402, -1.1726488935853, 1.1285613950394, -4.0558088235294
3403, -1.0828175770195, 1.2150153681735, -3.9344485294118
3404, -0.98663185634821, 1.2943391479975, -4.0558088235294
3405, -0.88465618762699, 1.3660672310297, -3.9344485294118
3406, -0.77748900462871, 1.4297786883576, -4.0558088235294
3407, -0.66575920699635, 1.4850996358156, -3.9344485294118
3408, -0.55012246960984, 1.5317054280867, -4.0558088235294
3409, -0.43125739482507, 1.56932256385, -3.9344485294118
3410, -0.3098615301655, 1.5977302907949, -4.0558088235294
3411, -0.18664727483589, 1.6167619010839, -3.9344485294118
3412, -0.062337699080532, 1.6263057096602, -4.0558088235294
3413, 0.062337699080533, 1.6263057096602, -3.9344485294118
3414, 0.1866472748359, 1.6167619010839, -4.0558088235294
3415, 0.3098615301655, 1.5977302907949, -3.9344485294118
3416, 0.43125739482507, 1.56932256385, -4.0558088235294
3417, 0.55012246960984, 1.5317054280867, -3.9344485294118
3418, 0.66575920699635, 1.4850996358156, -4.0558088235294
3419, 0.77748900462871, 1.4297786883576, -3.9344485294118
3420, 0.88465618762699, 1.3660672310297, -4.0558088235294
3421, 0.9866318563482, 1.2943391479975, -3.9344485294118
3422, 1.0828175770195, 1.2150153681735, -4.0558088235294
3423, 1.1726488935853, 1.1285613950394, -3.9344485294118
3424, 1.2555986401602, 1.0354845748865, -4.0558088235294
3425, 1.3311800346478, 0.9363311195058, -3.9344485294118
3426, 1.3989495353717, 0.83168290080017, -4.0558088235294
3427, 1.4585094439541, 0.72215403612848, -3.9344485294118
3428, 1.5095102391687, 0.60838728442085, -4.0558088235294
3429, 1.5516526280694, 0.49105027421368, -3.9344485294118
3430, 1.5846893023611, 0.37083158573986, -4.0558088235294
3431, 1.6084263897025, 0.24843671006622, -3.9344485294118
3432, 1.6227245914265, 0.1245839089914, -4.0558088235294
3433, 1.6227245914265, -0.12458390899139, -4.2985294117647
3434, 1.6084263897025, -0.24843671006621, -4.1771691176471
3435, 1.5846893023611, -0.37083158573985, -4.2985294117647
3436, 1.5516526280694, -0.49105027421367, -4.1771691176471
3437, 1.5095102391687, -0.60838728442085, -4.2985294117647
3438, 1.4585094439541, -0.72215403612847, -4.1771691176471
3439, 1.3989495353717, -0.83168290080017, -4.2985294117647
3440, 1.3311800346478, -0.9363311195058, -4.1771691176471
3441, 1.2555986401602, -1.0354845748865, -4.2985294117647
3442, 1.1726488935853, -1.1285613950394, -4.1771691176471
3443, 1.0828175770195, -1.2150153681735, -4.2985294117647
3444, 0.98663185634821, -1.2943391479975, -4.1771691176471
3445, 0.88465618762699, -1.3660672310297, -4.2985294117647
3446, 0.77748900462871, -1.4297786883576, -4.1771691176471
3447, 0.66575920699636, -1.4850996358156, -4.2985294117647
3448, 0.55012246960984, -1.5317054280867, -4.1771691176471
3449, 0.43125739482507, -1.56932256385, -4.2985294117647
3450, 0.3098615301655, -1.5977302907949, -4.1771691176471
3451, 0.1866472748359, -1.6167619010839, -4.2985294117647
3452, 0.062337699080533, -1.6263057096602, -4.1771691176471
3453, -0.062337699080532, -1.6263057096602, -4.2985294117647
3454, -0.1866472748359, -1.6167619010839, -4.1771691176471
3455, -0.3098615301655, -1.5977302907949, -4.2985294117647
3456, -0.43125739482507, -1.56932256385, -4.1771691176471
3457, -0.55012246960984, -1.5317054280867, -4.2985294117647
3458, -0.66575920699636, -1.4850996358156, -4.1771691176471
3459, -0.77748900462871, -1.4297786883576, -4.2985294117647
3460, -0.88465618762699, -1.3660672310297, -4.1771691176471
3461, -0.98663185634821, -1.2943391479975, -4.2985294117647
3462, -1.0828175770195, -1.2150153681735, -4.1771691176471
3463, -1.1726488935853, -1.1285613950394, -4.2985294117647
3464, -1.2555986401602, -1.0354845748865, -4.1771691176471
3465, -1.3311800346478, -0.9363311195058, -4.2985294117647
3466, -1.3989495353717, -0.83168290080017, -4.1771691176471
3467, -1.4585094439541, -0.72215403612848, -4.2985294117647
3468, -1.5095102391687, -0.60838728442085, -4.1771691176471
3469, -1.5516526280694, -0.49105027421367, -4.2985294117647
3470, -1.5846893023611, -0.37083158573985, -4.1771691176471
3471, -1.6084263897025, -0.24843671006622, -4.2985294117647
3472, -1.6227245914265, -0.12458390899139, -4.1771691176471
3473, -1.6275, 1.1465434782201e-15, -4.2985294117647
3474, -1.6227245914265, 0.1245839089914, -4.1771691176471
3475, -1.6084263897025, 0.24843671006622, -4.2985294117647
3476, -1.5846893023611, 0.37083158573986, -4.1771691176471
3477, -1.5516526280694, 0.49105027421368, -4.2985294117647
3478, -1.5095102391687, 0.60838728442085, -4.1771691176471
3479, -1.4585094439541, 0.72215403612848, -4.2985294117647
3480, -1.3989495353717, 0.83168290080017, -4.1771691176471
3481, -1.3311800346478, 0.93633111950581, -4.2985294117647
3482, -1.2555986401602, 1.0354845748865, -4.1771691176471
3483, -1.1726488935853, 1.1285613950394, -4.2985294117647
3484, -1.0828175770195, 1.2150153681735, -4.1771691176471
3485, -0.9866318563482, 1.2943391479975, -4.2985294117647
3486, -0.88465618762699, 1.3660672310297, -4.1771691176471
3487, -0.77748900462871, 1.4297786883576, -4.2985294117647
3488, -0.66575920699635, 1.4850996358156, -4.1771691176471
3489, -0.55012246960984, 1.5317054280867, -4.2985294117647
3490, -0.43125739482507, 1.56932256385, -4.1771691176471
3491, -0.3098615301655, 1.5977302907949, -4.2985294117647
3492, -0.1866472748359, 1.6167619010839, -4.1771691176471
3493, -0.062337699080533, 1.6263057096602, -4.2985294117647
3494, 0.062337699080533, 1.6263057096602, -4.1771691176471
3495, 0.1866472748359, 1.6167619010839, -4.2985294117647
3496, 0.3098615301655, 1.5977302907949, -4.1771691176471
3497, 0.43125739482507, 1.56932256385, -4.2985294117647
3498, 0.55012246960984, 1.5317054280867, -4.1771691176471
3499, 0.66575920699636, 1.4850996358156, -4.2985294117647
3500, 0.77748900462871, 1.4297786883576, -4.1771691176471
3501, 0.88465618762699, 1.3660672310297, -4.2985294117647
3502, 0.9866318563482, 1.2943391479975, -4.1771691176471
3503, 1.0828175770195, 1.2150153681735, -4.2985294117647
3504, 1.1726488935853, 1.1285613950394, -4.1771691176471
3505, 1.2555986401602, 1.0354845748865, -4.2985294117647
3506, 1.3311800346478, 0.9363311195058, -4.1771691176471
3507, 1.3989495353717, 0.83168290080017, -4.2985294117647
3508, 1.4585094439541, 0.72215403612848, -4.1771691176471
3509, 1.5095102391687, 0.60838728442085, -4.2985294117647
3510, 1.5516526280694, 0.49105027421368, -4.1771691176471
3511, 1.5846893023611, 0.37083158573986, -4.2985294117647
3512, 1.6084263897025, 0.24843671006622, -4.1771691176471
3513, 1.6227245914265, 0.1245839089914, -4.2985294117647
3514, 1.6227245914265, -0.12458390899139, -4.54125
3515, 1.6084263897025, -0.24843671006621, -4.4198897058824
3516, 1.5846893023611, -0.37083158573985, -4.54125
3517, 1.5516526280694, -0.49105027421367, -4.4198897058824
3518, 1.5095102391687, -0.60838728442085, -4.54125
3519, 1.4585094439541, -0.72215403612847, -4.4198897058824
3520, 1.3989495353717, -0.83168290080017, -4.54125
3521, 1.3311800346478, -0.9363311195058, -4.4198897058824
3522, 1.2555986401602, -1.0354845748865, -4.54125
3523, 1.1726488935853, -1.1285613950394, -4.4198897058824
3524, 1.0828175770195, -1.2150153681735, -4.54125
3525, 0.98663185634821, -1.2943391479975, -4.4198897058824
3526, 0.88465618762699, -1.3660672310297, -4.54125
3527, 0.77748900462871, -1.4297786883576, -4.4198897058824
3528, 0.66575920699636, -1.4850996358156, -4.54125
3529, 0.55012246960984, -1.5317054280867, -4.4198897058824
3530, 0.43125739482507, -1.56932256385, -4.54125
3531, 0.3098615301655, -1.5977302907949, -4.4198897058824
3532, 0.1866472748359, -1.6167619010839, -4.54125
3533, 0.062337699080533, -1.6263057096602, -4.4198897058824
3534, -0.062337699080532, -1.6263057096602, -4.54125
3535, -0.1866472748359, -1.6167619010839, -4.4198897058824
3536, -0.3098615301655, -1.5977302907949, -4.54125
3537, -0.43125739482507, -1.56932256385, -4.4198897058824
3538, -0.55012246960984, -1.5317054280867, -4.54125
3539, -0.66575920699636, -1.4850996358156, -4.4198897058824
3540, -0.77748900462871, -1.4297786883576, -4.54125
3541, -0.88465618762699, -1.3660672310297, -4.4198897058824
3542, -0.98663185634821, -1.2943391479975, -4.54125
3543, -1.0828175770195, -1.2150153681735, -4.4198897058824
3544, -1.1726488935853, -1.1285613950394, -4.54125
3545, -1.2555986401602, -1.0354845748865, -4.4198897058824
3546, -1.3311800346478, -0.9363311195058, -4.54125
3547, -1.3989495353717, -0.83168290080017, -4.4198897058824
3548, -1.4585094439541, -0.72215403612848, -4.54125
3549, -1.5095102391687, -0.60838728442085, -4.4198897058824
3550, -1.5516526280694, -0.49105027421367, -4.54125
3551, -1.5846893023611, -0.37083158573985, -4.4198897058824
3552, -1.6084263897025, -0.24843671006622, -4.54125
3553, -1.6227245914265, -0.12458390899139, -4.4198897058824
3554, -1.6275, -2.9896689984185e-16, -4.54125
3555, -1.6227245914265, 0.1245839089914, -4.4198897058824
3556, -1.6084263897025, 0.24843671006622, -4.54125
3557, -1.5846893023611, 0.37083158573986, -4.4198897058824
3558, -1.5516526280694, 0.49105027421368, -4.54125
3559, -1.5095102391687, 0.60838728442085, -4.4198897058824
3560, -1.4585094439541, 0.72215403612848, -4.54125
3561, -1.3989495353717, 0.83168290080017, -4.4198897058824
3562, -1.3311800346478, 0.93633111950581, -4.54125
3563, -1.2555986401602, 1.0354845748865, -4.4198897058824
3564, -1.1726488935853, 1.1285613950394, -4.54125
3565, -1.0828175770195, 1.2150153681735, -4.4198897058824
3566, -0.98663185634821, 1.2943391479975, -4.54125
3567, -0.88465618762699, 1.3660672310297, -4.4198897058824
3568, -0.77748900462871, 1.4297786883576, -4.54125
3569, -0.66575920699635, 1.4850996358156, -4.4198897058824
3570, -0.55012246960984, 1.5317054280867, -4.54125
3571, -0.43125739482507, 1.56932256385, -4.4198897058824
3572, -0.3098615301655, 1.5977302907949, -4.54125
3573, -0.1866472748359, 1.6167619010839, -4.4198897058824
3574, -0.062337699080533, 1.6263057096602, -4.54125
3575, 0.062337699080533, 1.6263057096602, -4.4198897058824
3576, 0.1866472748359, 1.6167619010839, -4.54125
3577, 0.3098615301655, 1.5977302907949, -4.4198897058824
3578, 0.43125739482507, 1.56932256385, -4.54125
3579, 0.55012246960984, 1.5317054280867, -4.4198897058824
3580, 0.66575920699636, 1.4850996358156, -4.54125
3581, 0.77748900462871, 1.4297786883576, -4.4198897058824
3582, 0.88465618762699, 1.3660672310297, -4.54125
3583, 0.9866318563482, 1.2943391479975, -4.4198897058824
3584, 1.0828175770195, 1.2150153681735, -4.54125
3585, 1.1726488935853, 1.1285613950394, -4.4198897058824
3586, 1.2555986401602, 1.0354845748865, -4.54125
3587, 1.3311800346478, 0.9363311195058, -4.4198897058824
3588, 1.3989495353717, 0.83168290080017, -4.54125
3589, 1.4585094439541, 0.72215403612848, -4.4198897058824
3590, 1.5095102391687, 0.60838728442085, -4.54125
3591, 1.5516526280694, 0.49105027421368, -4.4198897058824
3592, 1.5846893023611, 0.37083158573986, -4.54125
3593, 1.6084263897025, 0.24843671006622, -4.4198897058824
3594, 1.6227245914265, 0.1245839089914, -4.54125
3595, 1.6227245914265, -0.12458390899139, -4.7839705882353
3596, 1.6084263897025, -0.24843671006621, -4.6626102941176
3597, 1.5846893023611, -0.37083158573985, -4.7839705882353
3598, 1.5516526280694, -0.49105027421367, -4.6626102941176
3599, 1.5095102391687, -0.60838728442085, -4.7839705882353
3600, 1.4585094439541, -0.72215403612847, -4.6626102941176
3601, 1.3989495353717, -0.83168290080017, -4.7839705882353
3602, 1.3311800346478, -0.9363311195058, -4.6626102941176
3603, 1.2555986401602, -1.0354845748865, -4.7839705882353
3604, 1.1726488935853, -1.1285613950394, -4.6626102941176
3605, 1.0828175770195, -1.2150153681735, -4.7839705882353
3606, 0.98663185634821, -1.2943391479975, -4.6626102941176
3607, 0.88465618762699, -1.3660672310297, -4.7839705882353
3608, 0.77748900462871, -1.4297786883576, -4.6626102941176
3609, 0.66575920699636, -1.4850996358156, -4.7839705882353
3610, 0.55012246960984, -1.5317054280867, -4.6626102941176
3611, 0.43125739482507, -1.56932256385, -4.7839705882353
3612, 0.3098615301655, -1.5977302907949, -4.6626102941176
3613, 0.1866472748359, -1.6167619010839, -4.7839705882353
3614, 0.062337699080533, -1.6263057096602, -4.6626102941176
3615, -0.062337699080532, -1.6263057096602, -4.7839705882353
3616, -0.1866472748359, -1.6167619010839, -4.6626102941176
3617, -0.3098615301655, -1.5977302907949, -4.7839705882353
3618, -0.43125739482507, -1.56932256385, -4.6626102941176
3619, -0.55012246960984, -1.5317054280867, -4.7839705882353
3620, -0.66575920699636, -1.4850996358156, -4.6626102941176
3621, -0.77748900462871, -1.4297786883576, -4.7839705882353
3622, -0.88465618762699, -1.3660672310297, -4.6626102941176
3623, -0.98663185634821, -1.2943391479975, -4.7839705882353
3624, -1.0828175770195, -1.2150153681735, -4.6626102941176
3625, -1.1726488935853, -1.1285613950394, -4.7839705882353
3626, -1.2555986401602, -1.0354845748865, -4.6626102941176
3627, -1.3311800346478, -0.9363311195058, -4.7839705882353
3628, -1.3989495353717, -0.83168290080017, -4.6626102941176
3629, -1.4585094439541, -0.72215403612848, -4.7839705882353
3630, -1.5095102391687, -0.60838728442085, -4.6626102941176
3631, -1.5516526280694, -0.49105027421367, -4.7839705882353
3632, -1.5846893023611, -0.37083158573985, -4.6626102941176
3633, -1.6084263897025, -0.24843671006622, -4.7839705882353
3634, -1.6227245914265, -0.12458390899139, -4.6626102941176
3635, -1.6275, 2.5920538562821e-15, -4.7839705882353
3636, -1.6227245914265, 0.1245839089914, -4.6626102941176
3637, -1.6084263897025, 0.24843671006622, -4.7839705882353
3638, -1.5846893023611, 0.37083158573986, -4.6626102941176
3639, -1.5516526280694, 0.49105027421368, -4.7839705882353
3640, -1.5095102391687, 0.60838728442085, -4.6626102941176
3641, -1.4585094439541, 0.72215403612848, -4.7839705882353
3642, -1.3989495353717, 0.83168290080017, -4.6626102941176
3643, -1.3311800346478, 0.93633111950581, -4.7839705882353
3644, -1.2555986401602, 1.0354845748865, -4.6626102941176
3645, -1.1726488935853, 1.1285613950394, -4.7839705882353
3646, -1.0828175770195, 1.2150153681735, -4.6626102941176
3647, -0.9866318563482, 1.2943391479975, -4.7839705882353
3648, -0.88465618762699, 1.3660672310297, -4.6626102941176
3649, -0.77748900462871, 1.4297786883576, -4.7839705882353
3650, -0.66575920699635, 1.4850996358156, -4.6626102941176
3651, -0.55012246960984, 1.5317054280867, -4.7839705882353
3652, -0.43125739482507, 1.56932256385, -4.6626102941176
3653, -0.3098615301655, 1.5977302907949, -4.7839705882353
3654, -0.1866472748359, 1.6167619010839, -4.6626102941176
3655, -0.062337699080535, 1.6263057096602, -4.7839705882353
3656, 0.062337699080533, 1.6263057096602, -4.6626102941176
3657, 0.1866472748359, 1.6167619010839, -4.7839705882353
3658, 0.3098615301655, 1.5977302907949, -4.6626102941176
3659, 0.43125739482507, 1.56932256385, -4.7839705882353
3660, 0.55012246960984, 1.5317054280867, -4.6626102941176
3661, 0.66575920699635, 1.4850996358156, -4.7839705882353
3662, 0.77748900462871, 1.4297786883576, -4.6626102941176
3663, 0.88465618762699, 1.3660672310297, -4.7839705882353
3664, 0.9866318563482, 1.2943391479975, -4.6626102941176
3665, 1.0828175770195, 1.2150153681735, -4.7839705882353
3666, 1.1726488935853, 1.1285613950394, -4.6626102941176
3667, 1.2555986401602, 1.0354845748865, -4.7839705882353
3668, 1.3311800346478, 0.9363311195058, -4.6626102941176
3669, 1.3989495353717, 0.83168290080017, -4.7839705882353
3670, 1.4585094439541, 0.72215403612848, -4.6626102941176
3671, 1.5095102391687, 0.60838728442085, -4.7839705882353
3672, 1.5516526280694, 0.49105027421367, -4.6626102941176
3673, 1.5846893023611, 0.37083158573986, -4.7839705882353
3674, 1.6084263897025, 0.24843671006622, -4.6626102941176
3675, 1.6227245914265, 0.1245839089914, -4.7839705882353
3676, 1.6227245914265, -0.12458390899139, -5.0266911764706
3677, 1.6084263897025, -0.24843671006621, -4.9053308823529
3678, 1.5846893023611, -0.37083158573985, -5.0266911764706
3679, 1.5516526280694, -0.49105027421367, -4.9053308823529
3680, 1.5095102391687, -0.60838728442085, -5.0266911764706
3681, 1.4585094439541, -0.72215403612847, -4.9053308823529
3682, 1.3989495353717, -0.83168290080017, -5.0266911764706
3683, 1.3311800346478, -0.9363311195058, -4.9053308823529
3684, 1.2555986401602, -1.0354845748865, -5.0266911764706
3685, 1.1726488935853, -1.1285613950394, -4.9053308823529
3686, 1.0828175770195, -1.2150153681735, -5.0266911764706
3687, 0.98663185634821, -1.2943391479975, -4.9053308823529
3688, 0.88465618762699, -1.3660672310297, -5.0266911764706
3689, 0.77748900462871, -1.4297786883576, -4.9053308823529
3690, 0.66575920699636, -1.4850996358156, -5.0266911764706
3691, 0.55012246960984, -1.5317054280867, -4.9053308823529
3692, 0.43125739482507, -1.56932256385, -5.0266911764706
3693, 0.3098615301655, -1.5977302907949, -4.9053308823529
3694, 0.1866472748359, -1.6167619010839, -5.0266911764706
3695, 0.062337699080533, -1.6263057096602, -4.9053308823529
3696, -0.062337699080532, -1.6263057096602, -5.0266911764706
3697, -0.1866472748359, -1.6167619010839, -4.9053308823529
3698, -0.3098615301655, -1.5977302907949, -5.0266911764706
3699, -0.43125739482507, -1.56932256385, -4.9053308823529
3700, -0.55012246960984, -1.5317054280867, -5.0266911764706
3701, -0.66575920699636, -1.4850996358156, -4.9053308823529
3702, -0.77748900462871, -1.4297786883576, -5.0266911764706
3703, -0.88465618762699, -1.3660672310297, -4.9053308823529
3704, -0.98663185634821, -1.2943391479975, -5.0266911764706
3705, -1.0828175770195, -1.2150153681735, -4.9053308823529
3706, -1.1726488935853, -1.1285613950394, -5.0266911764706
3707, -1.2555986401602, -1.0354845748865, -4.9053308823529
3708, -1.3311800346478, -0.9363311195058, -5.0266911764706
3709, -1.3989495353717, -0.83168290080017, -4.9053308823529
3710, -1.4585094439541, -0.72215403612848, -5.0266911764706
3711, -1.5095102391687, -0.60838728442085, -4.9053308823529
3712, -1.5516526280694, -0.49105027421367, -5.0266911764706
3713, -1.5846893023611, -0.37083158573985, -4.9053308823529
3714, -1.6084263897025, -0.24843671006621, -5.0266911764706
3715, -1.6227245914265, -0.12458390899139, -4.9053308823529
3716, -1.6275, 2.5920538562821e-15, -5.0266911764706
3717, -1.6227245914265, 0.1245839089914, -4.9053308823529
3718, -1.6084263897025, 0.24843671006622, -5.0266911764706
3719, -1.5846893023611, 0.37083158573986, -4.9053308823529
3720, -1.5516526280694, 0.49105027421367, -5.0266911764706
3721, -1.5095102391687, 0.60838728442085, -4.9053308823529
3722, -1.4585094439541, 0.72215403612848, -5.0266911764706
3723, -1.3989495353717, 0.83168290080017, -4.9053308823529
3724, -1.3311800346478, 0.9363311195058, -5.0266911764706
3725, -1.2555986401602, 1.0354845748865, -4.9053308823529
3726, -1.1726488935853, 1.1285613950394, -5.0266911764706
3727, -1.0828175770195, 1.2150153681735, -4.9053308823529
3728, -0.9866318563482, 1.2943391479975, -5.0266911764706
3729, -0.88465618762699, 1.3660672310297, -4.9053308823529
3730, -0.77748900462871, 1.4297786883576, -5.0266911764706
3731, -0.66575920699635, 1.4850996358156, -4.9053308823529
3732, -0.55012246960984, 1.5317054280867, -5.0266911764706
3733, -0.43125739482507, 1.56932256385, -4.9053308823529
3734, -0.3098615301655, 1.5977302907949, -5.0266911764706
3735, -0.1866472748359, 1.6167619010839, -4.9053308823529
3736, -0.062337699080533, 1.6263057096602, -5.0266911764706
3737, 0.062337699080533, 1.6263057096602, -4.9053308823529
3738, 0.1866472748359, 1.6167619010839, -5.0266911764706
3739, 0.3098615301655, 1.5977302907949, -4.9053308823529
3740, 0.43125739482507, 1.56932256385, -5.0266911764706
3741, 0.55012246960984, 1.5317054280867, -4.9053308823529
3742, 0.66575920699636, 1.4850996358156, -5.0266911764706
3743, 0.77748900462871, 1.4297786883576, -4.9053308823529
3744, 0.88465618762699, 1.3660672310297, -5.0266911764706
3745, 0.9866318563482, 1.2943391479975, -4.9053308823529
3746, 1.0828175770195, 1.2150153681735, -5.0266911764706
3747, 1.1726488935853, 1.1285613950394, -4.9053308823529
3748, 1.2555986401602, 1.0354845748865, -5.0266911764706
3749, 1.3311800346478, 0.9363311195058, -4.9053308823529
3750, 1.3989495353717, 0.83168290080017, -5.0266911764706
3751, 1.4585094439541, 0.72215403612848, -4.9053308823529
3752, 1.5095102391687, 0.60838728442085, -5.0266911764706
3753, 1.5516526280694, 0.49105027421367, -4.9053308823529
3754, 1.5846893023611, 0.37083158573986, -5.0266911764706
3755, 1.6084263897025, 0.24843671006622, -4.9053308823529
3756, 1.6227245914265, 0.1245839089914, -5.0266911764706
3757, 1.6227245914265, -0.12458390899139, -5.2694117647059
3758, 1.6084263897025, -0.24843671006621, -5.1480514705882
3759, 1.5846893023611, -0.37083158573985, -5.2694117647059
3760, 1.5516526280694, -0.49105027421367, -5.1480514705882
3761, 1.5095102391687, -0.60838728442085, -5.2694117647059
3762, 1.4585094439541, -0.72215403612847, -5.1480514705882
3763, 1.3989495353717, -0.83168290080017, -5.2694117647059
3764, 1.3311800346478, -0.9363311195058, -5.1480514705882
3765, 1.2555986401602, -1.0354845748865, -5.2694117647059
3766, 1.1726488935853, -1.1285613950394, -5.1480514705882
3767, 1.0828175770195, -1.2150153681735, -5.2694117647059
3768, 0.98663185634821, -1.2943391479975, -5.1480514705882
3769, 0.88465618762699, -1.3660672310297, -5.2694117647059
3770, 0.77748900462871, -1.4297786883576, -5.1480514705882
3771, 0.66575920699636, -1.4850996358156, -5.2694117647059
3772, 0.55012246960984, -1.5317054280867, -5.1480514705882
3773, 0.43125739482507, -1.56932256385, -5.2694117647059
3774, 0.3098615301655, -1.5977302907949, -5.1480514705882
3775, 0.1866472748359, -1.6167619010839, -5.2694117647059
3776, 0.062337699080533, -1.6263057096602, -5.1480514705882
3777, -0.062337699080533, -1.6263057096602, -5.2694117647059
3778, -0.1866472748359, -1.6167619010839, -5.1480514705882
3779, -0.3098615301655, -1.5977302907949, -5.2694117647059
3780, -0.43125739482507, -1.56932256385, -5.1480514705882
3781, -0.55012246960984, -1.5317054280867, -5.2694117647059
3782, -0.66575920699636, -1.4850996358156, -5.1480514705882
3783, -0.77748900462871, -1.4297786883576, -5.2694117647059
3784, -0.88465618762699, -1.3660672310297, -5.1480514705882
3785, -0.98663185634821, -1.2943391479975, -5.2694117647059
3786, -1.0828175770195, -1.2150153681735, -5.1480514705882
3787, -1.1726488935853, -1.1285613950394, -5.2694117647059
3788, -1.2555986401602, -1.0354845748865, -5.1480514705882
3789, -1.3311800346478, -0.9363311195058, -5.2694117647059
3790, -1.3989495353717, -0.83168290080017, -5.1480514705882
3791, -1.4585094439541, -0.72215403612848, -5.2694117647059
3792, -1.5095102391687, -0.60838728442085, -5.1480514705882
3793, -1.5516526280694, -0.49105027421367, -5.2694117647059
3794, -1.5846893023611, -0.37083158573985, -5.1480514705882
3795, -1.6084263897025, -0.24843671006622, -5.2694117647059
3796, -1.6227245914265, -0.12458390899139, -5.1480514705882
3797, -1.6275, 1.1465434782201e-15, -5.2694117647059
3798, -1.6227245914265, 0.1245839089914, -5.1480514705882
3799, -1.6084263897025, 0.24843671006622, -5.2694117647059
3800, -1.5846893023611, 0.37083158573986, -5.1480514705882
3801, -1.5516526280694, 0.49105027421368, -5.2694117647059
3802, -1.5095102391687, 0.60838728442085, -5.1480514705882
3803, -1.4585094439541, 0.72215403612848, -5.2694117647059
3804, -1.3989495353717, 0.83168290080017, -5.1480514705882
3805, -1.3311800346478, 0.93633111950581, -5.2694117647059
3806, -1.2555986401602, 1.0354845748865, -5.1480514705882
3807, -1.1726488935853, 1.1285613950394, -5.2694117647059
3808, -1.0828175770195, 1.2150153681735, -5.1480514705882
3809, -0.9866318563482, 1.2943391479975, -5.2694117647059
3810, -0.88465618762699, 1.3660672310297, -5.1480514705882
3811, -0.77748900462871, 1.4297786883576, -5.2694117647059
3812, -0.66575920699635, 1.4850996358156, -5.1480514705882
3813, -0.55012246960984, 1.5317054280867, -5.2694117647059
3814, -0.43125739482507, 1.56932256385, -5.1480514705882
3815, -0.3098615301655, 1.5977302907949, -5.2694117647059
3816, -0.1866472748359, 1.6167619010839, -5.1480514705882
3817, -0.06233769908053, 1.6263057096602, -5.2694117647059
3818, 0.062337699080534, 1.6263057096602, -5.1480514705882
3819, 0.1866472748359, 1.6167619010839, -5.2694117647059
3820, 0.3098615301655, 1.5977302907949, -5.1480514705882
3821, 0.43125739482507, 1.56932256385, -5.2694117647059
3822, 0.55012246960984, 1.5317054280867, -5.1480514705882
3823, 0.66575920699636, 1.4850996358156, -5.2694117647059
3824, 0.77748900462871, 1.4297786883576, -5.1480514705882
3825, 0.88465618762699, 1.3660672310297, -5.2694117647059
3826, 0.9866318563482, 1.2943391479975, -5.1480514705882
3827, 1.0828175770195, 1.2150153681735, -5.2694117647059
3828, 1.1726488935853, 1.1285613950394, -5.1480514705882
3829, 1.2555986401602, 1.0354845748865, -5.2694117647059
3830, 1.3311800346478, 0.9363311195058, -5.1480514705882
3831, 1.3989495353717, 0.83168290080017, -5.2694117647059
3832, 1.4585094439541, 0.72215403612848, -5.1480514705882
3833, 1.5095102391687, 0.60838728442085, -5.2694117647059
3834, 1.5516526280694, 0.49105027421368, -5.1480514705882
3835, 1.5846893023611, 0.37083158573986, -5.2694117647059
3836, 1.6084263897025, 0.24843671006622, -5.1480514705882
3837, 1.6227245914265, 0.1245839089914, -5.2694117647059
3838, 1.6227245914265, -0.12458390899139, -5.5121323529412
3839, 1.6084263897025, -0.24843671006621, -5.3907720588235
3840, 1.5846893023611, -0.37083158573985, -5.5121323529412
3841, 1.5516526280694, -0.49105027421367, -5.3907720588235
3842, 1.5095102391687, -0.60838728442085, -5.5121323529412
3843, 1.4585094439541, -0.72215403612847, -5.3907720588235
3844, 1.3989495353717, -0.83168290080017, -5.5121323529412
3845, 1.3311800346478, -0.9363311195058, -5.3907720588235
3846, 1.2555986401602, -1.0354845748865, -5.5121323529412
3847, 1.1726488935853, -1.1285613950394, -5.3907720588235
3848, 1.0828175770195, -1.2150153681735, -5.5121323529412
3849, 0.98663185634821, -1.2943391479975, -5.3907720588235
3850, 0.88465618762699, -1.3660672310297, -5.5121323529412
3851, 0.77748900462871, -1.4297786883576, -5.3907720588235
3852, 0.66575920699636, -1.4850996358156, -5.5121323529412
3853, 0.55012246960984, -1.5317054280867, -5.3907720588235
3854, 0.43125739482507, -1.56932256385, -5.5121323529412
3855, 0.3098615301655, -1.5977302907949, -5.3907720588235
3856, 0.1866472748359, -1.6167619010839, -5.5121323529412
3857, 0.062337699080533, -1.6263057096602, -5.3907720588235
3858, -0.062337699080532, -1.6263057096602, -5.5121323529412
3859, -0.1866472748359, -1.6167619010839, -5.3907720588235
3860, -0.3098615301655, -1.5977302907949, -5.5121323529412
3861, -0.43125739482507, -1.56932256385, -5.3907720588235
3862, -0.55012246960984, -1.5317054280867, -5.5121323529412
3863, -0.66575920699636, -1.4850996358156, -5.3907720588235
3864, -0.77748900462871, -1.4297786883576, -5.5121323529412
3865, -0.88465618762699, -1.3660672310297, -5.3907720588235
3866, -0.98663185634821, -1.2943391479975, -5.5121323529412
3867, -1.0828175770195, -1.2150153681735, -5.3907720588235
3868, -1.1726488935853, -1.1285613950394, -5.5121323529412
3869, -1.2555986401602, -1.0354845748865, -5.3907720588235
3870, -1.3311800346478, -0.9363311195058, -5.5121323529412
3871, -1.3989495353717, -0.83168290080017, -5.3907720588235
3872, -1.4585094439541, -0.72215403612848, -5.5121323529412
3873, -1.5095102391687, -0.60838728442085, -5.3907720588235
3874, -1.5516526280694, -0.49105027421367, -5.5121323529412
3875, -1.5846893023611, -0.37083158573985, -5.3907720588235
3876, -1.6084263897025, -0.24843671006622, -5.5121323529412
3877, -1.6227245914265, -0.1245839089914, -5.3907720588235
3878, -1.6275, 2.5920538562821e-15, -5.5121323529412
3879, -1.6227245914265, 0.1245839089914, -5.3907720588235
3880, -1.6084263897025, 0.24843671006622, -5.5121323529412
3881, -1.5846893023611, 0.37083158573986, -5.3907720588235
3882, -1.5516526280694, 0.49105027421368, -5.5121323529412
3883, -1.5095102391687, 0.60838728442085, -5.3907720588235
3884, -1.4585094439541, 0.72215403612848, -5.5121323529412
3885, -1.3989495353717, 0.83168290080017, -5.3907720588235
3886, -1.3311800346478, 0.93633111950581, -5.5121323529412
3887, -1.2555986401602, 1.0354845748865, -5.3907720588235
3888, -1.1726488935853, 1.1285613950394, -5.5121323529412
3889, -1.0828175770195, 1.2150153681735, -5.3907720588235
3890, -0.9866318563482, 1.2943391479975, -5.5121323529412
3891, -0.88465618762699, 1.3660672310297, -5.3907720588235
3892, -0.77748900462871, 1.4297786883576, -5.5121323529412
3893, -0.66575920699635, 1.4850996358156, -5.3907720588235
3894, -0.55012246960984, 1.5317054280867, -5.5121323529412
3895, -0.43125739482507, 1.56932256385, -5.3907720588235
3896, -0.3098615301655, 1.5977302907949, -5.5121323529412
3897, -0.1866472748359, 1.6167619010839, -5.3907720588235
3898, -0.062337699080533, 1.6263057096602, -5.5121323529412
3899, 0.062337699080534, 1.6263057096602, -5.3907720588235
3900, 0.1866472748359, 1.6167619010839, -5.5121323529412
3901, 0.3098615301655, 1.5977302907949, -5.3907720588235
3902, 0.43125739482507, 1.56932256385, -5.5121323529412
3903, 0.55012246960984, 1.5317054280867, -5.3907720588235
3904, 0.66575920699635, 1.4850996358156, -5.5121323529412
3905, 0.77748900462871, 1.4297786883576, -5.3907720588235
3906, 0.88465618762699, 1.3660672310297, -5.5121323529412
3907, 0.9866318563482, 1.2943391479975, -5.3907720588235
3908, 1.0828175770195, 1.2150153681735, -5.5121323529412
3909, 1.1726488935853, 1.1285613950394, -5.3907720588235
3910, 1.2555986401602, 1.0354845748865, -5.5121323529412
3911, 1.3311800346478, 0.9363311195058, -5.3907720588235
3912, 1.3989495353717, 0.83168290080017, -5.5121323529412
3913, 1.4585094439541, 0.72215403612847, -5.3907720588235
3914, 1.5095102391687, 0.60838728442085, -5.5121323529412
3915, 1.5516526280694, 0.49105027421368, -5.3907720588235
3916, 1.5846893023611, 0.37083158573986, -5.5121323529412
3917, 1.6084263897025, 0.24843671006622, -5.3907720588235
3918, 1.6227245914265, 0.1245839089914, -5.5121323529412
3919, 1.6227245914265, -0.12458390899139, -5.7548529411765
3920, 1.6084263897025, -0.24843671006621, -5.6334926470588
3921, 1.5846893023611, -0.37083158573985, -5.7548529411765
3922, 1.5516526280694, -0.49105027421367, -5.6334926470588
3923, 1.5095102391687, -0.60838728442085, -5.7548529411765
3924, 1.4585094439541, -0.72215403612847, -5.6334926470588
3925, 1.3989495353717, -0.83168290080017, -5.7548529411765
3926, 1.3311800346478, -0.9363311195058, -5.6334926470588
3927, 1.2555986401602, -1.0354845748865, -5.7548529411765
3928, 1.1726488935853, -1.1285613950394, -5.6334926470588
3929, 1.0828175770195, -1.2150153681735, -5.7548529411765
3930, 0.98663185634821, -1.2943391479975, -5.6334926470588
3931, 0.88465618762699, -1.3660672310297, -5.7548529411765
3932, 0.77748900462871, -1.4297786883576, -5.6334926470588
3933, 0.66575920699636, -1.4850996358156, -5.7548529411765
3934, 0.55012246960984, -1.5317054280867, -5.6334926470588
3935, 0.43125739482507, -1.56932256385, -5.7548529411765
3936, 0.3098615301655, -1.5977302907949, -5.6334926470588
3937, 0.1866472748359, -1.6167619010839, -5.7548529411765
3938, 0.062337699080533, -1.6263057096602, -5.6334926470588
3939, -0.062337699080532, -1.6263057096602, -5.7548529411765
3940, -0.1866472748359, -1.6167619010839, -5.6334926470588
3941, -0.3098615301655, -1.5977302907949, -5.7548529411765
3942, -0.43125739482507, -1.56932256385, -5.6334926470588
3943, -0.55012246960984, -1.5317054280867, -5.7548529411765
3944, -0.66575920699636, -1.4850996358156, -5.6334926470588
3945, -0.77748900462871, -1.4297786883576, -5.7548529411765
3946, -0.88465618762699, -1.3660672310297, -5.6334926470588
3947, -0.98663185634821, -1.2943391479975, -5.7548529411765
3948, -1.0828175770195, -1.2150153681735, -5.6334926470588
3949, -1.1726488935853, -1.1285613950394, -5.7548529411765
3950, -1.2555986401602, -1.0354845748865, -5.6334926470588
3951, -1.3311800346478, -0.9363311195058, -5.7548529411765
3952, -1.3989495353717, -0.83168290080017, -5.6334926470588
3953, -1.4585094439541, -0.72215403612848, -5.7548529411765
3954, -1.5095102391687, -0.60838728442085, -5.6334926470588
3955, -1.5516526280694, -0.49105027421367, -5.7548529411765
3956, -1.5846893023611, -0.37083158573985, -5.6334926470588
3957, -1.6084263897025, -0.24843671006622, -5.7548529411765
3958, -1.6227245914265, -0.12458390899139, -5.6334926470588
3959, -1.6275, 2.5920538562821e-15, -5.7548529411765
3960, -1.6227245914265, 0.1245839089914, -5.6334926470588
3961, -1.6084263897025, 0.24843671006622, -5.7548529411765
3962, -1.5846893023611, 0.37083158573986, -5.6334926470588
3963, -1.5516526280694, 0.49105027421368, -5.7548529411765
3964, -1.5095102391687, 0.60838728442085, -5.6334926470588
3965, -1.4585094439541, 0.72215403612848, -5.7548529411765
3966, -1.3989495353717, 0.83168290080017, -5.6334926470588
3967, -1.3311800346478, 0.93633111950581, -5.7548529411765
3968, -1.2555986401602, 1.0354845748865, -5.6334926470588
3969, -1.1726488935853, 1.1285613950394, -5.7548529411765
3970, -1.0828175770195, 1.2150153681735, -5.6334926470588
3971, -0.9866318563482, 1.2943391479975, -5.7548529411765
3972, -0.88465618762699, 1.3660672310297, -5.6334926470588
3973, -0.77748900462871, 1.4297786883576, -5.7548529411765
3974, -0.66575920699635, 1.4850996358156, -5.6334926470588
3975, -0.55012246960984, 1.5317054280867, -5.7548529411765
3976, -0.43125739482507, 1.56932256385, -5.6334926470588
3977, -0.3098615301655, 1.5977302907949, -5.7548529411765
3978, -0.1866472748359, 1.6167619010839, -5.6334926470588
3979, -0.062337699080533, 1.6263057096602, -5.7548529411765
3980, 0.062337699080533, 1.6263057096602, -5.6334926470588
3981, 0.1866472748359, 1.6167619010839, -5.7548529411765
3982, 0.3098615301655, 1.5977302907949, -5.6334926470588
3983, 0.43125739482507, 1.56932256385, -5.7548529411765
3984, 0.55012246960984, 1.5317054280867, -5.6334926470588
3985, 0.66575920699635, 1.4850996358156, -5.7548529411765
3986, 0.77748900462871, 1.4297786883576, -5.6334926470588
3987, 0.88465618762699, 1.3660672310297, -5.7548529411765
3988, 0.9866318563482, 1.2943391479975, -5.6334926470588
3989, 1.0828175770195, 1.2150153681735, -5.7548529411765
3990, 1.1726488935853, 1.1285613950394, -5.6334926470588
3991, 1.2555986401602, 1.0354845748865, -5.7548529411765
3992, 1.3311800346478, 0.9363311195058, -5.6334926470588
3993, 1.3989495353717, 0.83168290080017, -5.7548529411765
3994, 1.4585094439541, 0.72215403612848, -5.6334926470588
3995, 1.5095102391687, 0.60838728442085, -5.7548529411765
3996, 1.5516526280694, 0.49105027421367, -5.6334926470588
3997, 1.5846893023611, 0.37083158573985, -5.7548529411765
3998, 1.6084263897025, 0.24843671006622, -5.6334926470588
3999, 1.6227245914265, 0.1245839089914, -5.7548529411765
4000, 1.6227245914265, -0.12458390899139, -5.9975735294118
4001, 1.6084263897025, -0.24843671006621, -5.8762132352941
4002, 1.5846893023611, -0.37083158573985, -5.9975735294118
4003, 1.5516526280694, -0.49105027421367, -5.8762132352941
4004, 1.5095102391687, -0.60838728442085, -5.9975735294118
4005, 1.4585094439541, -0.72215403612847, -5.8762132352941
4006, 1.3989495353717, -0.83168290080017, -5.9975735294118
4007, 1.3311800346478, -0.9363311195058, -5.8762132352941
4008, 1.2555986401602, -1.0354845748865, -5.9975735294118
4009, 1.1726488935853, -1.1285613950394, -5.8762132352941
4010, 1.0828175770195, -1.2150153681735, -5.9975735294118
4011, 0.98663185634821, -1.2943391479975, -5.8762132352941
4012, 0.88465618762699, -1.3660672310297, -5.9975735294118
4013, 0.77748900462871, -1.4297786883576, -5.8762132352941
4014, 0.66575920699636, -1.4850996358156, -5.9975735294118
4015, 0.55012246960984, -1.5317054280867, -5.8762132352941
4016, 0.43125739482507, -1.56932256385, -5.9975735294118
4017, 0.3098615301655, -1.5977302907949, -5.8762132352941
4018, 0.1866472748359, -1.6167619010839, -5.9975735294118
4019, 0.062337699080533, -1.6263057096602, -5.8762132352941
4020, -0.062337699080532, -1.6263057096602, -5.9975735294118
4021, -0.1866472748359, -1.6167619010839, -5.8762132352941
4022, -0.3098615301655, -1.5977302907949, -5.9975735294118
4023, -0.43125739482507, -1.56932256385, -5.8762132352941
4024, -0.55012246960984, -1.5317054280867, -5.9975735294118
4025, -0.66575920699636, -1.4850996358156, -5.8762132352941
4026, -0.77748900462871, -1.4297786883576, -5.9975735294118
4027, -0.88465618762699, -1.3660672310297, -5.8762132352941
4028, -0.98663185634821, -1.2943391479975, -5.9975735294118
4029, -1.0828175770195, -1.2150153681735, -5.8762132352941
4030, -1.1726488935853, -1.1285613950394, -5.9975735294118
4031, -1.2555986401602, -1.0354845748865, -5.8762132352941
4032, -1.3311800346478, -0.9363311195058, -5.9975735294118
4033, -1.3989495353717, -0.83168290080017, -5.8762132352941
4034, -1.4585094439541, -0.72215403612848, -5.9975735294118
4035, -1.5095102391687, -0.60838728442085, -5.8762132352941
4036, -1.5516526280694, -0.49105027421367, -5.9975735294118
4037, -1.5846893023611, -0.37083158573985, -5.8762132352941
4038, -1.6084263897025, -0.24843671006622, -5.9975735294118
4039, -1.6227245914265, -0.12458390899139, -5.8762132352941
4040, -1.6275, 4.037564234344e-15, -5.9975735294118
4041, -1.6227245914265, 0.1245839089914, -5.8762132352941
4042, -1.6084263897025, 0.24843671006622, -5.9975735294118
4043, -1.5846893023611, 0.37083158573986, -5.8762132352941
4044, -1.5516526280694, 0.49105027421368, -5.9975735294118
4045, -1.5095102391687, 0.60838728442085, -5.8762132352941
4046, -1.4585094439541, 0.72215403612848, -5.9975735294118
4047, -1.3989495353717, 0.83168290080017, -5.8762132352941
4048, -1.3311800346478, 0.93633111950581, -5.9975735294118
4049, -1.2555986401602, 1.0354845748865, -5.8762132352941
4050, -1.1726488935853, 1.1285613950394, -5.9975735294118
4051, -1.0828175770195, 1.2150153681735, -5.8762132352941
4052, -0.9866318563482, 1.2943391479975, -5.9975735294118
4053, -0.88465618762699, 1.3660672310297, -5.8762132352941
4054, -0.77748900462871, 1.4297786883576, -5.9975735294118
4055, -0.66575920699635, 1.4850996358156, -5.8762132352941
4056, -0.55012246960984, 1.5317054280867, -5.9975735294118
4057, -0.43125739482507, 1.56932256385, -5.8762132352941
4058, -0.3098615301655, 1.5977302907949, -5.9975735294118
4059, -0.1866472748359, 1.6167619010839, -5.8762132352941
4060, -0.062337699080532, 1.6263057096602, -5.9975735294118
4061, 0.062337699080534, 1.6263057096602, -5.8762132352941
4062, 0.1866472748359, 1.6167619010839, -5.9975735294118
4063, 0.3098615301655, 1.5977302907949, -5.8762132352941
4064, 0.43125739482507, 1.56932256385, -5.9975735294118
4065, 0.55012246960984, 1.5317054280867, -5.8762132352941
4066, 0.66575920699636, 1.4850996358156, -5.9975735294118
4067, 0.77748900462871, 1.4297786883576, -5.8762132352941
4068, 0.88465618762699, 1.3660672310297, -5.9975735294118
4069, 0.9866318563482, 1.2943391479975, -5.8762132352941
4070, 1.0828175770195, 1.2150153681735, -5.9975735294118
4071, 1.1726488935853, 1.1285613950394, -5.8762132352941
4072, 1.2555986401602, 1.0354845748865, -5.9975735294118
4073, 1.3311800346478, 0.93633111950581, -5.8762132352941
4074, 1.3989495353717, 0.83168290080017, -5.9975735294118
4075, 1.4585094439541, 0.72215403612848, -5.8762132352941
4076, 1.5095102391687, 0.60838728442085, -5.9975735294118
4077, 1.5516526280694, 0.49105027421367, -5.8762132352941
4078, 1.5846893023611, 0.37083158573986, -5.9975735294118
4079, 1.6084263897025, 0.24843671006622, -5.8762132352941
4080, 1.6227245914265, 0.1245839089914, -5.9975735294118
4081, 1.6227245914265, -0.12458390899139, -6.2402941176471
4082, 1.6084263897025, -0.24843671006621, -6.1189338235294
4083, 1.5846893023611, -0.37083158573985, -6.2402941176471
4084, 1.5516526280694, -0.49105027421367, -6.1189338235294
4085, 1.5095102391687, -0.60838728442085, -6.2402941176471
4086, 1.4585094439541, -0.72215403612847, -6.1189338235294
4087, 1.3989495353717, -0.83168290080017, -6.2402941176471
4088, 1.3311800346478, -0.9363311195058, -6.1189338235294
4089, 1.2555986401602, -1.0354845748865, -6.2402941176471
4090, 1.1726488935853, -1.1285613950394, -6.1189338235294
4091, 1.0828175770195, -1.2150153681735, -6.2402941176471
4092, 0.98663185634821, -1.2943391479975, -6.1189338235294
4093, 0.88465618762699, -1.3660672310297, -6.2402941176471
4094, 0.77748900462871, -1.4297786883576, -6.1189338235294
4095, 0.66575920699636, -1.4850996358156, -6.2402941176471
4096, 0.55012246960984, -1.5317054280867, -6.1189338235294
4097, 0.43125739482507, -1.56932256385, -6.2402941176471
4098, 0.3098615301655, -1.5977302907949, -6.1189338235294
4099, 0.1866472748359, -1.6167619010839, -6.2402941176471
4100, 0.062337699080533, -1.6263057096602, -6.1189338235294
4101, -0.062337699080533, -1.6263057096602, -6.2402941176471
4102, -0.1866472748359, -1.6167619010839, -6.1189338235294
4103, -0.3098615301655, -1.5977302907949, -6.2402941176471
4104, -0.43125739482507, -1.56932256385, -6.1189338235294
4105, -0.55012246960984, -1.5317054280867, -6.2402941176471
4106, -0.66575920699636, -1.4850996358156, -6.1189338235294
4107, -0.77748900462871, -1.4297786883576, -6.2402941176471
4108, -0.88465618762699, -1.3660672310297, -6.1189338235294
4109, -0.98663185634821, -1.2943391479975, -6.2402941176471
4110, -1.0828175770195, -1.2150153681735, -6.1189338235294
4111, -1.1726488935853, -1.1285613950394, -6.2402941176471
4112, -1.2555986401602, -1.0354845748865, -6.1189338235294
4113, -1.3311800346478, -0.9363311195058, -6.2402941176471
4114, -1.3989495353717, -0.83168290080017, -6.1189338235294
4115, -1.4585094439541, -0.72215403612848, -6.2402941176471
4116, -1.5095102391687, -0.60838728442085, -6.1189338235294
4117, -1.5516526280694, -0.49105027421367, -6.2402941176471
4118, -1.5846893023611, -0.37083158573985, -6.1189338235294
4119, -1.6084263897025, -0.24843671006622, -6.2402941176471
4120, -1.6227245914265, -0.12458390899139, -6.1189338235294
4121, -1.6275, 2.5920538562821e-15, -6.2402941176471
4122, -1.6227245914265, 0.1245839089914, -6.1189338235294
4123, -1.6084263897025, 0.24843671006622, -6.2402941176471
4124, -1.5846893023611, 0.37083158573986, -6.1189338235294
4125, -1.5516526280694, 0.49105027421368, -6.2402941176471
4126, -1.5095102391687, 0.60838728442085, -6.1189338235294
4127, -1.4585094439541, 0.72215403612848, -6.2402941176471
4128, -1.3989495353717, 0.83168290080017, -6.1189338235294
4129, -1.3311800346478, 0.93633111950581, -6.2402941176471
4130, -1.2555986401602, 1.0354845748865, -6.1189338235294
4131, -1.1726488935853, 1.1285613950394, -6.2402941176471
4132, -1.0828175770195, 1.2150153681735, -6.1189338235294
4133, -0.9866318563482, 1.2943391479975, -6.2402941176471
4134, -0.88465618762699, 1.3660672310297, -6.1189338235294
4135, -0.77748900462871, 1.4297786883576, -6.2402941176471
4136, -0.66575920699635, 1.4850996358156, -6.1189338235294
4137, -0.55012246960984, 1.5317054280867, -6.2402941176471
4138, -0.43125739482507, 1.56932256385, -6.1189338235294
4139, -0.3098615301655, 1.5977302907949, -6.2402941176471
4140, -0.1866472748359, 1.6167619010839, -6.1189338235294
4141, -0.062337699080533, 1.6263057096602, -6.2402941176471
4142, 0.062337699080534, 1.6263057096602, -6.1189338235294
4143, 0.1866472748359, 1.6167619010839, -6.2402941176471
4144, 0.3098615301655, 1.5977302907949, -6.1189338235294
4145, 0.43125739482507, 1.56932256385, -6.2402941176471
4146, 0.55012246960984, 1.5317054280867, -6.1189338235294
4147, 0.66575920699635, 1.4850996358156, -6.2402941176471
4148, 0.77748900462871, 1.4297786883576, -6.1189338235294
4149, 0.88465618762699, 1.3660672310297, -6.2402941176471
4150, 0.9866318563482, 1.2943391479975, -6.1189338235294
4151, 1.0828175770195, 1.2150153681735, -6.2402941176471
4152, 1.1726488935853, 1.1285613950394, -6.1189338235294
4153, 1.2555986401602, 1.0354845748865, -6.2402941176471
4154, 1.3311800346478, 0.9363311195058, -6.1189338235294
4155, 1.3989495353717, 0.83168290080017, -6.2402941176471
4156, 1.4585094439541, 0.72215403612848, -6.1189338235294
4157, 1.5095102391687, 0.60838728442085, -6.2402941176471
4158, 1.5516526280694, 0.49105027421367, -6.1189338235294
4159, 1.5846893023611, 0.37083158573986, -6.2402941176471
4160, 1.6084263897025, 0.24843671006622, -6.1189338235294
4161, 1.6227245914265, 0.1245839089914, -6.2402941176471
4162, 1.6227245914265, -0.12458390899139, -6.4830147058824
4163, 1.6084263897025, -0.24843671006621, -6.3616544117647
4164, 1.5846893023611, -0.37083158573985, -6.4830147058824
4165, 1.5516526280694, -0.49105027421367, -6.3616544117647
4166, 1.5095102391687, -0.60838728442085, -6.4830147058824
4167, 1.4585094439541, -0.72215403612847, -6.3616544117647
4168, 1.3989495353717, -0.83168290080017, -6.4830147058824
4169, 1.3311800346478, -0.9363311195058, -6.3616544117647
4170, 1.2555986401602, -1.0354845748865, -6.4830147058824
4171, 1.1726488935853, -1.1285613950394, -6.3616544117647
4172, 1.0828175770195, -1.2150153681735, -6.4830147058824
4173, 0.98663185634821, -1.2943391479975, -6.3616544117647
4174, 0.88465618762699, -1.3660672310297, -6.4830147058824
4175, 0.77748900462871, -1.4297786883576, -6.3616544117647
4176, 0.66575920699636, -1.4850996358156, -6.4830147058824
4177, 0.55012246960984, -1.5317054280867, -6.3616544117647
4178, 0.43125739482507, -1.56932256385, -6.4830147058824
4179, 0.3098615301655, -1.5977302907949, -6.3616544117647
4180, 0.1866472748359, -1.6167619010839, -6.4830147058824
4181, 0.062337699080533, -1.6263057096602, -6.3616544117647
4182, -0.062337699080532, -1.6263057096602, -6.4830147058824
4183, -0.1866472748359, -1.6167619010839, -6.3616544117647
4184, -0.3098615301655, -1.5977302907949, -6.4830147058824
4185, -0.43125739482507, -1.56932256385, -6.3616544117647
4186, -0.55012246960984, -1.5317054280867, -6.4830147058824
4187, -0.66575920699636, -1.4850996358156, -6.3616544117647
4188, -0.77748900462871, -1.4297786883576, -6.4830147058824
4189, -0.88465618762699, -1.3660672310297, -6.3616544117647
4190, -0.98663185634821, -1.2943391479975, -6.4830147058824
4191, -1.0828175770195, -1.2150153681735, -6.3616544117647
4192, -1.1726488935853, -1.1285613950394, -6.4830147058824
4193, -1.2555986401602, -1.0354845748865, -6.3616544117647
4194, -1.3311800346478, -0.9363311195058, -6.4830147058824
4195, -1.3989495353717, -0.83168290080017, -6.3616544117647
4196, -1.4585094439541, -0.72215403612848, -6.4830147058824
4197, -1.5095102391687, -0.60838728442085, -6.3616544117647
4198, -1.5516526280694, -0.49105027421367, -6.4830147058824
4199, -1.5846893023611, -0.37083158573985, -6.3616544117647
4200, -1.6084263897025, -0.24843671006621, -6.4830147058824
4201, -1.6227245914265, -0.12458390899139, -6.3616544117647
4202, -1.6275, 4.037564234344e-15, -6.4830147058824
4203, -1.6227245914265, 0.1245839089914, -6.3616544117647
4204, -1.6084263897025, 0.24843671006622, -6.4830147058824
4205, -1.5846893023611, 0.37083158573986, -6.3616544117647
4206, -1.5516526280694, 0.49105027421368, -6.4830147058824
4207, -1.5095102391687, 0.60838728442085, -6.3616544117647
4208, -1.4585094439541, 0.72215403612848, -6.4830147058824
4209, -1.3989495353717, 0.83168290080017, -6.3616544117647
4210, -1.3311800346478, 0.93633111950581, -6.4830147058824
4211, -1.2555986401602, 1.0354845748865, -6.3616544117647
4212, -1.1726488935853, 1.1285613950394, -6.4830147058824
4213, -1.0828175770195, 1.2150153681735, -6.3616544117647
4214, -0.9866318563482, 1.2943391479975, -6.4830147058824
4215, -0.88465618762699, 1.3660672310297, -6.3616544117647
4216, -0.77748900462871, 1.4297786883576, -6.4830147058824
4217, -0.66575920699635, 1.4850996358156, -6.3616544117647
4218, -0.55012246960984, 1.5317054280867, -6.4830147058824
4219, -0.43125739482507, 1.56932256385, -6.3616544117647
4220, -0.3098615301655, 1.5977302907949, -6.4830147058824
4221, -0.1866472748359, 1.6167619010839, -6.3616544117647
4222, -0.062337699080533, 1.6263057096602, -6.4830147058824
4223, 0.062337699080533, 1.6263057096602, -6.3616544117647
4224, 0.1866472748359, 1.6167619010839, -6.4830147058824
4225, 0.3098615301655, 1.5977302907949, -6.3616544117647
4226, 0.43125739482507, 1.56932256385, -6.4830147058824
4227, 0.55012246960984, 1.5317054280867, -6.3616544117647
4228, 0.66575920699635, 1.4850996358156, -6.4830147058824
4229, 0.77748900462871, 1.4297786883576, -6.3616544117647
4230, 0.88465618762699, 1.3660672310297, -6.4830147058824
4231, 0.9866318563482, 1.2943391479975, -6.3616544117647
4232, 1.0828175770195, 1.2150153681735, -6.4830147058824
4233, 1.1726488935853, 1.1285613950394, -6.3616544117647
4234, 1.2555986401602, 1.0354845748865, -6.4830147058824
4235, 1.3311800346478, 0.9363311195058, -6.3616544117647
4236, 1.3989495353717, 0.83168290080017, -6.4830147058824
4237, 1.4585094439541, 0.72215403612848, -6.3616544117647
4238, 1.5095102391687, 0.60838728442085, -6.4830147058824
4239, 1.5516526280694, 0.49105027421367, -6.3616544117647
4240, 1.5846893023611, 0.37083158573986, -6.4830147058824
4241, 1.6084263897025, 0.24843671006622, -6.3616544117647
4242, 1.6227245914265, 0.1245839089914, -6.4830147058824
4243, 1.6227245914265, -0.12458390899139, -6.7257352941177
4244, 1.6084263897025, -0.24843671006621, -6.604375
4245, 1.5846893023611, -0.37083158573985, -6.7257352941177
4246, 1.5516526280694, -0.49105027421367, -6.604375
4247, 1.5095102391687, -0.60838728442085, -6.7257352941177
4248, 1.4585094439541, -0.72215403612847, -6.604375
4249, 1.3989495353717, -0.83168290080017, -6.7257352941177
4250, 1.3311800346478, -0.9363311195058, -6.604375
4251, 1.2555986401602, -1.0354845748865, -6.7257352941177
4252, 1.1726488935853, -1.1285613950394, -6.604375
4253, 1.0828175770195, -1.2150153681735, -6.7257352941177
4254, 0.98663185634821, -1.2943391479975, -6.604375
4255, 0.88465618762699, -1.3660672310297, -6.7257352941176
4256, 0.77748900462871, -1.4297786883576, -6.604375
4257, 0.66575920699636, -1.4850996358156, -6.7257352941176
4258, 0.55012246960984, -1.5317054280867, -6.604375
4259, 0.43125739482507, -1.56932256385, -6.7257352941177
4260, 0.3098615301655, -1.5977302907949, -6.604375
4261, 0.1866472748359, -1.6167619010839, -6.7257352941177
4262, 0.062337699080533, -1.6263057096602, -6.604375
4263, -0.062337699080532, -1.6263057096602, -6.7257352941177
4264, -0.1866472748359, -1.6167619010839, -6.604375
4265, -0.3098615301655, -1.5977302907949, -6.7257352941177
4266, -0.43125739482507, -1.56932256385, -6.604375
4267, -0.55012246960984, -1.5317054280867, -6.7257352941177
4268, -0.66575920699636, -1.4850996358156, -6.604375
4269, -0.77748900462871, -1.4297786883576, -6.7257352941177
4270, -0.88465618762699, -1.3660672310297, -6.604375
4271, -0.98663185634821, -1.2943391479975, -6.7257352941177
4272, -1.0828175770195, -1.2150153681735, -6.604375
4273, -1.1726488935853, -1.1285613950394, -6.7257352941177
4274, -1.2555986401602, -1.0354845748865, -6.604375
4275, -1.3311800346478, -0.9363311195058, -6.7257352941177
4276, -1.3989495353717, -0.83168290080017, -6.604375
4277, -1.4585094439541, -0.72215403612848, -6.7257352941177
4278, -1.5095102391687, -0.60838728442085, -6.604375
4279, -1.5516526280694, -0.49105027421367, -6.7257352941177
4280, -1.5846893023611, -0.37083158573985, -6.604375
4281, -1.6084263897025, -0.24843671006621, -6.7257352941177
4282, -1.6227245914265, -0.12458390899139, -6.604375
4283, -1.6275, 4.037564234344e-15, -6.7257352941177
4284, -1.6227245914265, 0.1245839089914, -6.604375
4285, -1.6084263897025, 0.24843671006622, -6.7257352941177
4286, -1.5846893023611, 0.37083158573986, -6.604375
4287, -1.5516526280694, 0.49105027421368, -6.7257352941177
4288, -1.5095102391687, 0.60838728442085, -6.604375
4289, -1.4585094439541, 0.72215403612848, -6.7257352941177
4290, -1.3989495353717, 0.83168290080017, -6.604375
4291, -1.3311800346478, 0.9363311195058, -6.7257352941177
4292, -1.2555986401602, 1.0354845748865, -6.604375
4293, -1.1726488935853, 1.1285613950394, -6.7257352941177
4294, -1.0828175770195, 1.2150153681735, -6.604375
4295, -0.9866318563482, 1.2943391479975, -6.7257352941177
4296, -0.88465618762699, 1.3660672310297, -6.604375
4297, -0.77748900462871, 1.4297786883576, -6.7257352941177
4298, -0.66575920699636, 1.4850996358156, -6.604375
4299, -0.55012246960984, 1.5317054280867, -6.7257352941177
4300, -0.43125739482507, 1.56932256385, -6.604375
4301, -0.3098615301655, 1.5977302907949, -6.7257352941177
4302, -0.1866472748359, 1.6167619010839, -6.604375
4303, -0.062337699080533, 1.6263057096602, -6.7257352941177
4304, 0.062337699080533, 1.6263057096602, -6.604375
4305, 0.1866472748359, 1.6167619010839, -6.7257352941177
4306, 0.3098615301655, 1.5977302907949, -6.604375
4307, 0.43125739482507, 1.56932256385, -6.7257352941177
4308, 0.55012246960984, 1.5317054280867, -6.604375
4309, 0.66575920699636, 1.4850996358156, -6.7257352941177
4310, 0.77748900462871, 1.4297786883576, -6.604375
4311, 0.88465618762699, 1.3660672310297, -6.7257352941177
4312, 0.9866318563482, 1.2943391479975, -6.604375
4313, 1.0828175770195, 1.2150153681735, -6.7257352941177
4314, 1.1726488935853, 1.1285613950394, -6.604375
4315, 1.2555986401602, 1.0354845748865, -6.7257352941177
4316, 1.3311800346478, 0.93633111950581, -6.604375
4317, 1.3989495353717, 0.83168290080017, -6.7257352941177
4318, 1.4585094439541, 0.72215403612848, -6.604375
4319, 1.5095102391687, 0.60838728442085, -6.7257352941177
4320, 1.5516526280694, 0.49105027421367, -6.604375
4321, 1.5846893023611, 0.37083158573985, -6.7257352941177
4322, 1.6084263897025, 0.24843671006622, -6.604375
4323, 1.6227245914265, 0.1245839089914, -6.7257352941177
4324, 1.6227245914265, -0.12458390899139, -6.9684558823529
4325, 1.6084263897025, -0.24843671006621, -6.8470955882353
4326, 1.5846893023611, -0.37083158573985, -6.9684558823529
4327, 1.5516526280694, -0.49105027421367, -6.8470955882353
4328, 1.5095102391687, -0.60838728442085, -6.9684558823529
4329, 1.4585094439541, -0.72215403612847, -6.8470955882353
4330, 1.3989495353717, -0.83168290080017, -6.9684558823529
4331, 1.3311800346478, -0.9363311195058, -6.8470955882353
4332, 1.2555986401602, -1.0354845748865, -6.9684558823529
4333, 1.1726488935853, -1.1285613950394, -6.8470955882353
4334, 1.0828175770195, -1.2150153681735, -6.9684558823529
4335, 0.98663185634821, -1.2943391479975, -6.8470955882353
4336, 0.88465618762699, -1.3660672310297, -6.9684558823529
4337, 0.77748900462871, -1.4297786883576, -6.8470955882353
4338, 0.66575920699636, -1.4850996358156, -6.9684558823529
4339, 0.55012246960984, -1.5317054280867, -6.8470955882353
4340, 0.43125739482507, -1.56932256385, -6.9684558823529
4341, 0.3098615301655, -1.5977302907949, -6.8470955882353
4342, 0.1866472748359, -1.6167619010839, -6.9684558823529
4343, 0.062337699080534, -1.6263057096602, -6.8470955882353
4344, -0.062337699080531, -1.6263057096602, -6.9684558823529
4345, -0.1866472748359, -1.6167619010839, -6.8470955882353
4346, -0.3098615301655, -1.5977302907949, -6.9684558823529
4347, -0.43125739482507, -1.56932256385, -6.8470955882353
4348, -0.55012246960984, -1.5317054280867, -6.9684558823529
4349, -0.66575920699636, -1.4850996358156, -6.8470955882353
4350, -0.77748900462871, -1.4297786883576, -6.9684558823529
4351, -0.88465618762699, -1.3660672310297, -6.8470955882353
4352, -0.9866318563482, -1.2943391479975, -6.9684558823529
4353, -1.0828175770195, -1.2150153681735, -6.8470955882353
4354, -1.1726488935853, -1.1285613950394, -6.9684558823529
4355, -1.2555986401602, -1.0354845748865, -6.8470955882353
4356, -1.3311800346478, -0.9363311195058, -6.9684558823529
4357, -1.3989495353717, -0.83168290080017, -6.8470955882353
4358, -1.4585094439541, -0.72215403612848, -6.9684558823529
4359, -1.5095102391687, -0.60838728442085, -6.8470955882353
4360, -1.5516526280694, -0.49105027421367, -6.9684558823529
4361, -1.5846893023611, -0.37083158573985, -6.8470955882353
4362, -1.6084263897025, -0.24843671006621, -6.9684558823529
4363, -1.6227245914265, -0.12458390899139, -6.8470955882353
4364, -1.6275, 2.5920538562821e-15, -6.9684558823529
4365, -1.6227245914265, 0.1245839089914, -6.8470955882353
4366, -1.6084263897025, 0.24843671006622, -6.9684558823529
4367, -1.5846893023611, 0.37083158573986, -6.8470955882353
4368, -1.5516526280694, 0.49105027421368, -6.9684558823529
4369, -1.5095102391687, 0.60838728442085, -6.8470955882353
4370, -1.4585094439541, 0.72215403612848, -6.9684558823529
4371, -1.3989495353717, 0.83168290080017, -6.8470955882353
4372, -1.3311800346478, 0.93633111950581, -6.9684558823529
4373, -1.2555986401602, 1.0354845748865, -6.8470955882353
4374, -1.1726488935853, 1.1285613950394, -6.9684558823529
4375, -1.0828175770195, 1.2150153681735, -6.8470955882353
4376, -0.9866318563482, 1.2943391479975, -6.9684558823529
4377, -0.88465618762699, 1.3660672310297, -6.8470955882353
4378, -0.77748900462871, 1.4297786883576, -6.9684558823529
4379, -0.66575920699636, 1.4850996358156, -6.8470955882353
4380, -0.55012246960984, 1.5317054280867, -6.9684558823529
4381, -0.43125739482507, 1.56932256385, -6.8470955882353
4382, -0.3098615301655, 1.5977302907949, -6.9684558823529
4383, -0.1866472748359, 1.6167619010839, -6.8470955882353
4384, -0.062337699080535, 1.6263057096602, -6.9684558823529
4385, 0.062337699080533, 1.6263057096602, -6.8470955882353
4386, 0.1866472748359, 1.6167619010839, -6.9684558823529
4387, 0.3098615301655, 1.5977302907949, -6.8470955882353
4388, 0.43125739482507, 1.56932256385, -6.9684558823529
4389, 0.55012246960984, 1.5317054280867, -6.8470955882353
4390, 0.66575920699635, 1.4850996358156, -6.9684558823529
4391, 0.77748900462871, 1.4297786883576, -6.8470955882353
4392, 0.88465618762699, 1.3660672310297, -6.9684558823529
4393, 0.9866318563482, 1.2943391479975, -6.8470955882353
4394, 1.0828175770195, 1.2150153681735, -6.9684558823529
4395, 1.1726488935853, 1.1285613950394, -6.8470955882353
4396, 1.2555986401602, 1.0354845748865, -6.9684558823529
4397, 1.3311800346478, 0.9363311195058, -6.8470955882353
4398, 1.3989495353717, 0.83168290080017, -6.9684558823529
4399, 1.4585094439541, 0.72215403612848, -6.8470955882353
4400, 1.5095102391687, 0.60838728442085, -6.9684558823529
4401, 1.5516526280694, 0.49105027421367, -6.8470955882353
4402, 1.5846893023611, 0.37083158573986, -6.9684558823529
4403, 1.6084263897025, 0.24843671006622, -6.8470955882353
4404, 1.6227245914265, 0.1245839089914, -6.9684558823529
4405, 1.6227245914265, -0.12458390899139, -7.2111764705882
4406, 1.6084263897025, -0.24843671006621, -7.0898161764706
4407, 1.5846893023611, -0.37083158573985, -7.2111764705882
4408, 1.5516526280694, -0.49105027421367, -7.0898161764706
4409, 1.5095102391687, -0.60838728442085, -7.2111764705882
4410, 1.4585094439541, -0.72215403612847, -7.0898161764706
4411, 1.3989495353717, -0.83168290080017, -7.2111764705882
4412, 1.3311800346478, -0.9363311195058, -7.0898161764706
4413, 1.2555986401602, -1.0354845748865, -7.2111764705882
4414, 1.1726488935853, -1.1285613950394, -7.0898161764706
4415, 1.0828175770195, -1.2150153681735, -7.2111764705882
4416, 0.9866318563482, -1.2943391479975, -7.0898161764706
4417, 0.88465618762699, -1.3660672310297, -7.2111764705882
4418, 0.77748900462871, -1.4297786883576, -7.0898161764706
4419, 0.66575920699636, -1.4850996358156, -7.2111764705882
4420, 0.55012246960984, -1.5317054280867, -7.0898161764706
4421, 0.43125739482507, -1.56932256385, -7.2111764705882
4422, 0.3098615301655, -1.5977302907949, -7.0898161764706
4423, 0.1866472748359, -1.6167619010839, -7.2111764705882
4424, 0.062337699080534, -1.6263057096602, -7.0898161764706
4425, -0.062337699080532, -1.6263057096602, -7.2111764705882
4426, -0.1866472748359, -1.6167619010839, -7.0898161764706
4427, -0.3098615301655, -1.5977302907949, -7.2111764705882
4428, -0.43125739482507, -1.56932256385, -7.0898161764706
4429, -0.55012246960984, -1.5317054280867, -7.2111764705882
4430, -0.66575920699636, -1.4850996358156, -7.0898161764706
4431, -0.77748900462871, -1.4297786883576, -7.2111764705882
4432, -0.88465618762699, -1.3660672310297, -7.0898161764706
4433, -0.98663185634821, -1.2943391479975, -7.2111764705882
4434, -1.0828175770195, -1.2150153681735, -7.0898161764706
4435, -1.1726488935853, -1.1285613950394, -7.2111764705882
4436, -1.2555986401602, -1.0354845748865, -7.0898161764706
4437, -1.3311800346478, -0.9363311195058, -7.2111764705882
4438, -1.3989495353717, -0.83168290080017, -7.0898161764706
4439, -1.4585094439541, -0.72215403612848, -7.2111764705882
4440, -1.5095102391687, -0.60838728442085, -7.0898161764706
4441, -1.5516526280694, -0.49105027421367, -7.2111764705882
4442, -1.5846893023611, -0.37083158573985, -7.0898161764706
4443, -1.6084263897025, -0.24843671006621, -7.2111764705882
4444, -1.6227245914265, -0.12458390899139, -7.0898161764706
4445, -1.6275, 2.5920538562821e-15, -7.2111764705882
4446, -1.6227245914265, 0.1245839089914, -7.0898161764706
4447, -1.6084263897025, 0.24843671006622, -7.2111764705882
4448, -1.5846893023611, 0.37083158573986, -7.0898161764706
4449, -1.5516526280694, 0.49105027421368, -7.2111764705882
4450, -1.5095102391687, 0.60838728442085, -7.0898161764706
4451, -1.4585094439541, 0.72215403612848, -7.2111764705882
4452, -1.3989495353717, 0.83168290080017, -7.0898161764706
4453, -1.3311800346478, 0.9363311195058, -7.2111764705882
4454, -1.2555986401602, 1.0354845748865, -7.0898161764706
4455, -1.1726488935853, 1.1285613950394, -7.2111764705882
4456, -1.0828175770195, 1.2150153681735, -7.0898161764706
4457, -0.9866318563482, 1.2943391479975, -7.2111764705882
4458, -0.88465618762698, 1.3660672310298, -7.0898161764706
4459, -0.7774890046287, 1.4297786883576, -7.2111764705882
4460, -0.66575920699635, 1.4850996358156, -7.0898161764706
4461, -0.55012246960984, 1.5317054280867, -7.2111764705882
4462, -0.43125739482507, 1.56932256385, -7.0898161764706
4463, -0.3098615301655, 1.5977302907949, -7.2111764705882
4464, -0.1866472748359, 1.6167619010839, -7.0898161764706
4465, -0.062337699080533, 1.6263057096602, -7.2111764705882
4466, 0.062337699080531, 1.6263057096602, -7.0898161764706
4467, 0.1866472748359, 1.6167619010839, -7.2111764705882
4468, 0.3098615301655, 1.5977302907949, -7.0898161764706
4469, 0.43125739482507, 1.56932256385, -7.2111764705882
4470, 0.55012246960984, 1.5317054280867, -7.0898161764706
4471, 0.66575920699635, 1.4850996358156, -7.2111764705882
4472, 0.77748900462871, 1.4297786883576, -7.0898161764706
4473, 0.88465618762699, 1.3660672310297, -7.2111764705882
4474, 0.9866318563482, 1.2943391479975, -7.0898161764706
4475, 1.0828175770195, 1.2150153681735, -7.2111764705882
4476, 1.1726488935853, 1.1285613950394, -7.0898161764706
4477, 1.2555986401602, 1.0354845748865, -7.2111764705882
4478, 1.3311800346478, 0.9363311195058, -7.0898161764706
4479, 1.3989495353717, 0.83168290080017, -7.2111764705882
4480, 1.4585094439541, 0.72215403612848, -7.0898161764706
4481, 1.5095102391687, 0.60838728442085, -7.2111764705882
4482, 1.5516526280694, 0.49105027421368, -7.0898161764706
4483, 1.5846893023611, 0.37083158573986, -7.2111764705882
4484, 1.6084263897025, 0.24843671006622, -7.0898161764706
4485, 1.6227245914265, 0.1245839089914, -7.2111764705882
4486, 1.6227245914265, -0.12458390899139, -7.4538970588235
4487, 1.6084263897025, -0.24843671006621, -7.3325367647059
4488, 1.5846893023611, -0.37083158573985, -7.4538970588235
4489, 1.5516526280694, -0.49105027421367, -7.3325367647059
4490, 1.5095102391687, -0.60838728442085, -7.4538970588235
4491, 1.4585094439541, -0.72215403612847, -7.3325367647059
4492, 1.3989495353717, -0.83168290080017, -7.4538970588235
4493, 1.3311800346478, -0.9363311195058, -7.3325367647059
4494, 1.2555986401602, -1.0354845748865, -7.4538970588235
4495, 1.1726488935853, -1.1285613950394, -7.3325367647059
4496, 1.0828175770195, -1.2150153681735, -7.4538970588235
4497, 0.9866318563482, -1.2943391479975, -7.3325367647059
4498, 0.88465618762699, -1.3660672310297, -7.4538970588235
4499, 0.77748900462871, -1.4297786883576, -7.3325367647059
4500, 0.66575920699636, -1.4850996358156, -7.4538970588235
4501, 0.55012246960984, -1.5317054280867, -7.3325367647059
4502, 0.43125739482507, -1.56932256385, -7.4538970588235
4503, 0.3098615301655, -1.5977302907949, -7.3325367647059
4504, 0.1866472748359, -1.6167619010839, -7.4538970588235
4505, 0.062337699080534, -1.6263057096602, -7.3325367647059
4506, -0.062337699080532, -1.6263057096602, -7.4538970588235
4507, -0.1866472748359, -1.6167619010839, -7.3325367647059
4508, -0.3098615301655, -1.5977302907949, -7.4538970588235
4509, -0.43125739482507, -1.56932256385, -7.3325367647059
4510, -0.55012246960984, -1.5317054280867, -7.4538970588235
4511, -0.66575920699636, -1.4850996358156, -7.3325367647059
4512, -0.77748900462871, -1.4297786883576, -7.4538970588235
4513, -0.88465618762699, -1.3660672310297, -7.3325367647059
4514, -0.98663185634821, -1.2943391479975, -7.4538970588235
4515, -1.0828175770195, -1.2150153681735, -7.3325367647059
4516, -1.1726488935853, -1.1285613950394, -7.4538970588235
4517, -1.2555986401602, -1.0354845748865, -7.3325367647059
4518, -1.3311800346478, -0.9363311195058, -7.4538970588235
4519, -1.3989495353717, -0.83168290080017, -7.3325367647059
4520, -1.4585094439541, -0.72215403612848, -7.4538970588235
4521, -1.5095102391687, -0.60838728442085, -7.3325367647059
4522, -1.5516526280694, -0.49105027421367, -7.4538970588235
4523, -1.5846893023611, -0.37083158573985, -7.3325367647059
4524, -1.6084263897025, -0.24843671006622, -7.4538970588235
4525, -1.6227245914265, -0.12458390899139, -7.3325367647059
4526, -1.6275, 2.5920538562821e-15, -7.4538970588235
4527, -1.6227245914265, 0.1245839089914, -7.3325367647059
4528, -1.6084263897025, 0.24843671006622, -7.4538970588235
4529, -1.5846893023611, 0.37083158573986, -7.3325367647059
4530, -1.5516526280694, 0.49105027421368, -7.4538970588235
4531, -1.5095102391687, 0.60838728442085, -7.3325367647059
4532, -1.4585094439541, 0.72215403612848, -7.4538970588235
4533, -1.3989495353717, 0.83168290080017, -7.3325367647059
4534, -1.3311800346478, 0.93633111950581, -7.4538970588235
4535, -1.2555986401602, 1.0354845748865, -7.3325367647059
4536, -1.1726488935853, 1.1285613950394, -7.4538970588235
4537, -1.0828175770195, 1.2150153681735, -7.3325367647059
4538, -0.9866318563482, 1.2943391479975, -7.4538970588235
4539, -0.88465618762698, 1.3660672310298, -7.3325367647059
4540, -0.77748900462871, 1.4297786883576, -7.4538970588235
4541, -0.66575920699635, 1.4850996358156, -7.3325367647059
4542, -0.55012246960984, 1.5317054280867, -7.4538970588235
4543, -0.43125739482507, 1.56932256385, -7.3325367647059
4544, -0.3098615301655, 1.5977302907949, -7.4538970588235
4545, -0.1866472748359, 1.6167619010839, -7.3325367647059
4546, -0.062337699080533, 1.6263057096602, -7.4538970588235
4547, 0.062337699080534, 1.6263057096602, -7.3325367647059
4548, 0.1866472748359, 1.6167619010839, -7.4538970588235
4549, 0.3098615301655, 1.5977302907949, -7.3325367647059
4550, 0.43125739482507, 1.56932256385, -7.4538970588235
4551, 0.55012246960984, 1.5317054280867, -7.3325367647059
4552, 0.66575920699636, 1.4850996358156, -7.4538970588235
4553, 0.77748900462871, 1.4297786883576, -7.3325367647059
4554, 0.88465618762699, 1.3660672310297, -7.4538970588235
4555, 0.9866318563482, 1.2943391479975, -7.3325367647059
4556, 1.0828175770195, 1.2150153681735, -7.4538970588235
4557, 1.1726488935853, 1.1285613950394, -7.3325367647059
4558, 1.2555986401602, 1.0354845748865, -7.4538970588235
4559, 1.3311800346478, 0.9363311195058, -7.3325367647059
4560, 1.3989495353717, 0.83168290080017, -7.4538970588235
4561, 1.4585094439541, 0.72215403612848, -7.3325367647059
4562, 1.5095102391687, 0.60838728442085, -7.4538970588235
4563, 1.5516526280694, 0.49105027421368, -7.3325367647059
4564, 1.5846893023611, 0.37083158573986, -7.4538970588235
4565, 1.6084263897025, 0.24843671006622, -7.3325367647059
4566, 1.6227245914265, 0.1245839089914, -7.4538970588235
4567, 1.6227245914265, -0.12458390899139, -7.6966176470588
4568, 1.6084263897025, -0.24843671006621, -7.5752573529412
4569, 1.5846893023611, -0.37083158573985, -7.6966176470588
4570, 1.5516526280694, -0.49105027421367, -7.5752573529412
4571, 1.5095102391687, -0.60838728442085, -7.6966176470588
4572, 1.4585094439541, -0.72215403612847, -7.5752573529412
4573, 1.3989495353717, -0.83168290080017, -7.6966176470588
4574, 1.3311800346478, -0.9363311195058, -7.5752573529412
4575, 1.2555986401602, -1.0354845748865, -7.6966176470588
4576, 1.1726488935853, -1.1285613950394, -7.5752573529412
4577, 1.0828175770195, -1.2150153681735, -7.6966176470588
4578, 0.98663185634821, -1.2943391479975, -7.5752573529412
4579, 0.88465618762699, -1.3660672310297, -7.6966176470588
4580, 0.77748900462871, -1.4297786883576, -7.5752573529412
4581, 0.66575920699636, -1.4850996358156, -7.6966176470588
4582, 0.55012246960984, -1.5317054280867, -7.5752573529412
4583, 0.43125739482507, -1.56932256385, -7.6966176470588
4584, 0.3098615301655, -1.5977302907949, -7.5752573529412
4585, 0.1866472748359, -1.6167619010839, -7.6966176470588
4586, 0.062337699080533, -1.6263057096602, -7.5752573529412
4587, -0.062337699080534, -1.6263057096602, -7.6966176470588
4588, -0.1866472748359, -1.6167619010839, -7.5752573529412
4589, -0.3098615301655, -1.5977302907949, -7.6966176470588
4590, -0.43125739482507, -1.56932256385, -7.5752573529412
4591, -0.55012246960984, -1.5317054280867, -7.6966176470588
4592, -0.66575920699636, -1.4850996358156, -7.5752573529412
4593, -0.77748900462871, -1.4297786883576, -7.6966176470588
4594, -0.88465618762699, -1.3660672310297, -7.5752573529412
4595, -0.98663185634821, -1.2943391479975, -7.6966176470588
4596, -1.0828175770195, -1.2150153681735, -7.5752573529412
4597, -1.1726488935853, -1.1285613950394, -7.6966176470588
4598, -1.2555986401602, -1.0354845748865, -7.5752573529412
4599, -1.3311800346478, -0.9363311195058, -7.6966176470588
4600, -1.3989495353717, -0.83168290080017, -7.5752573529412
4601, -1.4585094439541, -0.72215403612848, -7.6966176470588
4602, -1.5095102391687, -0.60838728442085, -7.5752573529412
4603, -1.5516526280694, -0.49105027421367, -7.6966176470588
4604, -1.5846893023611, -0.37083158573985, -7.5752573529412
4605, -1.6084263897025, -0.24843671006621, -7.6966176470588
4606, -1.6227245914265, -0.12458390899139, -7.5752573529412
4607, -1.6275, 4.037564234344e-15, -7.6966176470588
4608, -1.6227245914265, 0.1245839089914, -7.5752573529412
4609, -1.6084263897025, 0.24843671006622, -7.6966176470588
4610, -1.5846893023611, 0.37083158573986, -7.5752573529412
4611, -1.5516526280694, 0.49105027421368, -7.6966176470588
4612, -1.5095102391687, 0.60838728442085, -7.5752573529412
4613, -1.4585094439541, 0.72215403612848, -7.6966176470588
4614, -1.3989495353717, 0.83168290080017, -7.5752573529412
4615, -1.3311800346478, 0.93633111950581, -7.6966176470588
4616, -1.2555986401602, 1.0354845748865, -7.5752573529412
4617, -1.1726488935853, 1.1285613950394, -7.6966176470588
4618, -1.0828175770195, 1.2150153681735, -7.5752573529412
4619, -0.9866318563482, 1.2943391479975, -7.6966176470588
4620, -0.88465618762699, 1.3660672310297, -7.5752573529412
4621, -0.77748900462871, 1.4297786883576, -7.6966176470588
4622, -0.66575920699635, 1.4850996358156, -7.5752573529412
4623, -0.55012246960984, 1.5317054280867, -7.6966176470588
4624, -0.43125739482507, 1.56932256385, -7.5752573529412
4625, -0.3098615301655, 1.5977302907949, -7.6966176470588
4626, -0.1866472748359, 1.6167619010839, -7.5752573529412
4627, -0.062337699080536, 1.6263057096602, -7.6966176470588
4628, 0.062337699080533, 1.6263057096602, -7.5752573529412
4629, 0.1866472748359, 1.6167619010839, -7.6966176470588
4630, 0.3098615301655, 1.5977302907949, -7.5752573529412
4631, 0.43125739482507, 1.56932256385, -7.6966176470588
4632, 0.55012246960984, 1.5317054280867, -7.5752573529412
4633, 0.66575920699635, 1.4850996358156, -7.6966176470588
4634, 0.77748900462871, 1.4297786883576, -7.5752573529412
4635, 0.88465618762699, 1.3660672310297, -7.6966176470588
4636, 0.9866318563482, 1.2943391479975, -7.5752573529412
4637, 1.0828175770195, 1.2150153681735, -7.6966176470588
4638, 1.1726488935853, 1.1285613950394, -7.5752573529412
4639, 1.2555986401602, 1.0354845748865, -7.6966176470588
4640, 1.3311800346478, 0.9363311195058, -7.5752573529412
4641, 1.3989495353717, 0.83168290080017, -7.6966176470588
4642, 1.4585094439541, 0.72215403612848, -7.5752573529412
4643, 1.5095102391687, 0.60838728442085, -7.6966176470588
4644, 1.5516526280694, 0.49105027421367, -7.5752573529412
4645, 1.5846893023611, 0.37083158573985, -7.6966176470588
4646, 1.6084263897025, 0.24843671006622, -7.5752573529412
4647, 1.6227245914265, 0.1245839089914, -7.6966176470588
4648, 1.6227245914265, -0.12458390899139, -7.9393382352941
4649, 1.6084263897025, -0.24843671006621, -7.8179779411765
4650, 1.5846893023611, -0.37083158573985, -7.9393382352941
4651, 1.5516526280694, -0.49105027421367, -7.8179779411765
4652, 1.5095102391687, -0.60838728442085, -7.9393382352941
4653, 1.4585094439541, -0.72215403612847, -7.8179779411765
4654, 1.3989495353717, -0.83168290080017, -7.9393382352941
4655, 1.3311800346478, -0.9363311195058, -7.8179779411765
4656, 1.2555986401602, -1.0354845748865, -7.9393382352941
4657, 1.1726488935853, -1.1285613950394, -7.8179779411765
4658, 1.0828175770195, -1.2150153681735, -7.9393382352941
4659, 0.98663185634821, -1.2943391479975, -7.8179779411765
4660, 0.88465618762699, -1.3660672310297, -7.9393382352941
4661, 0.77748900462871, -1.4297786883576, -7.8179779411765
4662, 0.66575920699636, -1.4850996358156, -7.9393382352941
4663, 0.55012246960984, -1.5317054280867, -7.8179779411765
4664, 0.43125739482507, -1.56932256385, -7.9393382352941
4665, 0.3098615301655, -1.5977302907949, -7.8179779411765
4666, 0.1866472748359, -1.6167619010839, -7.9393382352941
4667, 0.062337699080533, -1.6263057096602, -7.8179779411765
4668, -0.062337699080532, -1.6263057096602, -7.9393382352941
4669, -0.1866472748359, -1.6167619010839, -7.8179779411765
4670, -0.3098615301655, -1.5977302907949, -7.9393382352941
4671, -0.43125739482507, -1.56932256385, -7.8179779411765
4672, -0.55012246960984, -1.5317054280867, -7.9393382352941
4673, -0.66575920699636, -1.4850996358156, -7.8179779411765
4674, -0.77748900462871, -1.4297786883576, -7.9393382352941
4675, -0.88465618762699, -1.3660672310297, -7.8179779411765
4676, -0.98663185634821, -1.2943391479975, -7.9393382352941
4677, -1.0828175770195, -1.2150153681735, -7.8179779411765
4678, -1.1726488935853, -1.1285613950394, -7.9393382352941
4679, -1.2555986401602, -1.0354845748865, -7.8179779411765
4680, -1.3311800346478, -0.9363311195058, -7.9393382352941
4681, -1.3989495353717, -0.83168290080017, -7.8179779411765
4682, -1.4585094439541, -0.72215403612848, -7.9393382352941
4683, -1.5095102391687, -0.60838728442085, -7.8179779411765
4684, -1.5516526280694, -0.49105027421367, -7.9393382352941
4685, -1.5846893023611, -0.37083158573985, -7.8179779411765
4686, -1.6084263897025, -0.24843671006621, -7.9393382352941
4687, -1.6227245914265, -0.12458390899139, -7.8179779411765
4688, -1.6275, 2.5920538562821e-15, -7.9393382352941
4689, -1.6227245914265, 0.1245839089914, -7.8179779411765
4690, -1.6084263897025, 0.24843671006622, -7.9393382352941
4691, -1.5846893023611, 0.37083158573986, -7.8179779411765
4692, -1.5516526280694, 0.49105027421368, -7.9393382352941
4693, -1.5095102391687, 0.60838728442085, -7.8179779411765
4694, -1.4585094439541, 0.72215403612848, -7.9393382352941
4695, -1.3989495353717, 0.83168290080017, -7.8179779411765
4696, -1.3311800346478, 0.9363311195058, -7.9393382352941
4697, -1.2555986401602, 1.0354845748865, -7.8179779411765
4698, -1.1726488935853, 1.1285613950394, -7.9393382352941
4699, -1.0828175770195, 1.2150153681735, -7.8179779411765
4700, -0.98663185634821, 1.2943391479975, -7.9393382352941
4701, -0.88465618762699, 1.3660672310297, -7.8179779411765
4702, -0.77748900462871, 1.4297786883576, -7.9393382352941
4703, -0.66575920699635, 1.4850996358156, -7.8179779411765
4704, -0.55012246960984, 1.5317054280867, -7.9393382352941
4705, -0.43125739482507, 1.56932256385, -7.8179779411765
4706, -0.3098615301655, 1.5977302907949, -7.9393382352941
4707, -0.1866472748359, 1.6167619010839, -7.8179779411765
4708, -0.062337699080535, 1.6263057096602, -7.9393382352941
4709, 0.062337699080531, 1.6263057096602, -7.8179779411765
4710, 0.1866472748359, 1.6167619010839, -7.9393382352941
4711, 0.3098615301655, 1.5977302907949, -7.8179779411765
4712, 0.43125739482507, 1.56932256385, -7.9393382352941
4713, 0.55012246960984, 1.5317054280867, -7.8179779411765
4714, 0.66575920699635, 1.4850996358156, -7.9393382352941
4715, 0.77748900462871, 1.4297786883576, -7.8179779411765
4716, 0.88465618762699, 1.3660672310297, -7.9393382352941
4717, 0.9866318563482, 1.2943391479975, -7.8179779411765
4718, 1.0828175770195, 1.2150153681735, -7.9393382352941
4719, 1.1726488935853, 1.1285613950394, -7.8179779411765
4720, 1.2555986401602, 1.0354845748865, -7.9393382352941
4721, 1.3311800346478, 0.9363311195058, -7.8179779411765
4722, 1.3989495353717, 0.83168290080017, -7.9393382352941
4723, 1.4585094439541, 0.72215403612848, -7.8179779411765
4724, 1.5095102391687, 0.60838728442085, -7.9393382352941
4725, 1.5516526280694, 0.49105027421367, -7.8179779411765
4726, 1.5846893023611, 0.37083158573986, -7.9393382352941
4727, 1.6084263897025, 0.24843671006622, -7.8179779411765
4728, 1.6227245914265, 0.1245839089914, -7.9393382352941
4729, 1.6227245914265, -0.12458390899139, -8.1820588235294
4730, 1.6084263897025, -0.24843671006621, -8.0606985294118
4731, 1.5846893023611, -0.37083158573985, -8.1820588235294
4732, 1.5516526280694, -0.49105027421367, -8.0606985294118
4733, 1.5095102391687, -0.60838728442085, -8.1820588235294
4734, 1.4585094439541, -0.72215403612847, -8.0606985294118
4735, 1.3989495353717, -0.83168290080017, -8.1820588235294
4736, 1.3311800346478, -0.9363311195058, -8.0606985294118
4737, 1.2555986401602, -1.0354845748865, -8.1820588235294
4738, 1.1726488935853, -1.1285613950394, -8.0606985294118
4739, 1.0828175770195, -1.2150153681735, -8.1820588235294
4740, 0.98663185634821, -1.2943391479975, -8.0606985294118
4741, 0.88465618762699, -1.3660672310297, -8.1820588235294
4742, 0.77748900462871, -1.4297786883576, -8.0606985294118
4743, 0.66575920699636, -1.4850996358156, -8.1820588235294
4744, 0.55012246960984, -1.5317054280867, -8.0606985294118
4745, 0.43125739482507, -1.56932256385, -8.1820588235294
4746, 0.3098615301655, -1.5977302907949, -8.0606985294118
4747, 0.1866472748359, -1.6167619010839, -8.1820588235294
4748, 0.062337699080533, -1.6263057096602, -8.0606985294118
4749, -0.062337699080534, -1.6263057096602, -8.1820588235294
4750, -0.1866472748359, -1.6167619010839, -8.0606985294118
4751, -0.3098615301655, -1.5977302907949, -8.1820588235294
4752, -0.43125739482507, -1.56932256385, -8.0606985294118
4753, -0.55012246960984, -1.5317054280867, -8.1820588235294
4754, -0.66575920699636, -1.4850996358156, -8.0606985294118
4755, -0.77748900462871, -1.4297786883576, -8.1820588235294
4756, -0.88465618762699, -1.3660672310297, -8.0606985294118
4757, -0.98663185634821, -1.2943391479975, -8.1820588235294
4758, -1.0828175770195, -1.2150153681735, -8.0606985294118
4759, -1.1726488935853, -1.1285613950394, -8.1820588235294
4760, -1.2555986401602, -1.0354845748865, -8.0606985294118
4761, -1.3311800346478, -0.9363311195058, -8.1820588235294
4762, -1.3989495353717, -0.83168290080017, -8.0606985294118
4763, -1.4585094439541, -0.72215403612848, -8.1820588235294
4764, -1.5095102391687, -0.60838728442085, -8.0606985294118
4765, -1.5516526280694, -0.49105027421367, -8.1820588235294
4766, -1.5846893023611, -0.37083158573985, -8.0606985294118
4767, -1.6084263897025, -0.24843671006622, -8.1820588235294
4768, -1.6227245914265, -0.12458390899139, -8.0606985294118
4769, -1.6275, 2.5920538562821e-15, -8.1820588235294
4770, -1.6227245914265, 0.1245839089914, -8.0606985294118
4771, -1.6084263897025, 0.24843671006622, -8.1820588235294
4772, -1.5846893023611, 0.37083158573986, -8.0606985294118
4773, -1.5516526280694, 0.49105027421368, -8.1820588235294
4774, -1.5095102391687, 0.60838728442085, -8.0606985294118
4775, -1.4585094439541, 0.72215403612848, -8.1820588235294
4776, -1.3989495353717, 0.83168290080017, -8.0606985294118
4777, -1.3311800346478, 0.93633111950581, -8.1820588235294
4778, -1.2555986401602, 1.0354845748865, -8.0606985294118
4779, -1.1726488935853, 1.1285613950394, -8.1820588235294
4780, -1.0828175770195, 1.2150153681735, -8.0606985294118
4781, -0.9866318563482, 1.2943391479975, -8.1820588235294
4782, -0.88465618762699, 1.3660672310297, -8.0606985294118
4783, -0.77748900462871, 1.4297786883576, -8.1820588235294
4784, -0.66575920699635, 1.4850996358156, -8.0606985294118
4785, -0.55012246960984, 1.5317054280867, -8.1820588235294
4786, -0.43125739482507, 1.56932256385, -8.0606985294118
4787, -0.3098615301655, 1.5977302907949, -8.1820588235294
4788, -0.1866472748359, 1.6167619010839, -8.0606985294118
4789, -0.062337699080535, 1.6263057096602, -8.1820588235294
4790, 0.062337699080533, 1.6263057096602, -8.0606985294118
4791, 0.1866472748359, 1.6167619010839, -8.1820588235294
4792, 0.3098615301655, 1.5977302907949, -8.0606985294118
4793, 0.43125739482507, 1.56932256385, -8.1820588235294
4794, 0.55012246960984, 1.5317054280867, -8.0606985294118
4795, 0.66575920699636, 1.4850996358156, -8.1820588235294
4796, 0.77748900462871, 1.4297786883576, -8.0606985294118
4797, 0.88465618762699, 1.3660672310297, -8.1820588235294
4798, 0.9866318563482, 1.2943391479975, -8.0606985294118
4799, 1.0828175770195, 1.2150153681735, -8.1820588235294
4800, 1.1726488935853, 1.1285613950394, -8.0606985294118
4801, 1.2555986401602, 1.0354845748865, -8.1820588235294
4802, 1.3311800346478, 0.9363311195058, -8.0606985294118
4803, 1.3989495353717, 0.83168290080017, -8.1820588235294
4804, 1.4585094439541, 0.72215403612848, -8.0606985294118
4805, 1.5095102391687, 0.60838728442085, -8.1820588235294
4806, 1.5516526280694, 0.49105027421368, -8.0606985294118
4807, 1.5846893023611, 0.37083158573986, -8.1820588235294
4808, 1.6084263897025, 0.24843671006622, -8.0606985294118
4809, 1.6227245914265, 0.1245839089914, -8.1820588235294
4810, 1.6227245914265, -0.12458390899139, -8.4247794117647
4811, 1.6084263897025, -0.24843671006621, -8.3034191176471
4812, 1.5846893023611, -0.37083158573985, -8.4247794117647
4813, 1.5516526280694, -0.49105027421367, -8.3034191176471
4814, 1.5095102391687, -0.60838728442085, -8.4247794117647
4815, 1.4585094439541, -0.72215403612847, -8.3034191176471
4816, 1.3989495353717, -0.83168290080017, -8.4247794117647
4817, 1.3311800346478, -0.9363311195058, -8.3034191176471
4818, 1.2555986401602, -1.0354845748865, -8.4247794117647
4819, 1.1726488935853, -1.1285613950394, -8.3034191176471
4820, 1.0828175770195, -1.2150153681735, -8.4247794117647
4821, 0.98663185634821, -1.2943391479975, -8.3034191176471
4822, 0.88465618762699, -1.3660672310297, -8.4247794117647
4823, 0.77748900462871, -1.4297786883576, -8.3034191176471
4824, 0.66575920699636, -1.4850996358156, -8.4247794117647
4825, 0.55012246960984, -1.5317054280867, -8.3034191176471
4826, 0.43125739482507, -1.56932256385, -8.4247794117647
4827, 0.3098615301655, -1.5977302907949, -8.3034191176471
4828, 0.1866472748359, -1.6167619010839, -8.4247794117647
4829, 0.062337699080532, -1.6263057096602, -8.3034191176471
4830, -0.062337699080534, -1.6263057096602, -8.4247794117647
4831, -0.1866472748359, -1.6167619010839, -8.3034191176471
4832, -0.3098615301655, -1.5977302907949, -8.4247794117647
4833, -0.43125739482507, -1.56932256385, -8.3034191176471
4834, -0.55012246960984, -1.5317054280867, -8.4247794117647
4835, -0.66575920699636, -1.4850996358156, -8.3034191176471
4836, -0.77748900462871, -1.4297786883576, -8.4247794117647
4837, -0.88465618762699, -1.3660672310297, -8.3034191176471
4838, -0.9866318563482, -1.2943391479975, -8.4247794117647
4839, -1.0828175770195, -1.2150153681735, -8.3034191176471
4840, -1.1726488935853, -1.1285613950394, -8.4247794117647
4841, -1.2555986401602, -1.0354845748865, -8.3034191176471
4842, -1.3311800346478, -0.9363311195058, -8.4247794117647
4843, -1.3989495353717, -0.83168290080017, -8.3034191176471
4844, -1.4585094439541, -0.72215403612847, -8.4247794117647
4845, -1.5095102391687, -0.60838728442085, -8.3034191176471
4846, -1.5516526280694, -0.49105027421367, -8.4247794117647
4847, -1.5846893023611, -0.37083158573985, -8.3034191176471
4848, -1.6084263897025, -0.24843671006622, -8.4247794117647
4849, -1.6227245914265, -0.12458390899139, -8.3034191176471
4850, -1.6275, 1.1465434782201e-15, -8.4247794117647
4851, -1.6227245914265, 0.1245839089914, -8.3034191176471
4852, -1.6084263897025, 0.24843671006622, -8.4247794117647
4853, -1.5846893023611, 0.37083158573986, -8.3034191176471
4854, -1.5516526280694, 0.49105027421368, -8.4247794117647
4855, -1.5095102391687, 0.60838728442085, -8.3034191176471
4856, -1.4585094439541, 0.72215403612848, -8.4247794117647
4857, -1.3989495353717, 0.83168290080017, -8.3034191176471
4858, -1.3311800346478, 0.93633111950581, -8.4247794117647
4859, -1.2555986401602, 1.0354845748865, -8.3034191176471
4860, -1.1726488935853, 1.1285613950394, -8.4247794117647
4861, -1.0828175770195, 1.2150153681735, -8.3034191176471
4862, -0.98663185634821, 1.2943391479975, -8.4247794117647
4863, -0.88465618762699, 1.3660672310297, -8.3034191176471
4864, -0.77748900462871, 1.4297786883576, -8.4247794117647
4865, -0.66575920699635, 1.4850996358156, -8.3034191176471
4866, -0.55012246960984, 1.5317054280867, -8.4247794117647
4867, -0.43125739482507, 1.56932256385, -8.3034191176471
4868, -0.3098615301655, 1.5977302907949, -8.4247794117647
4869, -0.1866472748359, 1.6167619010839, -8.3034191176471
4870, -0.062337699080535, 1.6263057096602, -8.4247794117647
4871, 0.06233769908053, 1.6263057096602, -8.3034191176471
4872, 0.18664727483589, 1.6167619010839, -8.4247794117647
4873, 0.3098615301655, 1.5977302907949, -8.3034191176471
4874, 0.43125739482507, 1.56932256385, -8.4247794117647
4875, 0.55012246960984, 1.5317054280867, -8.3034191176471
4876, 0.66575920699635, 1.4850996358156, -8.4247794117647
4877, 0.77748900462871, 1.4297786883576, -8.3034191176471
4878, 0.88465618762699, 1.3660672310297, -8.4247794117647
4879, 0.9866318563482, 1.2943391479975, -8.3034191176471
4880, 1.0828175770195, 1.2150153681735, -8.4247794117647
4881, 1.1726488935853, 1.1285613950394, -8.3034191176471
4882, 1.2555986401602, 1.0354845748865, -8.4247794117647
4883, 1.3311800346478, 0.9363311195058, -8.3034191176471
4884, 1.3989495353717, 0.83168290080017, -8.4247794117647
4885, 1.4585094439541, 0.72215403612848, -8.3034191176471
4886, 1.5095102391687, 0.60838728442085, -8.4247794117647
4887, 1.5516526280694, 0.49105027421368, -8.3034191176471
4888, 1.5846893023611, 0.37083158573986, -8.4247794117647
4889, 1.6084263897025, 0.24843671006622, -8.3034191176471
4890, 1.6227245914265, 0.1245839089914, -8.4247794117647
4891, 1.6084263897025, -0.24843671006621, -8.5461397058824
4892, 1.5516526280694, -0.49105027421367, -8.5461397058824
4893, 1.4585094439541, -0.72215403612847, -8.5461397058824
4894, 1.3311800346478, -0.9363311195058, -8.5461397058824
4895, 1.1726488935853, -1.1285613950394, -8.5461397058824
4896, 0.98663185634821, -1.2943391479975, -8.5461397058824
4897, 0.77748900462871, -1.4297786883576, -8.5461397058824
4898, 0.55012246960984, -1.5317054280867, -8.5461397058824
4899, 0.3098615301655, -1.5977302907949, -8.5461397058824
4900, 0.062337699080532, -1.6263057096602, -8.5461397058824
4901, -0.1866472748359, -1.6167619010839, -8.5461397058824
4902, -0.43125739482507, -1.56932256385, -8.5461397058824
4903, -0.66575920699636, -1.4850996358156, -8.5461397058824
4904, -0.88465618762699, -1.3660672310297, -8.5461397058824
4905, -1.0828175770195, -1.2150153681735, -8.5461397058824
4906, -1.2555986401602, -1.0354845748865, -8.5461397058824
4907, -1.3989495353717, -0.83168290080017, -8.5461397058824
4908, -1.5095102391687, -0.60838728442085, -8.5461397058824
4909, -1.5846893023611, -0.37083158573985, -8.5461397058824
4910, -1.6227245914265, -0.12458390899139, -8.5461397058824
4911, -1.6227245914265, 0.1245839089914, -8.5461397058824
4912, -1.5846893023611, 0.37083158573986, -8.5461397058824
4913, -1.5095102391687, 0.60838728442085, -8.5461397058824
4914, -1.3989495353717, 0.83168290080017, -8.5461397058824
4915, -1.2555986401602, 1.0354845748865, -8.5461397058824
4916, -1.0828175770195, 1.2150153681735, -8.5461397058824
4917, -0.88465618762699, 1.3660672310297, -8.5461397058824
4918, -0.66575920699635, 1.4850996358156, -8.5461397058824
4919, -0.43125739482507, 1.56932256385, -8.5461397058824
4920, -0.1866472748359, 1.6167619010839, -8.5461397058824
4921, 0.06233769908053, 1.6263057096602, -8.5461397058824
4922, 0.3098615301655, 1.5977302907949, -8.5461397058824
4923, 0.55012246960984, 1.5317054280867, -8.5461397058824
4924, 0.77748900462871, 1.4297786883576, -8.5461397058824
4925, 0.9866318563482, 1.2943391479975, -8.5461397058824
4926, 1.1726488935853, 1.1285613950394, -8.5461397058824
4927, 1.3311800346478, 0.9363311195058, -8.5461397058824
4928, 1.4585094439541, 0.72215403612848, -8.5461397058824
4929, 1.5516526280694, 0.49105027421368, -8.5461397058824
4930, 1.6084263897025, 0.24843671006622, -8.5461397058824
4931, 1.6227245914265, -0.12458390899139, -0.2075
4932, 1.6084263897025, -0.24843671006621, -0.10375
4933, 1.5846893023611, -0.37083158573985, -0.2075
4934, 1.5516526280694, -0.49105027421367, -0.10375
4935, 1.5095102391687, -0.60838728442085, -0.2075
4936, 1.4585094439541, -0.72215403612847, -0.10375
4937, 1.3989495353717, -0.83168290080017, -0.2075
4938, 1.3311800346478, -0.9363311195058, -0.10375
4939, 1.2555986401602, -1.0354845748865, -0.2075
4940, 1.1726488935853, -1.1285613950394, -0.10375
4941, 1.0828175770195, -1.2150153681735, -0.2075
4942, 0.98663185634821, -1.2943391479975, -0.10375
4943, 0.88465618762699, -1.3660672310297, -0.2075
4944, 0.77748900462871, -1.4297786883576, -0.10375
4945, 0.66575920699636, -1.4850996358156, -0.2075
4946, 0.55012246960984, -1.5317054280867, -0.10375
4947, 0.43125739482507, -1.56932256385, -0.2075
4948, 0.3098615301655, -1.5977302907949, -0.10375
4949, 0.1866472748359, -1.6167619010839, -0.2075
4950, 0.062337699080533, -1.6263057096602, -0.10375
4951, -0.062337699080532, -1.6263057096602, -0.2075
4952, -0.1866472748359, -1.6167619010839, -0.10375
4953, -0.3098615301655, -1.5977302907949, -0.2075
4954, -0.43125739482507, -1.56932256385, -0.10375
4955, -0.55012246960984, -1.5317054280867, -0.2075
4956, -0.66575920699636, -1.4850996358156, -0.10375
4957, -0.77748900462871, -1.4297786883576, -0.2075
4958, -0.88465618762699, -1.3660672310297, -0.10375
4959, -0.98663185634821, -1.2943391479975, -0.2075
4960, -1.0828175770195, -1.2150153681735, -0.10375
4961, -1.1726488935853, -1.1285613950394, -0.2075
4962, -1.2555986401602, -1.0354845748865, -0.10375
4963, -1.3311800346478, -0.9363311195058, -0.2075
4964, -1.3989495353717, -0.83168290080017, -0.10375
4965, -1.4585094439541, -0.72215403612848, -0.2075
4966, -1.5095102391687, -0.60838728442085, -0.10375
4967, -1.5516526280694, -0.49105027421367, -0.2075
4968, -1.5846893023611, -0.37083158573985, -0.10375
4969, -1.6084263897025, -0.24843671006622, -0.2075
4970, -1.6227245914265, -0.12458390899139, -0.10375
4971, -1.6275, 2.5920538562821e-15, -0.2075
4972, -1.6227245914265, 0.1245839089914, -0.10375
4973, -1.6084263897025, 0.24843671006622, -0.2075
4974, -1.5846893023611, 0.37083158573986, -0.10375
4975, -1.5516526280694, 0.49105027421368, -0.2075
4976, -1.5095102391687, 0.60838728442085, -0.10375
4977, -1.4585094439541, 0.72215403612848, -0.2075
4978, -1.3989495353717, 0.83168290080017, -0.10375
4979, -1.3311800346478, 0.93633111950581, -0.2075
4980, -1.2555986401602, 1.0354845748865, -0.10375
4981, -1.1726488935853, 1.1285613950394, -0.2075
4982, -1.0828175770195, 1.2150153681735, -0.10375
4983, -0.9866318563482, 1.2943391479975, -0.2075
4984, -0.88465618762699, 1.3660672310297, -0.10375
4985, -0.77748900462871, 1.4297786883576, -0.2075
4986, -0.66575920699635, 1.4850996358156, -0.10375
4987, -0.55012246960984, 1.5317054280867, -0.2075
4988, -0.43125739482507, 1.56932256385, -0.10375
4989, -0.3098615301655, 1.5977302907949, -0.2075
4990, -0.1866472748359, 1.6167619010839, -0.10375
4991, -0.062337699080533, 1.6263057096602, -0.2075
4992, 0.062337699080533, 1.6263057096602, -0.10375
4993, 0.1866472748359, 1.6167619010839, -0.2075
4994, 0.3098615301655, 1.5977302907949, -0.10375
4995, 0.43125739482507, 1.56932256385, -0.2075
4996, 0.55012246960984, 1.5317054280867, -0.10375
4997, 0.66575920699635, 1.4850996358156, -0.2075
4998, 0.77748900462871, 1.4297786883576, -0.10375
4999, 0.88465618762699, 1.3660672310297, -0.2075
5000, 0.9866318563482, 1.2943391479975, -0.10375
5001, 1.0828175770195, 1.2150153681735, -0.2075
5002, 1.1726488935853, 1.1285613950394, -0.10375
5003, 1.2555986401602, 1.0354845748865, -0.2075
5004, 1.3311800346478, 0.9363311195058, -0.10375
5005, 1.3989495353717, 0.83168290080017, -0.2075
5006, 1.4585094439541, 0.72215403612848, -0.10375
5007, 1.5095102391687, 0.60838728442085, -0.2075
5008, 1.5516526280694, 0.49105027421368, -0.10375
5009, 1.5846893023611, 0.37083158573986, -0.2075
5010, 1.6084263897025, 0.24843671006622, -0.10375
5011, 1.6227245914265, 0.1245839089914, -0.2075
5012, 1.6084263897025, -0.24843671006621, -0.31125
5013, 1.5516526280694, -0.49105027421367, -0.31125
5014, 1.4585094439541, -0.72215403612847, -0.31125
5015, 1.3311800346478, -0.9363311195058, -0.31125
5016, 1.1726488935853, -1.1285613950394, -0.31125
5017, 0.98663185634821, -1.2943391479975, -0.31125
5018, 0.77748900462871, -1.4297786883576, -0.31125
5019, 0.55012246960984, -1.5317054280867, -0.31125
5020, 0.3098615301655, -1.5977302907949, -0.31125
5021, 0.062337699080533, -1.6263057096602, -0.31125
5022, -0.1866472748359, -1.6167619010839, -0.31125
5023, -0.43125739482507, -1.56932256385, -0.31125
5024, -0.66575920699636, -1.4850996358156, -0.31125
5025, -0.88465618762699, -1.3660672310297, -0.31125
5026, -1.0828175770195, -1.2150153681735, -0.31125
5027, -1.2555986401602, -1.0354845748865, -0.31125
5028, -1.3989495353717, -0.83168290080017, -0.31125
5029, -1.5095102391687, -0.60838728442085, -0.31125
5030, -1.5846893023611, -0.37083158573985, -0.31125
5031, -1.6227245914265, -0.12458390899139, -0.31125
5032, -1.6227245914265, 0.1245839089914, -0.31125
5033, -1.5846893023611, 0.37083158573986, -0.31125
5034, -1.5095102391687, 0.60838728442085, -0.31125
5035, -1.3989495353717, 0.83168290080017, -0.31125
5036, -1.2555986401602, 1.0354845748865, -0.31125
5037, -1.0828175770195, 1.2150153681735, -0.31125
5038, -0.88465618762699, 1.3660672310297, -0.31125
5039, -0.66575920699635, 1.4850996358156, -0.31125
5040, -0.43125739482507, 1.56932256385, -0.31125
5041, -0.1866472748359, 1.6167619010839, -0.31125
5042, 0.062337699080533, 1.6263057096602, -0.31125
5043, 0.3098615301655, 1.5977302907949, -0.31125
5044, 0.55012246960984, 1.5317054280867, -0.31125
5045, 0.77748900462871, 1.4297786883576, -0.31125
5046, 0.9866318563482, 1.2943391479975, -0.31125
5047, 1.1726488935853, 1.1285613950394, -0.31125
5048, 1.3311800346478, 0.9363311195058, -0.31125
5049, 1.4585094439541, 0.72215403612848, -0.31125
5050, 1.5516526280694, 0.49105027421368, -0.31125
5051, 1.6084263897025, 0.24843671006622, -0.31125
5052, 1.6227245914265, -0.12458390899139, -8.9175
5053, 1.6084263897025, -0.24843671006621, -8.7925
5054, 1.5846893023611, -0.37083158573985, -8.9175
5055, 1.5516526280694, -0.49105027421367, -8.7925
5056, 1.5095102391687, -0.60838728442085, -8.9175
5057, 1.4585094439541, -0.72215403612847, -8.7925
5058, 1.3989495353717, -0.83168290080017, -8.9175
5059, 1.3311800346478, -0.9363311195058, -8.7925
5060, 1.2555986401602, -1.0354845748865, -8.9175
5061, 1.1726488935853, -1.1285613950394, -8.7925
5062, 1.0828175770195, -1.2150153681735, -8.9175
5063, 0.98663185634821, -1.2943391479975, -8.7925
5064, 0.88465618762699, -1.3660672310297, -8.9175
5065, 0.77748900462871, -1.4297786883576, -8.7925
5066, 0.66575920699636, -1.4850996358156, -8.9175
5067, 0.55012246960984, -1.5317054280867, -8.7925
5068, 0.43125739482507, -1.56932256385, -8.9175
5069, 0.3098615301655, -1.5977302907949, -8.7925
5070, 0.1866472748359, -1.6167619010839, -8.9175
5071, 0.062337699080533, -1.6263057096602, -8.7925
5072, -0.062337699080532, -1.6263057096602, -8.9175
5073, -0.1866472748359, -1.6167619010839, -8.7925
5074, -0.3098615301655, -1.5977302907949, -8.9175
5075, -0.43125739482507, -1.56932256385, -8.7925
5076, -0.55012246960984, -1.5317054280867, -8.9175
5077, -0.66575920699636, -1.4850996358156, -8.7925
5078, -0.77748900462871, -1.4297786883576, -8.9175
5079, -0.88465618762699, -1.3660672310297, -8.7925
5080, -0.98663185634821, -1.2943391479975, -8.9175
5081, -1.0828175770195, -1.2150153681735, -8.7925
5082, -1.1726488935853, -1.1285613950394, -8.9175
5083, -1.2555986401602, -1.0354845748865, -8.7925
5084, -1.3311800346478, -0.9363311195058, -8.9175
5085, -1.3989495353717, -0.83168290080017, -8.7925
5086, -1.4585094439541, -0.72215403612848, -8.9175
5087, -1.5095102391687, -0.60838728442085, -8.7925
5088, -1.5516526280694, -0.49105027421367, -8.9175
5089, -1.5846893023611, -0.37083158573985, -8.7925
5090, -1.6084263897025, -0.24843671006622, -8.9175
5091, -1.6227245914265, -0.12458390899139, -8.7925
5092, -1.6275, 1.1465434782201e-15, -8.9175
5093, -1.6227245914265, 0.1245839089914, -8.7925
5094, -1.6084263897025, 0.24843671006622, -8.9175
5095, -1.5846893023611, 0.37083158573986, -8.7925
5096, -1.5516526280694, 0.49105027421368, -8.9175
5097, -1.5095102391687, 0.60838728442085, -8.7925
5098, -1.4585094439541, 0.72215403612848, -8.9175
5099, -1.3989495353717, 0.83168290080017, -8.7925
5100, -1.3311800346478, 0.93633111950581, -8.9175
5101, -1.2555986401602, 1.0354845748865, -8.7925
5102, -1.1726488935853, 1.1285613950394, -8.9175
5103, -1.0828175770195, 1.2150153681735, -8.7925
5104, -0.9866318563482, 1.2943391479975, -8.9175
5105, -0.88465618762699, 1.3660672310297, -8.7925
5106, -0.77748900462871, 1.4297786883576, -8.9175
5107, -0.66575920699635, 1.4850996358156, -8.7925
5108, -0.55012246960984, 1.5317054280867, -8.9175
5109, -0.43125739482507, 1.56932256385, -8.7925
5110, -0.3098615301655, 1.5977302907949, -8.9175
5111, -0.1866472748359, 1.6167619010839, -8.7925
5112, -0.062337699080533, 1.6263057096602, -8.9175
5113, 0.062337699080533, 1.6263057096602, -8.7925
5114, 0.1866472748359, 1.6167619010839, -8.9175
5115, 0.3098615301655, 1.5977302907949, -8.7925
5116, 0.43125739482507, 1.56932256385, -8.9175
5117, 0.55012246960984, 1.5317054280867, -8.7925
5118, 0.66575920699635, 1.4850996358156, -8.9175
5119, 0.77748900462871, 1.4297786883576, -8.7925
5120, 0.88465618762699, 1.3660672310297, -8.9175
5121, 0.9866318563482, 1.2943391479975, -8.7925
5122, 1.0828175770195, 1.2150153681735, -8.9175
5123, 1.1726488935853, 1.1285613950394, -8.7925
5124, 1.2555986401602, 1.0354845748865, -8.9175
5125, 1.3311800346478, 0.9363311195058, -8.7925
5126, 1.3989495353717, 0.83168290080017, -8.9175
5127, 1.4585094439541, 0.72215403612848, -8.7925
5128, 1.5095102391687, 0.60838728442085, -8.9175
5129, 1.5516526280694, 0.49105027421368, -8.7925
5130, 1.5846893023611, 0.37083158573986, -8.9175
5131, 1.6084263897025, 0.24843671006622, -8.7925
5132, 1.6227245914265, 0.1245839089914, -8.9175
5133, 1.6227245914265, -0.12458390899139, -9.1675
5134, 1.6084263897025, -0.24843671006621, -9.0425
5135, 1.5846893023611, -0.37083158573985, -9.1675
5136, 1.5516526280694, -0.49105027421367, -9.0425
5137, 1.5095102391687, -0.60838728442085, -9.1675
5138, 1.4585094439541, -0.72215403612847, -9.0425
5139, 1.3989495353717, -0.83168290080017, -9.1675
5140, 1.3311800346478, -0.9363311195058, -9.0425
5141, 1.2555986401602, -1.0354845748865, -9.1675
5142, 1.1726488935853, -1.1285613950394, -9.0425
5143, 1.0828175770195, -1.2150153681735, -9.1675
5144, 0.98663185634821, -1.2943391479975, -9.0425
5145, 0.88465618762699, -1.3660672310297, -9.1675
5146, 0.77748900462871, -1.4297786883576, -9.0425
5147, 0.66575920699636, -1.4850996358156, -9.1675
5148, 0.55012246960984, -1.5317054280867, -9.0425
5149, 0.43125739482507, -1.56932256385, -9.1675
5150, 0.3098615301655, -1.5977302907949, -9.0425
5151, 0.1866472748359, -1.6167619010839, -9.1675
5152, 0.062337699080533, -1.6263057096602, -9.0425
5153, -0.062337699080532, -1.6263057096602, -9.1675
5154, -0.1866472748359, -1.6167619010839, -9.0425
5155, -0.3098615301655, -1.5977302907949, -9.1675
5156, -0.43125739482507, -1.56932256385, -9.0425
5157, -0.55012246960984, -1.5317054280867, -9.1675
5158, -0.66575920699636, -1.4850996358156, -9.0425
5159, -0.77748900462871, -1.4297786883576, -9.1675
5160, -0.88465618762699, -1.3660672310297, -9.0425
5161, -0.98663185634821, -1.2943391479975, -9.1675
5162, -1.0828175770195, -1.2150153681735, -9.0425
5163, -1.1726488935853, -1.1285613950394, -9.1675
5164, -1.2555986401602, -1.0354845748865, -9.0425
5165, -1.3311800346478, -0.9363311195058, -9.1675
5166, -1.3989495353717, -0.83168290080017, -9.0425
5167, -1.4585094439541, -0.72215403612847, -9.1675
5168, -1.5095102391687, -0.60838728442085, -9.0425
5169, -1.5516526280694, -0.49105027421367, -9.1675
5170, -1.5846893023611, -0.37083158573985, -9.0425
5171, -1.6084263897025, -0.24843671006622, -9.1675
5172, -1.6227245914265, -0.12458390899139, -9.0425
5173, -1.6275, 2.5920538562821e-15, -9.1675
5174, -1.6227245914265, 0.1245839089914, -9.0425
5175, -1.6084263897025, 0.24843671006622, -9.1675
5176, -1.5846893023611, 0.37083158573986, -9.0425
5177, -1.5516526280694, 0.49105027421367, -9.1675
5178, -1.5095102391687, 0.60838728442085, -9.0425
5179, -1.4585094439541, 0.72215403612848, -9.1675
5180, -1.3989495353717, 0.83168290080017, -9.0425
5181, -1.3311800346478, 0.93633111950581, -9.1675
5182, -1.2555986401602, 1.0354845748865, -9.0425
5183, -1.1726488935853, 1.1285613950394, -9.1675
5184, -1.0828175770195, 1.2150153681735, -9.0425
5185, -0.9866318563482, 1.2943391479975, -9.1675
5186, -0.88465618762699, 1.3660672310297, -9.0425
5187, -0.77748900462871, 1.4297786883576, -9.1675
5188, -0.66575920699635, 1.4850996358156, -9.0425
5189, -0.55012246960984, 1.5317054280867, -9.1675
5190, -0.43125739482507, 1.56932256385, -9.0425
5191, -0.3098615301655, 1.5977302907949, -9.1675
5192, -0.1866472748359, 1.6167619010839, -9.0425
5193, -0.062337699080533, 1.6263057096602, -9.1675
5194, 0.062337699080533, 1.6263057096602, -9.0425
5195, 0.1866472748359, 1.6167619010839, -9.1675
5196, 0.3098615301655, 1.5977302907949, -9.0425
5197, 0.43125739482507, 1.56932256385, -9.1675
5198, 0.55012246960984, 1.5317054280867, -9.0425
5199, 0.66575920699635, 1.4850996358156, -9.1675
5200, 0.77748900462871, 1.4297786883576, -9.0425
5201, 0.88465618762699, 1.3660672310297, -9.1675
5202, 0.9866318563482, 1.2943391479975, -9.0425
5203, 1.0828175770195, 1.2150153681735, -9.1675
5204, 1.1726488935853, 1.1285613950394, -9.0425
5205, 1.2555986401602, 1.0354845748865, -9.1675
5206, 1.3311800346478, 0.9363311195058, -9.0425
5207, 1.3989495353717, 0.83168290080017, -9.1675
5208, 1.4585094439541, 0.72215403612848, -9.0425
5209, 1.5095102391687, 0.60838728442085, -9.1675
5210, 1.5516526280694, 0.49105027421368, -9.0425
5211, 1.5846893023611, 0.37083158573986, -9.1675
5212, 1.6084263897025, 0.24843671006622, -9.0425
5213, 1.6227245914265, 0.1245839089914, -9.1675
5214, 1.6227245914265, -0.12458390899139, -9.4175
5215, 1.6084263897025, -0.24843671006621, -9.2925
5216, 1.5846893023611, -0.37083158573985, -9.4175
5217, 1.5516526280694, -0.49105027421367, -9.2925
5218, 1.5095102391687, -0.60838728442085, -9.4175
5219, 1.4585094439541, -0.72215403612847, -9.2925
5220, 1.3989495353717, -0.83168290080017, -9.4175
5221, 1.3311800346478, -0.9363311195058, -9.2925
5222, 1.2555986401602, -1.0354845748865, -9.4175
5223, 1.1726488935853, -1.1285613950394, -9.2925
5224, 1.0828175770195, -1.2150153681735, -9.4175
5225, 0.98663185634821, -1.2943391479975, -9.2925
5226, 0.88465618762699, -1.3660672310297, -9.4175
5227, 0.77748900462871, -1.4297786883576, -9.2925
5228, 0.66575920699636, -1.4850996358156, -9.4175
5229, 0.55012246960984, -1.5317054280867, -9.2925
5230, 0.43125739482507, -1.56932256385, -9.4175
5231, 0.3098615301655, -1.5977302907949, -9.2925
5232, 0.1866472748359, -1.6167619010839, -9.4175
5233, 0.062337699080533, -1.6263057096602, -9.2925
5234, -0.062337699080532, -1.6263057096602, -9.4175
5235, -0.1866472748359, -1.6167619010839, -9.2925
5236, -0.3098615301655, -1.5977302907949, -9.4175
5237, -0.43125739482507, -1.56932256385, -9.2925
5238, -0.55012246960984, -1.5317054280867, -9.4175
5239, -0.66575920699636, -1.4850996358156, -9.2925
5240, -0.77748900462871, -1.4297786883576, -9.4175
5241, -0.88465618762699, -1.3660672310297, -9.2925
5242, -0.98663185634821, -1.2943391479975, -9.4175
5243, -1.0828175770195, -1.2150153681735, -9.2925
5244, -1.1726488935853, -1.1285613950394, -9.4175
5245, -1.2555986401602, -1.0354845748865, -9.2925
5246, -1.3311800346478, -0.9363311195058, -9.4175
5247, -1.3989495353717, -0.83168290080017, -9.2925
5248, -1.4585094439541, -0.72215403612848, -9.4175
5249, -1.5095102391687, -0.60838728442085, -9.2925
5250, -1.5516526280694, -0.49105027421367, -9.4175
5251, -1.5846893023611, -0.37083158573985, -9.2925
5252, -1.6084263897025, -0.24843671006622, -9.4175
5253, -1.6227245914265, -0.12458390899139, -9.2925
5254, -1.6275, 2.5920538562821e-15, -9.4175
5255, -1.6227245914265, 0.1245839089914, -9.2925
5256, -1.6084263897025, 0.24843671006622, -9.4175
5257, -1.5846893023611, 0.37083158573986, -9.2925
5258, -1.5516526280694, 0.49105027421368, -9.4175
5259, -1.5095102391687, 0.60838728442085, -9.2925
5260, -1.4585094439541, 0.72215403612848, -9.4175
5261, -1.3989495353717, 0.83168290080017, -9.2925
5262, -1.3311800346478, 0.93633111950581, -9.4175
5263, -1.2555986401602, 1.0354845748865, -9.2925
5264, -1.1726488935853, 1.1285613950394, -9.4175
5265, -1.0828175770195, 1.2150153681735, -9.2925
5266, -0.9866318563482, 1.2943391479975, -9.4175
5267, -0.88465618762699, 1.3660672310297, -9.2925
5268, -0.77748900462871, 1.4297786883576, -9.4175
5269, -0.66575920699635, 1.4850996358156, -9.2925
5270, -0.55012246960984, 1.5317054280867, -9.4175
5271, -0.43125739482507, 1.56932256385, -9.2925
5272, -0.3098615301655, 1.5977302907949, -9.4175
5273, -0.1866472748359, 1.6167619010839, -9.2925
5274, -0.062337699080533, 1.6263057096602, -9.4175
5275, 0.062337699080533, 1.6263057096602, -9.2925
5276, 0.1866472748359, 1.6167619010839, -9.4175
5277, 0.3098615301655, 1.5977302907949, -9.2925
5278, 0.43125739482507, 1.56932256385, -9.4175
5279, 0.55012246960984, 1.5317054280867, -9.2925
5280, 0.66575920699635, 1.4850996358156, -9.4175
5281, 0.77748900462871, 1.4297786883576, -9.2925
5282, 0.88465618762699, 1.3660672310297, -9.4175
5283, 0.9866318563482, 1.2943391479975, -9.2925
5284, 1.0828175770195, 1.2150153681735, -9.4175
5285, 1.1726488935853, 1.1285613950394, -9.2925
5286, 1.2555986401602, 1.0354845748865, -9.4175
5287, 1.3311800346478, 0.9363311195058, -9.2925
5288, 1.3989495353717, 0.83168290080017, -9.4175
5289, 1.4585094439541, 0.72215403612848, -9.2925
5290, 1.5095102391687, 0.60838728442085, -9.4175
5291, 1.5516526280694, 0.49105027421368, -9.2925
5292, 1.5846893023611, 0.37083158573986, -9.4175
5293, 1.6084263897025, 0.24843671006622, -9.2925
5294, 1.6227245914265, 0.1245839089914, -9.4175
5295, 1.6227245914265, -0.12458390899139, -9.6675
5296, 1.6084263897025, -0.24843671006621, -9.5425
5297, 1.5846893023611, -0.37083158573985, -9.6675
5298, 1.5516526280694, -0.49105027421367, -9.5425
5299, 1.5095102391687, -0.60838728442085, -9.6675
5300, 1.4585094439541, -0.72215403612847, -9.5425
5301, 1.3989495353717, -0.83168290080017, -9.6675
5302, 1.3311800346478, -0.9363311195058, -9.5425
5303, 1.2555986401602, -1.0354845748865, -9.6675
5304, 1.1726488935853, -1.1285613950394, -9.5425
5305, 1.0828175770195, -1.2150153681735, -9.6675
5306, 0.98663185634821, -1.2943391479975, -9.5425
5307, 0.88465618762699, -1.3660672310297, -9.6675
5308, 0.77748900462871, -1.4297786883576, -9.5425
5309, 0.66575920699636, -1.4850996358156, -9.6675
5310, 0.55012246960984, -1.5317054280867, -9.5425
5311, 0.43125739482507, -1.56932256385, -9.6675
5312, 0.3098615301655, -1.5977302907949, -9.5425
5313, 0.1866472748359, -1.6167619010839, -9.6675
5314, 0.062337699080533, -1.6263057096602, -9.5425
5315, -0.062337699080532, -1.6263057096602, -9.6675
5316, -0.1866472748359, -1.6167619010839, -9.5425
5317, -0.3098615301655, -1.5977302907949, -9.6675
5318, -0.43125739482507, -1.56932256385, -9.5425
5319, -0.55012246960984, -1.5317054280867, -9.6675
5320, -0.66575920699636, -1.4850996358156, -9.5425
5321, -0.77748900462871, -1.4297786883576, -9.6675
5322, -0.88465618762699, -1.3660672310297, -9.5425
5323, -0.98663185634821, -1.2943391479975, -9.6675
5324, -1.0828175770195, -1.2150153681735, -9.5425
5325, -1.1726488935853, -1.1285613950394, -9.6675
5326, -1.2555986401602, -1.0354845748865, -9.5425
5327, -1.3311800346478, -0.9363311195058, -9.6675
5328, -1.3989495353717, -0.83168290080017, -9.5425
5329, -1.4585094439541, -0.72215403612848, -9.6675
5330, -1.5095102391687, -0.60838728442085, -9.5425
5331, -1.5516526280694, -0.49105027421367, -9.6675
5332, -1.5846893023611, -0.37083158573985, -9.5425
5333, -1.6084263897025, -0.24843671006622, -9.6675
5334, -1.6227245914265, -0.12458390899139, -9.5425
5335, -1.6275, 2.5920538562821e-15, -9.6675
5336, -1.6227245914265, 0.1245839089914, -9.5425
5337, -1.6084263897025, 0.24843671006622, -9.6675
5338, -1.5846893023611, 0.37083158573986, -9.5425
5339, -1.5516526280694, 0.49105027421368, -9.6675
5340, -1.5095102391687, 0.60838728442085, -9.5425
5341, -1.4585094439541, 0.72215403612848, -9.6675
5342, -1.3989495353717, 0.83168290080017, -9.5425
5343, -1.3311800346478, 0.93633111950581, -9.6675
5344, -1.2555986401602, 1.0354845748865, -9.5425
5345, -1.1726488935853, 1.1285613950394, -9.6675
5346, -1.0828175770195, 1.2150153681735, -9.5425
5347, -0.9866318563482, 1.2943391479975, -9.6675
5348, -0.88465618762699, 1.3660672310297, -9.5425
5349, -0.77748900462871, 1.4297786883576, -9.6675
5350, -0.66575920699635, 1.4850996358156, -9.5425
5351, -0.55012246960984, 1.5317054280867, -9.6675
5352, -0.43125739482507, 1.56932256385, -9.5425
5353, -0.3098615301655, 1.5977302907949, -9.6675
5354, -0.1866472748359, 1.6167619010839, -9.5425
5355, -0.062337699080533, 1.6263057096602, -9.6675
5356, 0.062337699080533, 1.6263057096602, -9.5425
5357, 0.1866472748359, 1.6167619010839, -9.6675
5358, 0.3098615301655, 1.5977302907949, -9.5425
5359, 0.43125739482507, 1.56932256385, -9.6675
5360, 0.55012246960984, 1.5317054280867, -9.5425
5361, 0.66575920699635, 1.4850996358156, -9.6675
5362, 0.77748900462871, 1.4297786883576, -9.5425
5363, 0.88465618762699, 1.3660672310297, -9.6675
5364, 0.9866318563482, 1.2943391479975, -9.5425
5365, 1.0828175770195, 1.2150153681735, -9.6675
5366, 1.1726488935853, 1.1285613950394, -9.5425
5367, 1.2555986401602, 1.0354845748865, -9.6675
5368, 1.3311800346478, 0.9363311195058, -9.5425
5369, 1.3989495353717, 0.83168290080017, -9.6675
5370, 1.4585094439541, 0.72215403612848, -9.5425
5371, 1.5095102391687, 0.60838728442085, -9.6675
5372, 1.5516526280694, 0.49105027421368, -9.5425
5373, 1.5846893023611, 0.37083158573986, -9.6675
5374, 1.6084263897025, 0.24843671006622, -9.5425
5375, 1.6227245914265, 0.1245839089914, -9.6675
5376, 1.6227245914265, -0.12458390899139, -9.9175
5377, 1.6084263897025, -0.24843671006621, -9.7925
5378, 1.5846893023611, -0.37083158573985, -9.9175
5379, 1.5516526280694, -0.49105027421367, -9.7925
5380, 1.5095102391687, -0.60838728442085, -9.9175
5381, 1.4585094439541, -0.72215403612847, -9.7925
5382, 1.3989495353717, -0.83168290080017, -9.9175
5383, 1.3311800346478, -0.9363311195058, -9.7925
5384, 1.2555986401602, -1.0354845748865, -9.9175
5385, 1.1726488935853, -1.1285613950394, -9.7925
5386, 1.0828175770195, -1.2150153681735, -9.9175
5387, 0.98663185634821, -1.2943391479975, -9.7925
5388, 0.88465618762699, -1.3660672310297, -9.9175
5389, 0.77748900462871, -1.4297786883576, -9.7925
5390, 0.66575920699636, -1.4850996358156, -9.9175
5391, 0.55012246960984, -1.5317054280867, -9.7925
5392, 0.43125739482507, -1.56932256385, -9.9175
5393, 0.3098615301655, -1.5977302907949, -9.7925
5394, 0.1866472748359, -1.6167619010839, -9.9175
5395, 0.062337699080533, -1.6263057096602, -9.7925
5396, -0.062337699080532, -1.6263057096602, -9.9175
5397, -0.1866472748359, -1.6167619010839, -9.7925
5398, -0.3098615301655, -1.5977302907949, -9.9175
5399, -0.43125739482507, -1.56932256385, -9.7925
5400, -0.55012246960984, -1.5317054280867, -9.9175
5401, -0.66575920699636, -1.4850996358156, -9.7925
5402, -0.77748900462871, -1.4297786883576, -9.9175
5403, -0.88465618762699, -1.3660672310297, -9.7925
5404, -0.98663185634821, -1.2943391479975, -9.9175
5405, -1.0828175770195, -1.2150153681735, -9.7925
5406, -1.1726488935853, -1.1285613950394, -9.9175
5407, -1.2555986401602, -1.0354845748865, -9.7925
5408, -1.3311800346478, -0.9363311195058, -9.9175
5409, -1.3989495353717, -0.83168290080017, -9.7925
5410, -1.4585094439541, -0.72215403612848, -9.9175
5411, -1.5095102391687, -0.60838728442085, -9.7925
5412, -1.5516526280694, -0.49105027421367, -9.9175
5413, -1.5846893023611, -0.37083158573985, -9.7925
5414, -1.6084263897025, -0.24843671006622, -9.9175
5415, -1.6227245914265, -0.12458390899139, -9.7925
5416, -1.6275, 2.5920538562821e-15, -9.9175
5417, -1.6227245914265, 0.1245839089914, -9.7925
5418, -1.6084263897025, 0.24843671006622, -9.9175
5419, -1.5846893023611, 0.37083158573986, -9.7925
5420, -1.5516526280694, 0.49105027421368, -9.9175
5421, -1.5095102391687, 0.60838728442085, -9.7925
5422, -1.4585094439541, 0.72215403612848, -9.9175
5423, -1.3989495353717, 0.83168290080017, -9.7925
5424, -1.3311800346478, 0.93633111950581, -9.9175
5425, -1.2555986401602, 1.0354845748865, -9.7925
5426, -1.1726488935853, 1.1285613950394, -9.9175
5427, -1.0828175770195, 1.2150153681735, -9.7925
5428, -0.9866318563482, 1.2943391479975, -9.9175
5429, -0.88465618762699, 1.3660672310297, -9.7925
5430, -0.77748900462871, 1.4297786883576, -9.9175
5431, -0.66575920699635, 1.4850996358156, -9.7925
5432, -0.55012246960984, 1.5317054280867, -9.9175
5433, -0.43125739482507, 1.56932256385, -9.7925
5434, -0.3098615301655, 1.5977302907949, -9.9175
5435, -0.1866472748359, 1.6167619010839, -9.7925
5436, -0.062337699080533, 1.6263057096602, -9.9175
5437, 0.062337699080533, 1.6263057096602, -9.7925
5438, 0.1866472748359, 1.6167619010839, -9.9175
5439, 0.3098615301655, 1.5977302907949, -9.7925
5440, 0.43125739482507, 1.56932256385, -9.9175
5441, 0.55012246960984, 1.5317054280867, -9.7925
5442, 0.66575920699635, 1.4850996358156, -9.9175
5443, 0.77748900462871, 1.4297786883576, -9.7925
5444, 0.88465618762699, 1.3660672310297, -9.9175
5445, 0.9866318563482, 1.2943391479975, -9.7925
5446, 1.0828175770195, 1.2150153681735, -9.9175
5447, 1.1726488935853, 1.1285613950394, -9.7925
5448, 1.2555986401602, 1.0354845748865, -9.9175
5449, 1.3311800346478, 0.9363311195058, -9.7925
5450, 1.3989495353717, 0.83168290080017, -9.9175
5451, 1.4585094439541, 0.72215403612848, -9.7925
5452, 1.5095102391687, 0.60838728442085, -9.9175
5453, 1.5516526280694, 0.49105027421368, -9.7925
5454, 1.5846893023611, 0.37083158573986, -9.9175
5455, 1.6084263897025, 0.24843671006622, -9.7925
5456, 1.6227245914265, 0.1245839089914, -9.9175
5457, 1.6227245914265, -0.12458390899139, -10.1675
5458, 1.6084263897025, -0.24843671006621, -10.0425
5459, 1.5846893023611, -0.37083158573985, -10.1675
5460, 1.5516526280694, -0.49105027421367, -10.0425
5461, 1.5095102391687, -0.60838728442085, -10.1675
5462, 1.4585094439541, -0.72215403612847, -10.0425
5463, 1.3989495353717, -0.83168290080017, -10.1675
5464, 1.3311800346478, -0.9363311195058, -10.0425
5465, 1.2555986401602, -1.0354845748865, -10.1675
5466, 1.1726488935853, -1.1285613950394, -10.0425
5467, 1.0828175770195, -1.2150153681735, -10.1675
5468, 0.98663185634821, -1.2943391479975, -10.0425
5469, 0.88465618762699, -1.3660672310297, -10.1675
5470, 0.77748900462871, -1.4297786883576, -10.0425
5471, 0.66575920699636, -1.4850996358156, -10.1675
5472, 0.55012246960984, -1.5317054280867, -10.0425
5473, 0.43125739482507, -1.56932256385, -10.1675
5474, 0.3098615301655, -1.5977302907949, -10.0425
5475, 0.1866472748359, -1.6167619010839, -10.1675
5476, 0.062337699080533, -1.6263057096602, -10.0425
5477, -0.062337699080532, -1.6263057096602, -10.1675
5478, -0.1866472748359, -1.6167619010839, -10.0425
5479, -0.3098615301655, -1.5977302907949, -10.1675
5480, -0.43125739482507, -1.56932256385, -10.0425
5481, -0.55012246960984, -1.5317054280867, -10.1675
5482, -0.66575920699636, -1.4850996358156, -10.0425
5483, -0.77748900462871, -1.4297786883576, -10.1675
5484, -0.88465618762699, -1.3660672310297, -10.0425
5485, -0.98663185634821, -1.2943391479975, -10.1675
5486, -1.0828175770195, -1.2150153681735, -10.0425
5487, -1.1726488935853, -1.1285613950394, -10.1675
5488, -1.2555986401602, -1.0354845748865, -10.0425
5489, -1.3311800346478, -0.9363311195058, -10.1675
5490, -1.3989495353717, -0.83168290080017, -10.0425
5491, -1.4585094439541, -0.72215403612848, -10.1675
5492, -1.5095102391687, -0.60838728442085, -10.0425
5493, -1.5516526280694, -0.49105027421367, -10.1675
5494, -1.5846893023611, -0.37083158573985, -10.0425
5495, -1.6084263897025, -0.24843671006622, -10.1675
5496, -1.6227245914265, -0.12458390899139, -10.0425
5497, -1.6275, 2.5920538562821e-15, -10.1675
5498, -1.6227245914265, 0.1245839089914, -10.0425
5499, -1.6084263897025, 0.24843671006622, -10.1675
5500, -1.5846893023611, 0.37083158573986, -10.0425
5501, -1.5516526280694, 0.49105027421368, -10.1675
5502, -1.5095102391687, 0.60838728442085, -10.0425
5503, -1.4585094439541, 0.72215403612848, -10.1675
5504, -1.3989495353717, 0.83168290080017, -10.0425
5505, -1.3311800346478, 0.93633111950581, -10.1675
5506, -1.2555986401602, 1.0354845748865, -10.0425
5507, -1.1726488935853, 1.1285613950394, -10.1675
5508, -1.0828175770195, 1.2150153681735, -10.0425
5509, -0.9866318563482, 1.2943391479975, -10.1675
5510, -0.88465618762699, 1.3660672310297, -10.0425
5511, -0.77748900462871, 1.4297786883576, -10.1675
5512, -0.66575920699635, 1.4850996358156, -10.0425
5513, -0.55012246960984, 1.5317054280867, -10.1675
5514, -0.43125739482507, 1.56932256385, -10.0425
5515, -0.3098615301655, 1.5977302907949, -10.1675
5516, -0.1866472748359, 1.6167619010839, -10.0425
5517, -0.062337699080535, 1.6263057096602, -10.1675
5518, 0.062337699080533, 1.6263057096602, -10.0425
5519, 0.1866472748359, 1.6167619010839, -10.1675
5520, 0.3098615301655, 1.5977302907949, -10.0425
5521, 0.43125739482507, 1.56932256385, -10.1675
5522, 0.55012246960984, 1.5317054280867, -10.0425
5523, 0.66575920699635, 1.4850996358156, -10.1675
5524, 0.77748900462871, 1.4297786883576, -10.0425
5525, 0.88465618762699, 1.3660672310297, -10.1675
5526, 0.9866318563482, 1.2943391479975, -10.0425
5527, 1.0828175770195, 1.2150153681735, -10.1675
5528, 1.1726488935853, 1.1285613950394, -10.0425
5529, 1.2555986401602, 1.0354845748865, -10.1675
5530, 1.3311800346478, 0.9363311195058, -10.0425
5531, 1.3989495353717, 0.83168290080017, -10.1675
5532, 1.4585094439541, 0.72215403612848, -10.0425
5533, 1.5095102391687, 0.60838728442085, -10.1675
5534, 1.5516526280694, 0.49105027421368, -10.0425
5535, 1.5846893023611, 0.37083158573986, -10.1675
5536, 1.6084263897025, 0.24843671006622, -10.0425
5537, 1.6227245914265, 0.1245839089914, -10.1675
5538, 1.6227245914265, -0.12458390899139, -10.4175
5539, 1.6084263897025, -0.24843671006621, -10.2925
5540, 1.5846893023611, -0.37083158573985, -10.4175
5541, 1.5516526280694, -0.49105027421367, -10.2925
5542, 1.5095102391687, -0.60838728442085, -10.4175
5543, 1.4585094439541, -0.72215403612847, -10.2925
5544, 1.3989495353717, -0.83168290080017, -10.4175
5545, 1.3311800346478, -0.9363311195058, -10.2925
5546, 1.2555986401602, -1.0354845748865, -10.4175
5547, 1.1726488935853, -1.1285613950394, -10.2925
5548, 1.0828175770195, -1.2150153681735, -10.4175
5549, 0.98663185634821, -1.2943391479975, -10.2925
5550, 0.88465618762699, -1.3660672310297, -10.4175
5551, 0.77748900462871, -1.4297786883576, -10.2925
5552, 0.66575920699636, -1.4850996358156, -10.4175
5553, 0.55012246960984, -1.5317054280867, -10.2925
5554, 0.43125739482507, -1.56932256385, -10.4175
5555, 0.3098615301655, -1.5977302907949, -10.2925
5556, 0.1866472748359, -1.6167619010839, -10.4175
5557, 0.062337699080533, -1.6263057096602, -10.2925
5558, -0.062337699080533, -1.6263057096602, -10.4175
5559, -0.1866472748359, -1.6167619010839, -10.2925
5560, -0.3098615301655, -1.5977302907949, -10.4175
5561, -0.43125739482507, -1.56932256385, -10.2925
5562, -0.55012246960984, -1.5317054280867, -10.4175
5563, -0.66575920699636, -1.4850996358156, -10.2925
5564, -0.77748900462871, -1.4297786883576, -10.4175
5565, -0.88465618762699, -1.3660672310297, -10.2925
5566, -0.98663185634821, -1.2943391479975, -10.4175
5567, -1.0828175770195, -1.2150153681735, -10.2925
5568, -1.1726488935853, -1.1285613950394, -10.4175
5569, -1.2555986401602, -1.0354845748865, -10.2925
5570, -1.3311800346478, -0.9363311195058, -10.4175
5571, -1.3989495353717, -0.83168290080017, -10.2925
5572, -1.4585094439541, -0.72215403612848, -10.4175
5573, -1.5095102391687, -0.60838728442085, -10.2925
5574, -1.5516526280694, -0.49105027421367, -10.4175
5575, -1.5846893023611, -0.37083158573985, -10.2925
5576, -1.6084263897025, -0.24843671006622, -10.4175
5577, -1.6227245914265, -0.12458390899139, -10.2925
5578, -1.6275, 2.5920538562821e-15, -10.4175
5579, -1.6227245914265, 0.1245839089914, -10.2925
5580, -1.6084263897025, 0.24843671006622, -10.4175
5581, -1.5846893023611, 0.37083158573986, -10.2925
5582, -1.5516526280694, 0.49105027421368, -10.4175
5583, -1.5095102391687, 0.60838728442085, -10.2925
5584, -1.4585094439541, 0.72215403612848, -10.4175
5585, -1.3989495353717, 0.83168290080017, -10.2925
5586, -1.3311800346478, 0.93633111950581, -10.4175
5587, -1.2555986401602, 1.0354845748865, -10.2925
5588, -1.1726488935853, 1.1285613950394, -10.4175
5589, -1.0828175770195, 1.2150153681735, -10.2925
5590, -0.98663185634821, 1.2943391479975, -10.4175
5591, -0.88465618762699, 1.3660672310297, -10.2925
5592, -0.77748900462871, 1.4297786883576, -10.4175
5593, -0.66575920699635, 1.4850996358156, -10.2925
5594, -0.55012246960984, 1.5317054280867, -10.4175
5595, -0.43125739482507, 1.56932256385, -10.2925
5596, -0.3098615301655, 1.5977302907949, -10.4175
5597, -0.1866472748359, 1.6167619010839, -10.2925
5598, -0.062337699080533, 1.6263057096602, -10.4175
5599, 0.062337699080533, 1.6263057096602, -10.2925
5600, 0.1866472748359, 1.6167619010839, -10.4175
5601, 0.3098615301655, 1.5977302907949, -10.2925
5602, 0.43125739482507, 1.56932256385, -10.4175
5603, 0.55012246960984, 1.5317054280867, -10.2925
5604, 0.66575920699635, 1.4850996358156, -10.4175
5605, 0.77748900462871, 1.4297786883576, -10.2925
5606, 0.88465618762699, 1.3660672310297, -10.4175
5607, 0.9866318563482, 1.2943391479975, -10.2925
5608, 1.0828175770195, 1.2150153681735, -10.4175
5609, 1.1726488935853, 1.1285613950394, -10.2925
5610, 1.2555986401602, 1.0354845748865, -10.4175
5611, 1.3311800346478, 0.9363311195058, -10.2925
5612, 1.3989495353717, 0.83168290080017, -10.4175
5613, 1.4585094439541, 0.72215403612848, -10.2925
5614, 1.5095102391687, 0.60838728442085, -10.4175
5615, 1.5516526280694, 0.49105027421367, -10.2925
5616, 1.5846893023611, 0.37083158573986, -10.4175
5617, 1.6084263897025, 0.24843671006622, -10.2925
5618, 1.6227245914265, 0.1245839089914, -10.4175
5619, 1.6084263897025, -0.24843671006621, -10.5425
5620, 1.5516526280694, -0.49105027421367, -10.5425
5621, 1.4585094439541, -0.72215403612847, -10.5425
5622, 1.3311800346478, -0.9363311195058, -10.5425
5623, 1.1726488935853, -1.1285613950394, -10.5425
5624, 0.98663185634821, -1.2943391479975, -10.5425
5625, 0.77748900462871, -1.4297786883576, -10.5425
5626, 0.55012246960984, -1.5317054280867, -10.5425
5627, 0.3098615301655, -1.5977302907949, -10.5425
5628, 0.062337699080533, -1.6263057096602, -10.5425
5629, -0.1866472748359, -1.6167619010839, -10.5425
5630, -0.43125739482507, -1.56932256385, -10.5425
5631, -0.66575920699636, -1.4850996358156, -10.5425
5632, -0.88465618762699, -1.3660672310297, -10.5425
5633, -1.0828175770195, -1.2150153681735, -10.5425
5634, -1.2555986401602, -1.0354845748865, -10.5425
5635, -1.3989495353717, -0.83168290080017, -10.5425
5636, -1.5095102391687, -0.60838728442085, -10.5425
5637, -1.5846893023611, -0.37083158573985, -10.5425
5638, -1.6227245914265, -0.12458390899139, -10.5425
5639, -1.6227245914265, 0.1245839089914, -10.5425
5640, -1.5846893023611, 0.37083158573986, -10.5425
5641, -1.5095102391687, 0.60838728442085, -10.5425
5642, -1.3989495353717, 0.83168290080017, -10.5425
5643, -1.2555986401602, 1.0354845748865, -10.5425
5644, -1.0828175770195, 1.2150153681735, -10.5425
5645, -0.88465618762699, 1.3660672310297, -10.5425
5646, -0.66575920699635, 1.4850996358156, -10.5425
5647, -0.43125739482507, 1.56932256385, -10.5425
5648, -0.1866472748359, 1.6167619010839, -10.5425
5649, 0.062337699080533, 1.6263057096602, -10.5425
5650, 0.3098615301655, 1.5977302907949, -10.5425
5651, 0.55012246960984, 1.5317054280867, -10.5425
5652, 0.77748900462871, 1.4297786883576, -10.5425
5653, 0.9866318563482, 1.2943391479975, -10.5425
5654, 1.1726488935853, 1.1285613950394, -10.5425
5655, 1.3311800346478, 0.9363311195058, -10.5425
5656, 1.4585094439541, 0.72215403612848, -10.5425
5657, 1.5516526280694, 0.49105027421367, -10.5425
5658, 1.6084263897025, 0.24843671006622, -10.5425
******* E L E M E N T S *************
*ELEMENT, type=T3D2, ELSET=Line2
1, 1, 1928
2, 7, 1929
3, 8, 1930
4, 9, 1931
5, 10, 1932
6, 11, 1933
7, 12, 1934
8, 13, 1935
9, 14, 1936
10, 15, 1937
11, 16, 1938
12, 17, 1939
13, 18, 1940
14, 19, 1941
15, 20, 1942
16, 21, 1943
17, 22, 1944
18, 23, 1945
19, 24, 1946
20, 25, 1947
21, 26, 1948
22, 27, 1949
23, 28, 1950
24, 29, 1951
25, 30, 1952
26, 31, 1953
27, 32, 1954
28, 33, 1955
29, 34, 1956
30, 35, 1957
31, 36, 1958
32, 37, 1959
33, 38, 1960
34, 39, 1961
35, 40, 1962
36, 41, 1963
37, 42, 1964
38, 43, 1965
39, 44, 1966
40, 45, 1967
41, 46, 1968
42, 1, 1969
43, 47, 1970
44, 48, 1971
45, 49, 1972
46, 50, 1973
47, 51, 1974
48, 52, 1975
49, 53, 1976
50, 54, 1977
51, 55, 1978
52, 56, 1979
53, 57, 1980
54, 58, 1981
55, 59, 1982
56, 60, 1983
57, 61, 1984
58, 62, 1985
59, 63, 1986
60, 64, 1987
61, 65, 1988
62, 66, 1989
63, 67, 1990
64, 68, 1991
65, 69, 1992
66, 70, 1993
67, 71, 1994
68, 72, 1995
69, 73, 1996
70, 74, 1997
71, 75, 1998
72, 76, 1999
73, 77, 2000
74, 78, 2001
75, 79, 2002
76, 2, 2003
77, 80, 2004
78, 81, 2005
79, 82, 2006
80, 83, 2007
81, 84, 2008
82, 85, 2009
83, 86, 2010
84, 87, 2011
85, 88, 2012
86, 89, 2013
87, 90, 2014
88, 91, 2015
89, 92, 2016
90, 93, 2017
91, 94, 2018
92, 95, 2019
93, 96, 2020
94, 97, 2021
95, 98, 2022
96, 99, 2023
97, 100, 2024
98, 101, 2025
99, 102, 2026
100, 103, 2027
101, 104, 2028
102, 105, 2029
103, 106, 2030
104, 107, 2031
105, 108, 2032
106, 109, 2033
107, 110, 2034
108, 111, 2035
109, 112, 2036
110, 113, 2037
111, 114, 2038
112, 115, 2039
113, 116, 2040
114, 117, 2041
115, 118, 2042
116, 119, 2043
117, 3, 2044
118, 120, 2045
119, 121, 2046
120, 122, 2047
121, 123, 2048
122, 124, 2049
123, 125, 2050
124, 126, 2051
125, 127, 2052
126, 128, 2053
127, 129, 2054
128, 130, 2055
129, 131, 2056
130, 132, 2057
131, 133, 2058
132, 134, 2059
133, 135, 2060
134, 136, 2061
135, 137, 2062
136, 138, 2063
137, 139, 2064
138, 140, 2065
139, 141, 2066
140, 142, 2067
141, 143, 2068
142, 144, 2069
143, 145, 2070
144, 146, 2071
145, 147, 2072
146, 148, 2073
147, 149, 2074
148, 150, 2075
149, 151, 2076
150, 152, 2077
151, 153, 2078
152, 154, 2079
153, 155, 2080
154, 156, 2081
155, 157, 2082
156, 158, 2083
157, 159, 2084
158, 3, 2085
159, 160, 2086
160, 4, 2087
161, 161, 2088
162, 162, 2089
163, 163, 2090
164, 164, 2091
165, 165, 2092
166, 166, 2093
167, 167, 2094
168, 168, 2095
169, 169, 2096
170, 170, 2097
171, 171, 2098
172, 172, 2099
173, 173, 2100
174, 174, 2101
175, 175, 2102
176, 176, 2103
177, 177, 2104
178, 178, 2105
179, 179, 2106
180, 180, 2107
181, 181, 2108
182, 182, 2109
183, 183, 2110
184, 184, 2111
185, 185, 2112
186, 186, 2113
187, 187, 2114
188, 188, 2115
189, 189, 2116
190, 190, 2117
191, 191, 2118
192, 192, 2119
193, 193, 2120
194, 194, 2121
195, 195, 2122
196, 196, 2123
197, 197, 2124
198, 198, 2125
199, 199, 2126
200, 200, 2127
201, 5, 2128
202, 201, 2129
203, 202, 2130
204, 203, 2131
205, 204, 2132
206, 205, 2133
207, 206, 2134
208, 207, 2135
209, 208, 2136
210, 209, 2137
211, 210, 2138
212, 211, 2139
213, 212, 2140
214, 213, 2141
215, 214, 2142
216, 215, 2143
217, 216, 2144
218, 217, 2145
219, 218, 2146
220, 219, 2147
221, 220, 2148
222, 221, 2149
223, 222, 2150
224, 223, 2151
225, 224, 2152
226, 225, 2153
227, 226, 2154
228, 227, 2155
229, 228, 2156
230, 229, 2157
231, 230, 2158
232, 231, 2159
233, 232, 2160
234, 233, 2161
235, 234, 2162
236, 235, 2163
237, 236, 2164
238, 237, 2165
239, 238, 2166
240, 239, 2167
241, 240, 2168
242, 5, 2169
243, 241, 2170
244, 242, 2171
245, 243, 2172
246, 244, 2173
247, 245, 2174
248, 246, 2175
249, 247, 2176
250, 6, 2177
251, 248, 2178
252, 249, 2179
253, 250, 2180
254, 251, 2181
255, 252, 2182
256, 253, 2183
257, 254, 2184
258, 255, 2185
259, 256, 2186
260, 257, 2187
261, 258, 2188
262, 259, 2189
263, 260, 2190
264, 261, 2191
265, 262, 2192
266, 263, 2193
267, 264, 2194
268, 265, 2195
269, 266, 2196
270, 267, 2197
271, 268, 2198
272, 269, 2199
273, 270, 2200
274, 271, 2201
275, 272, 2202
276, 273, 2203
277, 274, 2204
278, 275, 2205
279, 276, 2206
280, 277, 2207
281, 278, 2208
282, 279, 2209
283, 280, 2210
284, 281, 2211
285, 282, 2212
286, 283, 2213
287, 284, 2214
288, 285, 2215
289, 286, 2216
290, 287, 2217
*ELEMENT, type=CPS8, ELSET=Surface2
291, 1, 47, 288, 46, 1969, 2218, 2219, 1968
292, 46, 288, 289, 45, 2219, 2220, 2221, 1967
293, 45, 289, 290, 44, 2221, 2222, 2223, 1966
294, 44, 290, 291, 43, 2223, 2224, 2225, 1965
295, 43, 291, 292, 42, 2225, 2226, 2227, 1964
296, 42, 292, 293, 41, 2227, 2228, 2229, 1963
297, 41, 293, 294, 40, 2229, 2230, 2231, 1962
298, 40, 294, 295, 39, 2231, 2232, 2233, 1961
299, 39, 295, 296, 38, 2233, 2234, 2235, 1960
300, 38, 296, 297, 37, 2235, 2236, 2237, 1959
301, 37, 297, 298, 36, 2237, 2238, 2239, 1958
302, 36, 298, 299, 35, 2239, 2240, 2241, 1957
303, 35, 299, 300, 34, 2241, 2242, 2243, 1956
304, 34, 300, 301, 33, 2243, 2244, 2245, 1955
305, 33, 301, 302, 32, 2245, 2246, 2247, 1954
306, 32, 302, 303, 31, 2247, 2248, 2249, 1953
307, 31, 303, 304, 30, 2249, 2250, 2251, 1952
308, 30, 304, 305, 29, 2251, 2252, 2253, 1951
309, 29, 305, 306, 28, 2253, 2254, 2255, 1950
310, 28, 306, 307, 27, 2255, 2256, 2257, 1949
311, 27, 307, 308, 26, 2257, 2258, 2259, 1948
312, 26, 308, 309, 25, 2259, 2260, 2261, 1947
313, 25, 309, 310, 24, 2261, 2262, 2263, 1946
314, 24, 310, 311, 23, 2263, 2264, 2265, 1945
315, 23, 311, 312, 22, 2265, 2266, 2267, 1944
316, 22, 312, 313, 21, 2267, 2268, 2269, 1943
317, 21, 313, 314, 20, 2269, 2270, 2271, 1942
318, 20, 314, 315, 19, 2271, 2272, 2273, 1941
319, 19, 315, 316, 18, 2273, 2274, 2275, 1940
320, 18, 316, 317, 17, 2275, 2276, 2277, 1939
321, 17, 317, 318, 16, 2277, 2278, 2279, 1938
322, 16, 318, 319, 15, 2279, 2280, 2281, 1937
323, 15, 319, 320, 14, 2281, 2282, 2283, 1936
324, 14, 320, 321, 13, 2283, 2284, 2285, 1935
325, 13, 321, 322, 12, 2285, 2286, 2287, 1934
326, 12, 322, 323, 11, 2287, 2288, 2289, 1933
327, 11, 323, 324, 10, 2289, 2290, 2291, 1932
328, 10, 324, 325, 9, 2291, 2292, 2293, 1931
329, 9, 325, 326, 8, 2293, 2294, 2295, 1930
330, 8, 326, 327, 7, 2295, 2296, 2297, 1929
331, 7, 327, 47, 1, 2297, 2298, 1969, 1928
332, 47, 48, 328, 288, 1970, 2299, 2300, 2218
333, 288, 328, 329, 289, 2300, 2301, 2302, 2220
334, 289, 329, 330, 290, 2302, 2303, 2304, 2222
335, 290, 330, 331, 291, 2304, 2305, 2306, 2224
336, 291, 331, 332, 292, 2306, 2307, 2308, 2226
337, 292, 332, 333, 293, 2308, 2309, 2310, 2228
338, 293, 333, 334, 294, 2310, 2311, 2312, 2230
339, 294, 334, 335, 295, 2312, 2313, 2314, 2232
340, 295, 335, 336, 296, 2314, 2315, 2316, 2234
341, 296, 336, 337, 297, 2316, 2317, 2318, 2236
342, 297, 337, 338, 298, 2318, 2319, 2320, 2238
343, 298, 338, 339, 299, 2320, 2321, 2322, 2240
344, 299, 339, 340, 300, 2322, 2323, 2324, 2242
345, 300, 340, 341, 301, 2324, 2325, 2326, 2244
346, 301, 341, 342, 302, 2326, 2327, 2328, 2246
347, 302, 342, 343, 303, 2328, 2329, 2330, 2248
348, 303, 343, 344, 304, 2330, 2331, 2332, 2250
349, 304, 344, 345, 305, 2332, 2333, 2334, 2252
350, 305, 345, 346, 306, 2334, 2335, 2336, 2254
351, 306, 346, 347, 307, 2336, 2337, 2338, 2256
352, 307, 347, 348, 308, 2338, 2339, 2340, 2258
353, 308, 348, 349, 309, 2340, 2341, 2342, 2260
354, 309, 349, 350, 310, 2342, 2343, 2344, 2262
355, 310, 350, 351, 311, 2344, 2345, 2346, 2264
356, 311, 351, 352, 312, 2346, 2347, 2348, 2266
357, 312, 352, 353, 313, 2348, 2349, 2350, 2268
358, 313, 353, 354, 314, 2350, 2351, 2352, 2270
359, 314, 354, 355, 315, 2352, 2353, 2354, 2272
360, 315, 355, 356, 316, 2354, 2355, 2356, 2274
361, 316, 356, 357, 317, 2356, 2357, 2358, 2276
362, 317, 357, 358, 318, 2358, 2359, 2360, 2278
363, 318, 358, 359, 319, 2360, 2361, 2362, 2280
364, 319, 359, 360, 320, 2362, 2363, 2364, 2282
365, 320, 360, 361, 321, 2364, 2365, 2366, 2284
366, 321, 361, 362, 322, 2366, 2367, 2368, 2286
367, 322, 362, 363, 323, 2368, 2369, 2370, 2288
368, 323, 363, 364, 324, 2370, 2371, 2372, 2290
369, 324, 364, 365, 325, 2372, 2373, 2374, 2292
370, 325, 365, 366, 326, 2374, 2375, 2376, 2294
371, 326, 366, 367, 327, 2376, 2377, 2378, 2296
372, 327, 367, 48, 47, 2378, 2379, 1970, 2298
373, 48, 49, 368, 328, 1971, 2380, 2381, 2299
374, 328, 368, 369, 329, 2381, 2382, 2383, 2301
375, 329, 369, 370, 330, 2383, 2384, 2385, 2303
376, 330, 370, 371, 331, 2385, 2386, 2387, 2305
377, 331, 371, 372, 332, 2387, 2388, 2389, 2307
378, 332, 372, 373, 333, 2389, 2390, 2391, 2309
379, 333, 373, 374, 334, 2391, 2392, 2393, 2311
380, 334, 374, 375, 335, 2393, 2394, 2395, 2313
381, 335, 375, 376, 336, 2395, 2396, 2397, 2315
382, 336, 376, 377, 337, 2397, 2398, 2399, 2317
383, 337, 377, 378, 338, 2399, 2400, 2401, 2319
384, 338, 378, 379, 339, 2401, 2402, 2403, 2321
385, 339, 379, 380, 340, 2403, 2404, 2405, 2323
386, 340, 380, 381, 341, 2405, 2406, 2407, 2325
387, 341, 381, 382, 342, 2407, 2408, 2409, 2327
388, 342, 382, 383, 343, 2409, 2410, 2411, 2329
389, 343, 383, 384, 344, 2411, 2412, 2413, 2331
390, 344, 384, 385, 345, 2413, 2414, 2415, 2333
391, 345, 385, 386, 346, 2415, 2416, 2417, 2335
392, 346, 386, 387, 347, 2417, 2418, 2419, 2337
393, 347, 387, 388, 348, 2419, 2420, 2421, 2339
394, 348, 388, 389, 349, 2421, 2422, 2423, 2341
395, 349, 389, 390, 350, 2423, 2424, 2425, 2343
396, 350, 390, 391, 351, 2425, 2426, 2427, 2345
397, 351, 391, 392, 352, 2427, 2428, 2429, 2347
398, 352, 392, 393, 353, 2429, 2430, 2431, 2349
399, 353, 393, 394, 354, 2431, 2432, 2433, 2351
400, 354, 394, 395, 355, 2433, 2434, 2435, 2353
401, 355, 395, 396, 356, 2435, 2436, 2437, 2355
402, 356, 396, 397, 357, 2437, 2438, 2439, 2357
403, 357, 397, 398, 358, 2439, 2440, 2441, 2359
404, 358, 398, 399, 359, 2441, 2442, 2443, 2361
405, 359, 399, 400, 360, 2443, 2444, 2445, 2363
406, 360, 400, 401, 361, 2445, 2446, 2447, 2365
407, 361, 401, 402, 362, 2447, 2448, 2449, 2367
408, 362, 402, 403, 363, 2449, 2450, 2451, 2369
409, 363, 403, 404, 364, 2451, 2452, 2453, 2371
410, 364, 404, 405, 365, 2453, 2454, 2455, 2373
411, 365, 405, 406, 366, 2455, 2456, 2457, 2375
412, 366, 406, 407, 367, 2457, 2458, 2459, 2377
413, 367, 407, 49, 48, 2459, 2460, 1971, 2379
414, 49, 50, 408, 368, 1972, 2461, 2462, 2380
415, 368, 408, 409, 369, 2462, 2463, 2464, 2382
416, 369, 409, 410, 370, 2464, 2465, 2466, 2384
417, 370, 410, 411, 371, 2466, 2467, 2468, 2386
418, 371, 411, 412, 372, 2468, 2469, 2470, 2388
419, 372, 412, 413, 373, 2470, 2471, 2472, 2390
420, 373, 413, 414, 374, 2472, 2473, 2474, 2392
421, 374, 414, 415, 375, 2474, 2475, 2476, 2394
422, 375, 415, 416, 376, 2476, 2477, 2478, 2396
423, 376, 416, 417, 377, 2478, 2479, 2480, 2398
424, 377, 417, 418, 378, 2480, 2481, 2482, 2400
425, 378, 418, 419, 379, 2482, 2483, 2484, 2402
426, 379, 419, 420, 380, 2484, 2485, 2486, 2404
427, 380, 420, 421, 381, 2486, 2487, 2488, 2406
428, 381, 421, 422, 382, 2488, 2489, 2490, 2408
429, 382, 422, 423, 383, 2490, 2491, 2492, 2410
430, 383, 423, 424, 384, 2492, 2493, 2494, 2412
431, 384, 424, 425, 385, 2494, 2495, 2496, 2414
432, 385, 425, 426, 386, 2496, 2497, 2498, 2416
433, 386, 426, 427, 387, 2498, 2499, 2500, 2418
434, 387, 427, 428, 388, 2500, 2501, 2502, 2420
435, 388, 428, 429, 389, 2502, 2503, 2504, 2422
436, 389, 429, 430, 390, 2504, 2505, 2506, 2424
437, 390, 430, 431, 391, 2506, 2507, 2508, 2426
438, 391, 431, 432, 392, 2508, 2509, 2510, 2428
439, 392, 432, 433, 393, 2510, 2511, 2512, 2430
440, 393, 433, 434, 394, 2512, 2513, 2514, 2432
441, 394, 434, 435, 395, 2514, 2515, 2516, 2434
442, 395, 435, 436, 396, 2516, 2517, 2518, 2436
443, 396, 436, 437, 397, 2518, 2519, 2520, 2438
444, 397, 437, 438, 398, 2520, 2521, 2522, 2440
445, 398, 438, 439, 399, 2522, 2523, 2524, 2442
446, 399, 439, 440, 400, 2524, 2525, 2526, 2444
447, 400, 440, 441, 401, 2526, 2527, 2528, 2446
448, 401, 441, 442, 402, 2528, 2529, 2530, 2448
449, 402, 442, 443, 403, 2530, 2531, 2532, 2450
450, 403, 443, 444, 404, 2532, 2533, 2534, 2452
451, 404, 444, 445, 405, 2534, 2535, 2536, 2454
452, 405, 445, 446, 406, 2536, 2537, 2538, 2456
453, 406, 446, 447, 407, 2538, 2539, 2540, 2458
454, 407, 447, 50, 49, 2540, 2541, 1972, 2460
455, 50, 51, 448, 408, 1973, 2542, 2543, 2461
456, 408, 448, 449, 409, 2543, 2544, 2545, 2463
457, 409, 449, 450, 410, 2545, 2546, 2547, 2465
458, 410, 450, 451, 411, 2547, 2548, 2549, 2467
459, 411, 451, 452, 412, 2549, 2550, 2551, 2469
460, 412, 452, 453, 413, 2551, 2552, 2553, 2471
461, 413, 453, 454, 414, 2553, 2554, 2555, 2473
462, 414, 454, 455, 415, 2555, 2556, 2557, 2475
463, 415, 455, 456, 416, 2557, 2558, 2559, 2477
464, 416, 456, 457, 417, 2559, 2560, 2561, 2479
465, 417, 457, 458, 418, 2561, 2562, 2563, 2481
466, 418, 458, 459, 419, 2563, 2564, 2565, 2483
467, 419, 459, 460, 420, 2565, 2566, 2567, 2485
468, 420, 460, 461, 421, 2567, 2568, 2569, 2487
469, 421, 461, 462, 422, 2569, 2570, 2571, 2489
470, 422, 462, 463, 423, 2571, 2572, 2573, 2491
471, 423, 463, 464, 424, 2573, 2574, 2575, 2493
472, 424, 464, 465, 425, 2575, 2576, 2577, 2495
473, 425, 465, 466, 426, 2577, 2578, 2579, 2497
474, 426, 466, 467, 427, 2579, 2580, 2581, 2499
475, 427, 467, 468, 428, 2581, 2582, 2583, 2501
476, 428, 468, 469, 429, 2583, 2584, 2585, 2503
477, 429, 469, 470, 430, 2585, 2586, 2587, 2505
478, 430, 470, 471, 431, 2587, 2588, 2589, 2507
479, 431, 471, 472, 432, 2589, 2590, 2591, 2509
480, 432, 472, 473, 433, 2591, 2592, 2593, 2511
481, 433, 473, 474, 434, 2593, 2594, 2595, 2513
482, 434, 474, 475, 435, 2595, 2596, 2597, 2515
483, 435, 475, 476, 436, 2597, 2598, 2599, 2517
484, 436, 476, 477, 437, 2599, 2600, 2601, 2519
485, 437, 477, 478, 438, 2601, 2602, 2603, 2521
486, 438, 478, 479, 439, 2603, 2604, 2605, 2523
487, 439, 479, 480, 440, 2605, 2606, 2607, 2525
488, 440, 480, 481, 441, 2607, 2608, 2609, 2527
489, 441, 481, 482, 442, 2609, 2610, 2611, 2529
490, 442, 482, 483, 443, 2611, 2612, 2613, 2531
491, 443, 483, 484, 444, 2613, 2614, 2615, 2533
492, 444, 484, 485, 445, 2615, 2616, 2617, 2535
493, 445, 485, 486, 446, 2617, 2618, 2619, 2537
494, 446, 486, 487, 447, 2619, 2620, 2621, 2539
495, 447, 487, 51, 50, 2621, 2622, 1973, 2541
496, 51, 52, 488, 448, 1974, 2623, 2624, 2542
497, 448, 488, 489, 449, 2624, 2625, 2626, 2544
498, 449, 489, 490, 450, 2626, 2627, 2628, 2546
499, 450, 490, 491, 451, 2628, 2629, 2630, 2548
500, 451, 491, 492, 452, 2630, 2631, 2632, 2550
501, 452, 492, 493, 453, 2632, 2633, 2634, 2552
502, 453, 493, 494, 454, 2634, 2635, 2636, 2554
503, 454, 494, 495, 455, 2636, 2637, 2638, 2556
504, 455, 495, 496, 456, 2638, 2639, 2640, 2558
505, 456, 496, 497, 457, 2640, 2641, 2642, 2560
506, 457, 497, 498, 458, 2642, 2643, 2644, 2562
507, 458, 498, 499, 459, 2644, 2645, 2646, 2564
508, 459, 499, 500, 460, 2646, 2647, 2648, 2566
509, 460, 500, 501, 461, 2648, 2649, 2650, 2568
510, 461, 501, 502, 462, 2650, 2651, 2652, 2570
511, 462, 502, 503, 463, 2652, 2653, 2654, 2572
512, 463, 503, 504, 464, 2654, 2655, 2656, 2574
513, 464, 504, 505, 465, 2656, 2657, 2658, 2576
514, 465, 505, 506, 466, 2658, 2659, 2660, 2578
515, 466, 506, 507, 467, 2660, 2661, 2662, 2580
516, 467, 507, 508, 468, 2662, 2663, 2664, 2582
517, 468, 508, 509, 469, 2664, 2665, 2666, 2584
518, 469, 509, 510, 470, 2666, 2667, 2668, 2586
519, 470, 510, 511, 471, 2668, 2669, 2670, 2588
520, 471, 511, 512, 472, 2670, 2671, 2672, 2590
521, 472, 512, 513, 473, 2672, 2673, 2674, 2592
522, 473, 513, 514, 474, 2674, 2675, 2676, 2594
523, 474, 514, 515, 475, 2676, 2677, 2678, 2596
524, 475, 515, 516, 476, 2678, 2679, 2680, 2598
525, 476, 516, 517, 477, 2680, 2681, 2682, 2600
526, 477, 517, 518, 478, 2682, 2683, 2684, 2602
527, 478, 518, 519, 479, 2684, 2685, 2686, 2604
528, 479, 519, 520, 480, 2686, 2687, 2688, 2606
529, 480, 520, 521, 481, 2688, 2689, 2690, 2608
530, 481, 521, 522, 482, 2690, 2691, 2692, 2610
531, 482, 522, 523, 483, 2692, 2693, 2694, 2612
532, 483, 523, 524, 484, 2694, 2695, 2696, 2614
533, 484, 524, 525, 485, 2696, 2697, 2698, 2616
534, 485, 525, 526, 486, 2698, 2699, 2700, 2618
535, 486, 526, 527, 487, 2700, 2701, 2702, 2620
536, 487, 527, 52, 51, 2702, 2703, 1974, 2622
537, 52, 53, 528, 488, 1975, 2704, 2705, 2623
538, 488, 528, 529, 489, 2705, 2706, 2707, 2625
539, 489, 529, 530, 490, 2707, 2708, 2709, 2627
540, 490, 530, 531, 491, 2709, 2710, 2711, 2629
541, 491, 531, 532, 492, 2711, 2712, 2713, 2631
542, 492, 532, 533, 493, 2713, 2714, 2715, 2633
543, 493, 533, 534, 494, 2715, 2716, 2717, 2635
544, 494, 534, 535, 495, 2717, 2718, 2719, 2637
545, 495, 535, 536, 496, 2719, 2720, 2721, 2639
546, 496, 536, 537, 497, 2721, 2722, 2723, 2641
547, 497, 537, 538, 498, 2723, 2724, 2725, 2643
548, 498, 538, 539, 499, 2725, 2726, 2727, 2645
549, 499, 539, 540, 500, 2727, 2728, 2729, 2647
550, 500, 540, 541, 501, 2729, 2730, 2731, 2649
551, 501, 541, 542, 502, 2731, 2732, 2733, 2651
552, 502, 542, 543, 503, 2733, 2734, 2735, 2653
553, 503, 543, 544, 504, 2735, 2736, 2737, 2655
554, 504, 544, 545, 505, 2737, 2738, 2739, 2657
555, 505, 545, 546, 506, 2739, 2740, 2741, 2659
556, 506, 546, 547, 507, 2741, 2742, 2743, 2661
557, 507, 547, 548, 508, 2743, 2744, 2745, 2663
558, 508, 548, 549, 509, 2745, 2746, 2747, 2665
559, 509, 549, 550, 510, 2747, 2748, 2749, 2667
560, 510, 550, 551, 511, 2749, 2750, 2751, 2669
561, 511, 551, 552, 512, 2751, 2752, 2753, 2671
562, 512, 552, 553, 513, 2753, 2754, 2755, 2673
563, 513, 553, 554, 514, 2755, 2756, 2757, 2675
564, 514, 554, 555, 515, 2757, 2758, 2759, 2677
565, 515, 555, 556, 516, 2759, 2760, 2761, 2679
566, 516, 556, 557, 517, 2761, 2762, 2763, 2681
567, 517, 557, 558, 518, 2763, 2764, 2765, 2683
568, 518, 558, 559, 519, 2765, 2766, 2767, 2685
569, 519, 559, 560, 520, 2767, 2768, 2769, 2687
570, 520, 560, 561, 521, 2769, 2770, 2771, 2689
571, 521, 561, 562, 522, 2771, 2772, 2773, 2691
572, 522, 562, 563, 523, 2773, 2774, 2775, 2693
573, 523, 563, 564, 524, 2775, 2776, 2777, 2695
574, 524, 564, 565, 525, 2777, 2778, 2779, 2697
575, 525, 565, 566, 526, 2779, 2780, 2781, 2699
576, 526, 566, 567, 527, 2781, 2782, 2783, 2701
577, 527, 567, 53, 52, 2783, 2784, 1975, 2703
578, 53, 54, 568, 528, 1976, 2785, 2786, 2704
579, 528, 568, 569, 529, 2786, 2787, 2788, 2706
580, 529, 569, 570, 530, 2788, 2789, 2790, 2708
581, 530, 570, 571, 531, 2790, 2791, 2792, 2710
582, 531, 571, 572, 532, 2792, 2793, 2794, 2712
583, 532, 572, 573, 533, 2794, 2795, 2796, 2714
584, 533, 573, 574, 534, 2796, 2797, 2798, 2716
585, 534, 574, 575, 535, 2798, 2799, 2800, 2718
586, 535, 575, 576, 536, 2800, 2801, 2802, 2720
587, 536, 576, 577, 537, 2802, 2803, 2804, 2722
588, 537, 577, 578, 538, 2804, 2805, 2806, 2724
589, 538, 578, 579, 539, 2806, 2807, 2808, 2726
590, 539, 579, 580, 540, 2808, 2809, 2810, 2728
591, 540, 580, 581, 541, 2810, 2811, 2812, 2730
592, 541, 581, 582, 542, 2812, 2813, 2814, 2732
593, 542, 582, 583, 543, 2814, 2815, 2816, 2734
594, 543, 583, 584, 544, 2816, 2817, 2818, 2736
595, 544, 584, 585, 545, 2818, 2819, 2820, 2738
596, 545, 585, 586, 546, 2820, 2821, 2822, 2740
597, 546, 586, 587, 547, 2822, 2823, 2824, 2742
598, 547, 587, 588, 548, 2824, 2825, 2826, 2744
599, 548, 588, 589, 549, 2826, 2827, 2828, 2746
600, 549, 589, 590, 550, 2828, 2829, 2830, 2748
601, 550, 590, 591, 551, 2830, 2831, 2832, 2750
602, 551, 591, 592, 552, 2832, 2833, 2834, 2752
603, 552, 592, 593, 553, 2834, 2835, 2836, 2754
604, 553, 593, 594, 554, 2836, 2837, 2838, 2756
605, 554, 594, 595, 555, 2838, 2839, 2840, 2758
606, 555, 595, 596, 556, 2840, 2841, 2842, 2760
607, 556, 596, 597, 557, 2842, 2843, 2844, 2762
608, 557, 597, 598, 558, 2844, 2845, 2846, 2764
609, 558, 598, 599, 559, 2846, 2847, 2848, 2766
610, 559, 599, 600, 560, 2848, 2849, 2850, 2768
611, 560, 600, 601, 561, 2850, 2851, 2852, 2770
612, 561, 601, 602, 562, 2852, 2853, 2854, 2772
613, 562, 602, 603, 563, 2854, 2855, 2856, 2774
614, 563, 603, 604, 564, 2856, 2857, 2858, 2776
615, 564, 604, 605, 565, 2858, 2859, 2860, 2778
616, 565, 605, 606, 566, 2860, 2861, 2862, 2780
617, 566, 606, 607, 567, 2862, 2863, 2864, 2782
618, 567, 607, 54, 53, 2864, 2865, 1976, 2784
619, 54, 55, 608, 568, 1977, 2866, 2867, 2785
620, 568, 608, 609, 569, 2867, 2868, 2869, 2787
621, 569, 609, 610, 570, 2869, 2870, 2871, 2789
622, 570, 610, 611, 571, 2871, 2872, 2873, 2791
623, 571, 611, 612, 572, 2873, 2874, 2875, 2793
624, 572, 612, 613, 573, 2875, 2876, 2877, 2795
625, 573, 613, 614, 574, 2877, 2878, 2879, 2797
626, 574, 614, 615, 575, 2879, 2880, 2881, 2799
627, 575, 615, 616, 576, 2881, 2882, 2883, 2801
628, 576, 616, 617, 577, 2883, 2884, 2885, 2803
629, 577, 617, 618, 578, 2885, 2886, 2887, 2805
630, 578, 618, 619, 579, 2887, 2888, 2889, 2807
631, 579, 619, 620, 580, 2889, 2890, 2891, 2809
632, 580, 620, 621, 581, 2891, 2892, 2893, 2811
633, 581, 621, 622, 582, 2893, 2894, 2895, 2813
634, 582, 622, 623, 583, 2895, 2896, 2897, 2815
635, 583, 623, 624, 584, 2897, 2898, 2899, 2817
636, 584, 624, 625, 585, 2899, 2900, 2901, 2819
637, 585, 625, 626, 586, 2901, 2902, 2903, 2821
638, 586, 626, 627, 587, 2903, 2904, 2905, 2823
639, 587, 627, 628, 588, 2905, 2906, 2907, 2825
640, 588, 628, 629, 589, 2907, 2908, 2909, 2827
641, 589, 629, 630, 590, 2909, 2910, 2911, 2829
642, 590, 630, 631, 591, 2911, 2912, 2913, 2831
643, 591, 631, 632, 592, 2913, 2914, 2915, 2833
644, 592, 632, 633, 593, 2915, 2916, 2917, 2835
645, 593, 633, 634, 594, 2917, 2918, 2919, 2837
646, 594, 634, 635, 595, 2919, 2920, 2921, 2839
647, 595, 635, 636, 596, 2921, 2922, 2923, 2841
648, 596, 636, 637, 597, 2923, 2924, 2925, 2843
649, 597, 637, 638, 598, 2925, 2926, 2927, 2845
650, 598, 638, 639, 599, 2927, 2928, 2929, 2847
651, 599, 639, 640, 600, 2929, 2930, 2931, 2849
652, 600, 640, 641, 601, 2931, 2932, 2933, 2851
653, 601, 641, 642, 602, 2933, 2934, 2935, 2853
654, 602, 642, 643, 603, 2935, 2936, 2937, 2855
655, 603, 643, 644, 604, 2937, 2938, 2939, 2857
656, 604, 644, 645, 605, 2939, 2940, 2941, 2859
657, 605, 645, 646, 606, 2941, 2942, 2943, 2861
658, 606, 646, 647, 607, 2943, 2944, 2945, 2863
659, 607, 647, 55, 54, 2945, 2946, 1977, 2865
660, 55, 56, 648, 608, 1978, 2947, 2948, 2866
661, 608, 648, 649, 609, 2948, 2949, 2950, 2868
662, 609, 649, 650, 610, 2950, 2951, 2952, 2870
663, 610, 650, 651, 611, 2952, 2953, 2954, 2872
664, 611, 651, 652, 612, 2954, 2955, 2956, 2874
665, 612, 652, 653, 613, 2956, 2957, 2958, 2876
666, 613, 653, 654, 614, 2958, 2959, 2960, 2878
667, 614, 654, 655, 615, 2960, 2961, 2962, 2880
668, 615, 655, 656, 616, 2962, 2963, 2964, 2882
669, 616, 656, 657, 617, 2964, 2965, 2966, 2884
670, 617, 657, 658, 618, 2966, 2967, 2968, 2886
671, 618, 658, 659, 619, 2968, 2969, 2970, 2888
672, 619, 659, 660, 620, 2970, 2971, 2972, 2890
673, 620, 660, 661, 621, 2972, 2973, 2974, 2892
674, 621, 661, 662, 622, 2974, 2975, 2976, 2894
675, 622, 662, 663, 623, 2976, 2977, 2978, 2896
676, 623, 663, 664, 624, 2978, 2979, 2980, 2898
677, 624, 664, 665, 625, 2980, 2981, 2982, 2900
678, 625, 665, 666, 626, 2982, 2983, 2984, 2902
679, 626, 666, 667, 627, 2984, 2985, 2986, 2904
680, 627, 667, 668, 628, 2986, 2987, 2988, 2906
681, 628, 668, 669, 629, 2988, 2989, 2990, 2908
682, 629, 669, 670, 630, 2990, 2991, 2992, 2910
683, 630, 670, 671, 631, 2992, 2993, 2994, 2912
684, 631, 671, 672, 632, 2994, 2995, 2996, 2914
685, 632, 672, 673, 633, 2996, 2997, 2998, 2916
686, 633, 673, 674, 634, 2998, 2999, 3000, 2918
687, 634, 674, 675, 635, 3000, 3001, 3002, 2920
688, 635, 675, 676, 636, 3002, 3003, 3004, 2922
689, 636, 676, 677, 637, 3004, 3005, 3006, 2924
690, 637, 677, 678, 638, 3006, 3007, 3008, 2926
691, 638, 678, 679, 639, 3008, 3009, 3010, 2928
692, 639, 679, 680, 640, 3010, 3011, 3012, 2930
693, 640, 680, 681, 641, 3012, 3013, 3014, 2932
694, 641, 681, 682, 642, 3014, 3015, 3016, 2934
695, 642, 682, 683, 643, 3016, 3017, 3018, 2936
696, 643, 683, 684, 644, 3018, 3019, 3020, 2938
697, 644, 684, 685, 645, 3020, 3021, 3022, 2940
698, 645, 685, 686, 646, 3022, 3023, 3024, 2942
699, 646, 686, 687, 647, 3024, 3025, 3026, 2944
700, 647, 687, 56, 55, 3026, 3027, 1978, 2946
701, 56, 57, 688, 648, 1979, 3028, 3029, 2947
702, 648, 688, 689, 649, 3029, 3030, 3031, 2949
703, 649, 689, 690, 650, 3031, 3032, 3033, 2951
704, 650, 690, 691, 651, 3033, 3034, 3035, 2953
705, 651, 691, 692, 652, 3035, 3036, 3037, 2955
706, 652, 692, 693, 653, 3037, 3038, 3039, 2957
707, 653, 693, 694, 654, 3039, 3040, 3041, 2959
708, 654, 694, 695, 655, 3041, 3042, 3043, 2961
709, 655, 695, 696, 656, 3043, 3044, 3045, 2963
710, 656, 696, 697, 657, 3045, 3046, 3047, 2965
711, 657, 697, 698, 658, 3047, 3048, 3049, 2967
712, 658, 698, 699, 659, 3049, 3050, 3051, 2969
713, 659, 699, 700, 660, 3051, 3052, 3053, 2971
714, 660, 700, 701, 661, 3053, 3054, 3055, 2973
715, 661, 701, 702, 662, 3055, 3056, 3057, 2975
716, 662, 702, 703, 663, 3057, 3058, 3059, 2977
717, 663, 703, 704, 664, 3059, 3060, 3061, 2979
718, 664, 704, 705, 665, 3061, 3062, 3063, 2981
719, 665, 705, 706, 666, 3063, 3064, 3065, 2983
720, 666, 706, 707, 667, 3065, 3066, 3067, 2985
721, 667, 707, 708, 668, 3067, 3068, 3069, 2987
722, 668, 708, 709, 669, 3069, 3070, 3071, 2989
723, 669, 709, 710, 670, 3071, 3072, 3073, 2991
724, 670, 710, 711, 671, 3073, 3074, 3075, 2993
725, 671, 711, 712, 672, 3075, 3076, 3077, 2995
726, 672, 712, 713, 673, 3077, 3078, 3079, 2997
727, 673, 713, 714, 674, 3079, 3080, 3081, 2999
728, 674, 714, 715, 675, 3081, 3082, 3083, 3001
729, 675, 715, 716, 676, 3083, 3084, 3085, 3003
730, 676, 716, 717, 677, 3085, 3086, 3087, 3005
731, 677, 717, 718, 678, 3087, 3088, 3089, 3007
732, 678, 718, 719, 679, 3089, 3090, 3091, 3009
733, 679, 719, 720, 680, 3091, 3092, 3093, 3011
734, 680, 720, 721, 681, 3093, 3094, 3095, 3013
735, 681, 721, 722, 682, 3095, 3096, 3097, 3015
736, 682, 722, 723, 683, 3097, 3098, 3099, 3017
737, 683, 723, 724, 684, 3099, 3100, 3101, 3019
738, 684, 724, 725, 685, 3101, 3102, 3103, 3021
739, 685, 725, 726, 686, 3103, 3104, 3105, 3023
740, 686, 726, 727, 687, 3105, 3106, 3107, 3025
741, 687, 727, 57, 56, 3107, 3108, 1979, 3027
742, 57, 58, 728, 688, 1980, 3109, 3110, 3028
743, 688, 728, 729, 689, 3110, 3111, 3112, 3030
744, 689, 729, 730, 690, 3112, 3113, 3114, 3032
745, 690, 730, 731, 691, 3114, 3115, 3116, 3034
746, 691, 731, 732, 692, 3116, 3117, 3118, 3036
747, 692, 732, 733, 693, 3118, 3119, 3120, 3038
748, 693, 733, 734, 694, 3120, 3121, 3122, 3040
749, 694, 734, 735, 695, 3122, 3123, 3124, 3042
750, 695, 735, 736, 696, 3124, 3125, 3126, 3044
751, 696, 736, 737, 697, 3126, 3127, 3128, 3046
752, 697, 737, 738, 698, 3128, 3129, 3130, 3048
753, 698, 738, 739, 699, 3130, 3131, 3132, 3050
754, 699, 739, 740, 700, 3132, 3133, 3134, 3052
755, 700, 740, 741, 701, 3134, 3135, 3136, 3054
756, 701, 741, 742, 702, 3136, 3137, 3138, 3056
757, 702, 742, 743, 703, 3138, 3139, 3140, 3058
758, 703, 743, 744, 704, 3140, 3141, 3142, 3060
759, 704, 744, 745, 705, 3142, 3143, 3144, 3062
760, 705, 745, 746, 706, 3144, 3145, 3146, 3064
761, 706, 746, 747, 707, 3146, 3147, 3148, 3066
762, 707, 747, 748, 708, 3148, 3149, 3150, 3068
763, 708, 748, 749, 709, 3150, 3151, 3152, 3070
764, 709, 749, 750, 710, 3152, 3153, 3154, 3072
765, 710, 750, 751, 711, 3154, 3155, 3156, 3074
766, 711, 751, 752, 712, 3156, 3157, 3158, 3076
767, 712, 752, 753, 713, 3158, 3159, 3160, 3078
768, 713, 753, 754, 714, 3160, 3161, 3162, 3080
769, 714, 754, 755, 715, 3162, 3163, 3164, 3082
770, 715, 755, 756, 716, 3164, 3165, 3166, 3084
771, 716, 756, 757, 717, 3166, 3167, 3168, 3086
772, 717, 757, 758, 718, 3168, 3169, 3170, 3088
773, 718, 758, 759, 719, 3170, 3171, 3172, 3090
774, 719, 759, 760, 720, 3172, 3173, 3174, 3092
775, 720, 760, 761, 721, 3174, 3175, 3176, 3094
776, 721, 761, 762, 722, 3176, 3177, 3178, 3096
777, 722, 762, 763, 723, 3178, 3179, 3180, 3098
778, 723, 763, 764, 724, 3180, 3181, 3182, 3100
779, 724, 764, 765, 725, 3182, 3183, 3184, 3102
780, 725, 765, 766, 726, 3184, 3185, 3186, 3104
781, 726, 766, 767, 727, 3186, 3187, 3188, 3106
782, 727, 767, 58, 57, 3188, 3189, 1980, 3108
783, 58, 59, 768, 728, 1981, 3190, 3191, 3109
784, 728, 768, 769, 729, 3191, 3192, 3193, 3111
785, 729, 769, 770, 730, 3193, 3194, 3195, 3113
786, 730, 770, 771, 731, 3195, 3196, 3197, 3115
787, 731, 771, 772, 732, 3197, 3198, 3199, 3117
788, 732, 772, 773, 733, 3199, 3200, 3201, 3119
789, 733, 773, 774, 734, 3201, 3202, 3203, 3121
790, 734, 774, 775, 735, 3203, 3204, 3205, 3123
791, 735, 775, 776, 736, 3205, 3206, 3207, 3125
792, 736, 776, 777, 737, 3207, 3208, 3209, 3127
793, 737, 777, 778, 738, 3209, 3210, 3211, 3129
794, 738, 778, 779, 739, 3211, 3212, 3213, 3131
795, 739, 779, 780, 740, 3213, 3214, 3215, 3133
796, 740, 780, 781, 741, 3215, 3216, 3217, 3135
797, 741, 781, 782, 742, 3217, 3218, 3219, 3137
798, 742, 782, 783, 743, 3219, 3220, 3221, 3139
799, 743, 783, 784, 744, 3221, 3222, 3223, 3141
800, 744, 784, 785, 745, 3223, 3224, 3225, 3143
801, 745, 785, 786, 746, 3225, 3226, 3227, 3145
802, 746, 786, 787, 747, 3227, 3228, 3229, 3147
803, 747, 787, 788, 748, 3229, 3230, 3231, 3149
804, 748, 788, 789, 749, 3231, 3232, 3233, 3151
805, 749, 789, 790, 750, 3233, 3234, 3235, 3153
806, 750, 790, 791, 751, 3235, 3236, 3237, 3155
807, 751, 791, 792, 752, 3237, 3238, 3239, 3157
808, 752, 792, 793, 753, 3239, 3240, 3241, 3159
809, 753, 793, 794, 754, 3241, 3242, 3243, 3161
810, 754, 794, 795, 755, 3243, 3244, 3245, 3163
811, 755, 795, 796, 756, 3245, 3246, 3247, 3165
812, 756, 796, 797, 757, 3247, 3248, 3249, 3167
813, 757, 797, 798, 758, 3249, 3250, 3251, 3169
814, 758, 798, 799, 759, 3251, 3252, 3253, 3171
815, 759, 799, 800, 760, 3253, 3254, 3255, 3173
816, 760, 800, 801, 761, 3255, 3256, 3257, 3175
817, 761, 801, 802, 762, 3257, 3258, 3259, 3177
818, 762, 802, 803, 763, 3259, 3260, 3261, 3179
819, 763, 803, 804, 764, 3261, 3262, 3263, 3181
820, 764, 804, 805, 765, 3263, 3264, 3265, 3183
821, 765, 805, 806, 766, 3265, 3266, 3267, 3185
822, 766, 806, 807, 767, 3267, 3268, 3269, 3187
823, 767, 807, 59, 58, 3269, 3270, 1981, 3189
824, 59, 60, 808, 768, 1982, 3271, 3272, 3190
825, 768, 808, 809, 769, 3272, 3273, 3274, 3192
826, 769, 809, 810, 770, 3274, 3275, 3276, 3194
827, 770, 810, 811, 771, 3276, 3277, 3278, 3196
828, 771, 811, 812, 772, 3278, 3279, 3280, 3198
829, 772, 812, 813, 773, 3280, 3281, 3282, 3200
830, 773, 813, 814, 774, 3282, 3283, 3284, 3202
831, 774, 814, 815, 775, 3284, 3285, 3286, 3204
832, 775, 815, 816, 776, 3286, 3287, 3288, 3206
833, 776, 816, 817, 777, 3288, 3289, 3290, 3208
834, 777, 817, 818, 778, 3290, 3291, 3292, 3210
835, 778, 818, 819, 779, 3292, 3293, 3294, 3212
836, 779, 819, 820, 780, 3294, 3295, 3296, 3214
837, 780, 820, 821, 781, 3296, 3297, 3298, 3216
838, 781, 821, 822, 782, 3298, 3299, 3300, 3218
839, 782, 822, 823, 783, 3300, 3301, 3302, 3220
840, 783, 823, 824, 784, 3302, 3303, 3304, 3222
841, 784, 824, 825, 785, 3304, 3305, 3306, 3224
842, 785, 825, 826, 786, 3306, 3307, 3308, 3226
843, 786, 826, 827, 787, 3308, 3309, 3310, 3228
844, 787, 827, 828, 788, 3310, 3311, 3312, 3230
845, 788, 828, 829, 789, 3312, 3313, 3314, 3232
846, 789, 829, 830, 790, 3314, 3315, 3316, 3234
847, 790, 830, 831, 791, 3316, 3317, 3318, 3236
848, 791, 831, 832, 792, 3318, 3319, 3320, 3238
849, 792, 832, 833, 793, 3320, 3321, 3322, 3240
850, 793, 833, 834, 794, 3322, 3323, 3324, 3242
851, 794, 834, 835, 795, 3324, 3325, 3326, 3244
852, 795, 835, 836, 796, 3326, 3327, 3328, 3246
853, 796, 836, 837, 797, 3328, 3329, 3330, 3248
854, 797, 837, 838, 798, 3330, 3331, 3332, 3250
855, 798, 838, 839, 799, 3332, 3333, 3334, 3252
856, 799, 839, 840, 800, 3334, 3335, 3336, 3254
857, 800, 840, 841, 801, 3336, 3337, 3338, 3256
858, 801, 841, 842, 802, 3338, 3339, 3340, 3258
859, 802, 842, 843, 803, 3340, 3341, 3342, 3260
860, 803, 843, 844, 804, 3342, 3343, 3344, 3262
861, 804, 844, 845, 805, 3344, 3345, 3346, 3264
862, 805, 845, 846, 806, 3346, 3347, 3348, 3266
863, 806, 846, 847, 807, 3348, 3349, 3350, 3268
864, 807, 847, 60, 59, 3350, 3351, 1982, 3270
865, 60, 61, 848, 808, 1983, 3352, 3353, 3271
866, 808, 848, 849, 809, 3353, 3354, 3355, 3273
867, 809, 849, 850, 810, 3355, 3356, 3357, 3275
868, 810, 850, 851, 811, 3357, 3358, 3359, 3277
869, 811, 851, 852, 812, 3359, 3360, 3361, 3279
870, 812, 852, 853, 813, 3361, 3362, 3363, 3281
871, 813, 853, 854, 814, 3363, 3364, 3365, 3283
872, 814, 854, 855, 815, 3365, 3366, 3367, 3285
873, 815, 855, 856, 816, 3367, 3368, 3369, 3287
874, 816, 856, 857, 817, 3369, 3370, 3371, 3289
875, 817, 857, 858, 818, 3371, 3372, 3373, 3291
876, 818, 858, 859, 819, 3373, 3374, 3375, 3293
877, 819, 859, 860, 820, 3375, 3376, 3377, 3295
878, 820, 860, 861, 821, 3377, 3378, 3379, 3297
879, 821, 861, 862, 822, 3379, 3380, 3381, 3299
880, 822, 862, 863, 823, 3381, 3382, 3383, 3301
881, 823, 863, 864, 824, 3383, 3384, 3385, 3303
882, 824, 864, 865, 825, 3385, 3386, 3387, 3305
883, 825, 865, 866, 826, 3387, 3388, 3389, 3307
884, 826, 866, 867, 827, 3389, 3390, 3391, 3309
885, 827, 867, 868, 828, 3391, 3392, 3393, 3311
886, 828, 868, 869, 829, 3393, 3394, 3395, 3313
887, 829, 869, 870, 830, 3395, 3396, 3397, 3315
888, 830, 870, 871, 831, 3397, 3398, 3399, 3317
889, 831, 871, 872, 832, 3399, 3400, 3401, 3319
890, 832, 872, 873, 833, 3401, 3402, 3403, 3321
891, 833, 873, 874, 834, 3403, 3404, 3405, 3323
892, 834, 874, 875, 835, 3405, 3406, 3407, 3325
893, 835, 875, 876, 836, 3407, 3408, 3409, 3327
894, 836, 876, 877, 837, 3409, 3410, 3411, 3329
895, 837, 877, 878, 838, 3411, 3412, 3413, 3331
896, 838, 878, 879, 839, 3413, 3414, 3415, 3333
897, 839, 879, 880, 840, 3415, 3416, 3417, 3335
898, 840, 880, 881, 841, 3417, 3418, 3419, 3337
899, 841, 881, 882, 842, 3419, 3420, 3421, 3339
900, 842, 882, 883, 843, 3421, 3422, 3423, 3341
901, 843, 883, 884, 844, 3423, 3424, 3425, 3343
902, 844, 884, 885, 845, 3425, 3426, 3427, 3345
903, 845, 885, 886, 846, 3427, 3428, 3429, 3347
904, 846, 886, 887, 847, 3429, 3430, 3431, 3349
905, 847, 887, 61, 60, 3431, 3432, 1983, 3351
906, 61, 62, 888, 848, 1984, 3433, 3434, 3352
907, 848, 888, 889, 849, 3434, 3435, 3436, 3354
908, 849, 889, 890, 850, 3436, 3437, 3438, 3356
909, 850, 890, 891, 851, 3438, 3439, 3440, 3358
910, 851, 891, 892, 852, 3440, 3441, 3442, 3360
911, 852, 892, 893, 853, 3442, 3443, 3444, 3362
912, 853, 893, 894, 854, 3444, 3445, 3446, 3364
913, 854, 894, 895, 855, 3446, 3447, 3448, 3366
914, 855, 895, 896, 856, 3448, 3449, 3450, 3368
915, 856, 896, 897, 857, 3450, 3451, 3452, 3370
916, 857, 897, 898, 858, 3452, 3453, 3454, 3372
917, 858, 898, 899, 859, 3454, 3455, 3456, 3374
918, 859, 899, 900, 860, 3456, 3457, 3458, 3376
919, 860, 900, 901, 861, 3458, 3459, 3460, 3378
920, 861, 901, 902, 862, 3460, 3461, 3462, 3380
921, 862, 902, 903, 863, 3462, 3463, 3464, 3382
922, 863, 903, 904, 864, 3464, 3465, 3466, 3384
923, 864, 904, 905, 865, 3466, 3467, 3468, 3386
924, 865, 905, 906, 866, 3468, 3469, 3470, 3388
925, 866, 906, 907, 867, 3470, 3471, 3472, 3390
926, 867, 907, 908, 868, 3472, 3473, 3474, 3392
927, 868, 908, 909, 869, 3474, 3475, 3476, 3394
928, 869, 909, 910, 870, 3476, 3477, 3478, 3396
929, 870, 910, 911, 871, 3478, 3479, 3480, 3398
930, 871, 911, 912, 872, 3480, 3481, 3482, 3400
931, 872, 912, 913, 873, 3482, 3483, 3484, 3402
932, 873, 913, 914, 874, 3484, 3485, 3486, 3404
933, 874, 914, 915, 875, 3486, 3487, 3488, 3406
934, 875, 915, 916, 876, 3488, 3489, 3490, 3408
935, 876, 916, 917, 877, 3490, 3491, 3492, 3410
936, 877, 917, 918, 878, 3492, 3493, 3494, 3412
937, 878, 918, 919, 879, 3494, 3495, 3496, 3414
938, 879, 919, 920, 880, 3496, 3497, 3498, 3416
939, 880, 920, 921, 881, 3498, 3499, 3500, 3418
940, 881, 921, 922, 882, 3500, 3501, 3502, 3420
941, 882, 922, 923, 883, 3502, 3503, 3504, 3422
942, 883, 923, 924, 884, 3504, 3505, 3506, 3424
943, 884, 924, 925, 885, 3506, 3507, 3508, 3426
944, 885, 925, 926, 886, 3508, 3509, 3510, 3428
945, 886, 926, 927, 887, 3510, 3511, 3512, 3430
946, 887, 927, 62, 61, 3512, 3513, 1984, 3432
947, 62, 63, 928, 888, 1985, 3514, 3515, 3433
948, 888, 928, 929, 889, 3515, 3516, 3517, 3435
949, 889, 929, 930, 890, 3517, 3518, 3519, 3437
950, 890, 930, 931, 891, 3519, 3520, 3521, 3439
951, 891, 931, 932, 892, 3521, 3522, 3523, 3441
952, 892, 932, 933, 893, 3523, 3524, 3525, 3443
953, 893, 933, 934, 894, 3525, 3526, 3527, 3445
954, 894, 934, 935, 895, 3527, 3528, 3529, 3447
955, 895, 935, 936, 896, 3529, 3530, 3531, 3449
956, 896, 936, 937, 897, 3531, 3532, 3533, 3451
957, 897, 937, 938, 898, 3533, 3534, 3535, 3453
958, 898, 938, 939, 899, 3535, 3536, 3537, 3455
959, 899, 939, 940, 900, 3537, 3538, 3539, 3457
960, 900, 940, 941, 901, 3539, 3540, 3541, 3459
961, 901, 941, 942, 902, 3541, 3542, 3543, 3461
962, 902, 942, 943, 903, 3543, 3544, 3545, 3463
963, 903, 943, 944, 904, 3545, 3546, 3547, 3465
964, 904, 944, 945, 905, 3547, 3548, 3549, 3467
965, 905, 945, 946, 906, 3549, 3550, 3551, 3469
966, 906, 946, 947, 907, 3551, 3552, 3553, 3471
967, 907, 947, 948, 908, 3553, 3554, 3555, 3473
968, 908, 948, 949, 909, 3555, 3556, 3557, 3475
969, 909, 949, 950, 910, 3557, 3558, 3559, 3477
970, 910, 950, 951, 911, 3559, 3560, 3561, 3479
971, 911, 951, 952, 912, 3561, 3562, 3563, 3481
972, 912, 952, 953, 913, 3563, 3564, 3565, 3483
973, 913, 953, 954, 914, 3565, 3566, 3567, 3485
974, 914, 954, 955, 915, 3567, 3568, 3569, 3487
975, 915, 955, 956, 916, 3569, 3570, 3571, 3489
976, 916, 956, 957, 917, 3571, 3572, 3573, 3491
977, 917, 957, 958, 918, 3573, 3574, 3575, 3493
978, 918, 958, 959, 919, 3575, 3576, 3577, 3495
979, 919, 959, 960, 920, 3577, 3578, 3579, 3497
980, 920, 960, 961, 921, 3579, 3580, 3581, 3499
981, 921, 961, 962, 922, 3581, 3582, 3583, 3501
982, 922, 962, 963, 923, 3583, 3584, 3585, 3503
983, 923, 963, 964, 924, 3585, 3586, 3587, 3505
984, 924, 964, 965, 925, 3587, 3588, 3589, 3507
985, 925, 965, 966, 926, 3589, 3590, 3591, 3509
986, 926, 966, 967, 927, 3591, 3592, 3593, 3511
987, 927, 967, 63, 62, 3593, 3594, 1985, 3513
988, 63, 64, 968, 928, 1986, 3595, 3596, 3514
989, 928, 968, 969, 929, 3596, 3597, 3598, 3516
990, 929, 969, 970, 930, 3598, 3599, 3600, 3518
991, 930, 970, 971, 931, 3600, 3601, 3602, 3520
992, 931, 971, 972, 932, 3602, 3603, 3604, 3522
993, 932, 972, 973, 933, 3604, 3605, 3606, 3524
994, 933, 973, 974, 934, 3606, 3607, 3608, 3526
995, 934, 974, 975, 935, 3608, 3609, 3610, 3528
996, 935, 975, 976, 936, 3610, 3611, 3612, 3530
997, 936, 976, 977, 937, 3612, 3613, 3614, 3532
998, 937, 977, 978, 938, 3614, 3615, 3616, 3534
999, 938, 978, 979, 939, 3616, 3617, 3618, 3536
1000, 939, 979, 980, 940, 3618, 3619, 3620, 3538
1001, 940, 980, 981, 941, 3620, 3621, 3622, 3540
1002, 941, 981, 982, 942, 3622, 3623, 3624, 3542
1003, 942, 982, 983, 943, 3624, 3625, 3626, 3544
1004, 943, 983, 984, 944, 3626, 3627, 3628, 3546
1005, 944, 984, 985, 945, 3628, 3629, 3630, 3548
1006, 945, 985, 986, 946, 3630, 3631, 3632, 3550
1007, 946, 986, 987, 947, 3632, 3633, 3634, 3552
1008, 947, 987, 988, 948, 3634, 3635, 3636, 3554
1009, 948, 988, 989, 949, 3636, 3637, 3638, 3556
1010, 949, 989, 990, 950, 3638, 3639, 3640, 3558
1011, 950, 990, 991, 951, 3640, 3641, 3642, 3560
1012, 951, 991, 992, 952, 3642, 3643, 3644, 3562
1013, 952, 992, 993, 953, 3644, 3645, 3646, 3564
1014, 953, 993, 994, 954, 3646, 3647, 3648, 3566
1015, 954, 994, 995, 955, 3648, 3649, 3650, 3568
1016, 955, 995, 996, 956, 3650, 3651, 3652, 3570
1017, 956, 996, 997, 957, 3652, 3653, 3654, 3572
1018, 957, 997, 998, 958, 3654, 3655, 3656, 3574
1019, 958, 998, 999, 959, 3656, 3657, 3658, 3576
1020, 959, 999, 1000, 960, 3658, 3659, 3660, 3578
1021, 960, 1000, 1001, 961, 3660, 3661, 3662, 3580
1022, 961, 1001, 1002, 962, 3662, 3663, 3664, 3582
1023, 962, 1002, 1003, 963, 3664, 3665, 3666, 3584
1024, 963, 1003, 1004, 964, 3666, 3667, 3668, 3586
1025, 964, 1004, 1005, 965, 3668, 3669, 3670, 3588
1026, 965, 1005, 1006, 966, 3670, 3671, 3672, 3590
1027, 966, 1006, 1007, 967, 3672, 3673, 3674, 3592
1028, 967, 1007, 64, 63, 3674, 3675, 1986, 3594
1029, 64, 65, 1008, 968, 1987, 3676, 3677, 3595
1030, 968, 1008, 1009, 969, 3677, 3678, 3679, 3597
1031, 969, 1009, 1010, 970, 3679, 3680, 3681, 3599
1032, 970, 1010, 1011, 971, 3681, 3682, 3683, 3601
1033, 971, 1011, 1012, 972, 3683, 3684, 3685, 3603
1034, 972, 1012, 1013, 973, 3685, 3686, 3687, 3605
1035, 973, 1013, 1014, 974, 3687, 3688, 3689, 3607
1036, 974, 1014, 1015, 975, 3689, 3690, 3691, 3609
1037, 975, 1015, 1016, 976, 3691, 3692, 3693, 3611
1038, 976, 1016, 1017, 977, 3693, 3694, 3695, 3613
1039, 977, 1017, 1018, 978, 3695, 3696, 3697, 3615
1040, 978, 1018, 1019, 979, 3697, 3698, 3699, 3617
1041, 979, 1019, 1020, 980, 3699, 3700, 3701, 3619
1042, 980, 1020, 1021, 981, 3701, 3702, 3703, 3621
1043, 981, 1021, 1022, 982, 3703, 3704, 3705, 3623
1044, 982, 1022, 1023, 983, 3705, 3706, 3707, 3625
1045, 983, 1023, 1024, 984, 3707, 3708, 3709, 3627
1046, 984, 1024, 1025, 985, 3709, 3710, 3711, 3629
1047, 985, 1025, 1026, 986, 3711, 3712, 3713, 3631
1048, 986, 1026, 1027, 987, 3713, 3714, 3715, 3633
1049, 987, 1027, 1028, 988, 3715, 3716, 3717, 3635
1050, 988, 1028, 1029, 989, 3717, 3718, 3719, 3637
1051, 989, 1029, 1030, 990, 3719, 3720, 3721, 3639
1052, 990, 1030, 1031, 991, 3721, 3722, 3723, 3641
1053, 991, 1031, 1032, 992, 3723, 3724, 3725, 3643
1054, 992, 1032, 1033, 993, 3725, 3726, 3727, 3645
1055, 993, 1033, 1034, 994, 3727, 3728, 3729, 3647
1056, 994, 1034, 1035, 995, 3729, 3730, 3731, 3649
1057, 995, 1035, 1036, 996, 3731, 3732, 3733, 3651
1058, 996, 1036, 1037, 997, 3733, 3734, 3735, 3653
1059, 997, 1037, 1038, 998, 3735, 3736, 3737, 3655
1060, 998, 1038, 1039, 999, 3737, 3738, 3739, 3657
1061, 999, 1039, 1040, 1000, 3739, 3740, 3741, 3659
1062, 1000, 1040, 1041, 1001, 3741, 3742, 3743, 3661
1063, 1001, 1041, 1042, 1002, 3743, 3744, 3745, 3663
1064, 1002, 1042, 1043, 1003, 3745, 3746, 3747, 3665
1065, 1003, 1043, 1044, 1004, 3747, 3748, 3749, 3667
1066, 1004, 1044, 1045, 1005, 3749, 3750, 3751, 3669
1067, 1005, 1045, 1046, 1006, 3751, 3752, 3753, 3671
1068, 1006, 1046, 1047, 1007, 3753, 3754, 3755, 3673
1069, 1007, 1047, 65, 64, 3755, 3756, 1987, 3675
1070, 65, 66, 1048, 1008, 1988, 3757, 3758, 3676
1071, 1008, 1048, 1049, 1009, 3758, 3759, 3760, 3678
1072, 1009, 1049, 1050, 1010, 3760, 3761, 3762, 3680
1073, 1010, 1050, 1051, 1011, 3762, 3763, 3764, 3682
1074, 1011, 1051, 1052, 1012, 3764, 3765, 3766, 3684
1075, 1012, 1052, 1053, 1013, 3766, 3767, 3768, 3686
1076, 1013, 1053, 1054, 1014, 3768, 3769, 3770, 3688
1077, 1014, 1054, 1055, 1015, 3770, 3771, 3772, 3690
1078, 1015, 1055, 1056, 1016, 3772, 3773, 3774, 3692
1079, 1016, 1056, 1057, 1017, 3774, 3775, 3776, 3694
1080, 1017, 1057, 1058, 1018, 3776, 3777, 3778, 3696
1081, 1018, 1058, 1059, 1019, 3778, 3779, 3780, 3698
1082, 1019, 1059, 1060, 1020, 3780, 3781, 3782, 3700
1083, 1020, 1060, 1061, 1021, 3782, 3783, 3784, 3702
1084, 1021, 1061, 1062, 1022, 3784, 3785, 3786, 3704
1085, 1022, 1062, 1063, 1023, 3786, 3787, 3788, 3706
1086, 1023, 1063, 1064, 1024, 3788, 3789, 3790, 3708
1087, 1024, 1064, 1065, 1025, 3790, 3791, 3792, 3710
1088, 1025, 1065, 1066, 1026, 3792, 3793, 3794, 3712
1089, 1026, 1066, 1067, 1027, 3794, 3795, 3796, 3714
1090, 1027, 1067, 1068, 1028, 3796, 3797, 3798, 3716
1091, 1028, 1068, 1069, 1029, 3798, 3799, 3800, 3718
1092, 1029, 1069, 1070, 1030, 3800, 3801, 3802, 3720
1093, 1030, 1070, 1071, 1031, 3802, 3803, 3804, 3722
1094, 1031, 1071, 1072, 1032, 3804, 3805, 3806, 3724
1095, 1032, 1072, 1073, 1033, 3806, 3807, 3808, 3726
1096, 1033, 1073, 1074, 1034, 3808, 3809, 3810, 3728
1097, 1034, 1074, 1075, 1035, 3810, 3811, 3812, 3730
1098, 1035, 1075, 1076, 1036, 3812, 3813, 3814, 3732
1099, 1036, 1076, 1077, 1037, 3814, 3815, 3816, 3734
1100, 1037, 1077, 1078, 1038, 3816, 3817, 3818, 3736
1101, 1038, 1078, 1079, 1039, 3818, 3819, 3820, 3738
1102, 1039, 1079, 1080, 1040, 3820, 3821, 3822, 3740
1103, 1040, 1080, 1081, 1041, 3822, 3823, 3824, 3742
1104, 1041, 1081, 1082, 1042, 3824, 3825, 3826, 3744
1105, 1042, 1082, 1083, 1043, 3826, 3827, 3828, 3746
1106, 1043, 1083, 1084, 1044, 3828, 3829, 3830, 3748
1107, 1044, 1084, 1085, 1045, 3830, 3831, 3832, 3750
1108, 1045, 1085, 1086, 1046, 3832, 3833, 3834, 3752
1109, 1046, 1086, 1087, 1047, 3834, 3835, 3836, 3754
1110, 1047, 1087, 66, 65, 3836, 3837, 1988, 3756
1111, 66, 67, 1088, 1048, 1989, 3838, 3839, 3757
1112, 1048, 1088, 1089, 1049, 3839, 3840, 3841, 3759
1113, 1049, 1089, 1090, 1050, 3841, 3842, 3843, 3761
1114, 1050, 1090, 1091, 1051, 3843, 3844, 3845, 3763
1115, 1051, 1091, 1092, 1052, 3845, 3846, 3847, 3765
1116, 1052, 1092, 1093, 1053, 3847, 3848, 3849, 3767
1117, 1053, 1093, 1094, 1054, 3849, 3850, 3851, 3769
1118, 1054, 1094, 1095, 1055, 3851, 3852, 3853, 3771
1119, 1055, 1095, 1096, 1056, 3853, 3854, 3855, 3773
1120, 1056, 1096, 1097, 1057, 3855, 3856, 3857, 3775
1121, 1057, 1097, 1098, 1058, 3857, 3858, 3859, 3777
1122, 1058, 1098, 1099, 1059, 3859, 3860, 3861, 3779
1123, 1059, 1099, 1100, 1060, 3861, 3862, 3863, 3781
1124, 1060, 1100, 1101, 1061, 3863, 3864, 3865, 3783
1125, 1061, 1101, 1102, 1062, 3865, 3866, 3867, 3785
1126, 1062, 1102, 1103, 1063, 3867, 3868, 3869, 3787
1127, 1063, 1103, 1104, 1064, 3869, 3870, 3871, 3789
1128, 1064, 1104, 1105, 1065, 3871, 3872, 3873, 3791
1129, 1065, 1105, 1106, 1066, 3873, 3874, 3875, 3793
1130, 1066, 1106, 1107, 1067, 3875, 3876, 3877, 3795
1131, 1067, 1107, 1108, 1068, 3877, 3878, 3879, 3797
1132, 1068, 1108, 1109, 1069, 3879, 3880, 3881, 3799
1133, 1069, 1109, 1110, 1070, 3881, 3882, 3883, 3801
1134, 1070, 1110, 1111, 1071, 3883, 3884, 3885, 3803
1135, 1071, 1111, 1112, 1072, 3885, 3886, 3887, 3805
1136, 1072, 1112, 1113, 1073, 3887, 3888, 3889, 3807
1137, 1073, 1113, 1114, 1074, 3889, 3890, 3891, 3809
1138, 1074, 1114, 1115, 1075, 3891, 3892, 3893, 3811
1139, 1075, 1115, 1116, 1076, 3893, 3894, 3895, 3813
1140, 1076, 1116, 1117, 1077, 3895, 3896, 3897, 3815
1141, 1077, 1117, 1118, 1078, 3897, 3898, 3899, 3817
1142, 1078, 1118, 1119, 1079, 3899, 3900, 3901, 3819
1143, 1079, 1119, 1120, 1080, 3901, 3902, 3903, 3821
1144, 1080, 1120, 1121, 1081, 3903, 3904, 3905, 3823
1145, 1081, 1121, 1122, 1082, 3905, 3906, 3907, 3825
1146, 1082, 1122, 1123, 1083, 3907, 3908, 3909, 3827
1147, 1083, 1123, 1124, 1084, 3909, 3910, 3911, 3829
1148, 1084, 1124, 1125, 1085, 3911, 3912, 3913, 3831
1149, 1085, 1125, 1126, 1086, 3913, 3914, 3915, 3833
1150, 1086, 1126, 1127, 1087, 3915, 3916, 3917, 3835
1151, 1087, 1127, 67, 66, 3917, 3918, 1989, 3837
1152, 67, 68, 1128, 1088, 1990, 3919, 3920, 3838
1153, 1088, 1128, 1129, 1089, 3920, 3921, 3922, 3840
1154, 1089, 1129, 1130, 1090, 3922, 3923, 3924, 3842
1155, 1090, 1130, 1131, 1091, 3924, 3925, 3926, 3844
1156, 1091, 1131, 1132, 1092, 3926, 3927, 3928, 3846
1157, 1092, 1132, 1133, 1093, 3928, 3929, 3930, 3848
1158, 1093, 1133, 1134, 1094, 3930, 3931, 3932, 3850
1159, 1094, 1134, 1135, 1095, 3932, 3933, 3934, 3852
1160, 1095, 1135, 1136, 1096, 3934, 3935, 3936, 3854
1161, 1096, 1136, 1137, 1097, 3936, 3937, 3938, 3856
1162, 1097, 1137, 1138, 1098, 3938, 3939, 3940, 3858
1163, 1098, 1138, 1139, 1099, 3940, 3941, 3942, 3860
1164, 1099, 1139, 1140, 1100, 3942, 3943, 3944, 3862
1165, 1100, 1140, 1141, 1101, 3944, 3945, 3946, 3864
1166, 1101, 1141, 1142, 1102, 3946, 3947, 3948, 3866
1167, 1102, 1142, 1143, 1103, 3948, 3949, 3950, 3868
1168, 1103, 1143, 1144, 1104, 3950, 3951, 3952, 3870
1169, 1104, 1144, 1145, 1105, 3952, 3953, 3954, 3872
1170, 1105, 1145, 1146, 1106, 3954, 3955, 3956, 3874
1171, 1106, 1146, 1147, 1107, 3956, 3957, 3958, 3876
1172, 1107, 1147, 1148, 1108, 3958, 3959, 3960, 3878
1173, 1108, 1148, 1149, 1109, 3960, 3961, 3962, 3880
1174, 1109, 1149, 1150, 1110, 3962, 3963, 3964, 3882
1175, 1110, 1150, 1151, 1111, 3964, 3965, 3966, 3884
1176, 1111, 1151, 1152, 1112, 3966, 3967, 3968, 3886
1177, 1112, 1152, 1153, 1113, 3968, 3969, 3970, 3888
1178, 1113, 1153, 1154, 1114, 3970, 3971, 3972, 3890
1179, 1114, 1154, 1155, 1115, 3972, 3973, 3974, 3892
1180, 1115, 1155, 1156, 1116, 3974, 3975, 3976, 3894
1181, 1116, 1156, 1157, 1117, 3976, 3977, 3978, 3896
1182, 1117, 1157, 1158, 1118, 3978, 3979, 3980, 3898
1183, 1118, 1158, 1159, 1119, 3980, 3981, 3982, 3900
1184, 1119, 1159, 1160, 1120, 3982, 3983, 3984, 3902
1185, 1120, 1160, 1161, 1121, 3984, 3985, 3986, 3904
1186, 1121, 1161, 1162, 1122, 3986, 3987, 3988, 3906
1187, 1122, 1162, 1163, 1123, 3988, 3989, 3990, 3908
1188, 1123, 1163, 1164, 1124, 3990, 3991, 3992, 3910
1189, 1124, 1164, 1165, 1125, 3992, 3993, 3994, 3912
1190, 1125, 1165, 1166, 1126, 3994, 3995, 3996, 3914
1191, 1126, 1166, 1167, 1127, 3996, 3997, 3998, 3916
1192, 1127, 1167, 68, 67, 3998, 3999, 1990, 3918
1193, 68, 69, 1168, 1128, 1991, 4000, 4001, 3919
1194, 1128, 1168, 1169, 1129, 4001, 4002, 4003, 3921
1195, 1129, 1169, 1170, 1130, 4003, 4004, 4005, 3923
1196, 1130, 1170, 1171, 1131, 4005, 4006, 4007, 3925
1197, 1131, 1171, 1172, 1132, 4007, 4008, 4009, 3927
1198, 1132, 1172, 1173, 1133, 4009, 4010, 4011, 3929
1199, 1133, 1173, 1174, 1134, 4011, 4012, 4013, 3931
1200, 1134, 1174, 1175, 1135, 4013, 4014, 4015, 3933
1201, 1135, 1175, 1176, 1136, 4015, 4016, 4017, 3935
1202, 1136, 1176, 1177, 1137, 4017, 4018, 4019, 3937
1203, 1137, 1177, 1178, 1138, 4019, 4020, 4021, 3939
1204, 1138, 1178, 1179, 1139, 4021, 4022, 4023, 3941
1205, 1139, 1179, 1180, 1140, 4023, 4024, 4025, 3943
1206, 1140, 1180, 1181, 1141, 4025, 4026, 4027, 3945
1207, 1141, 1181, 1182, 1142, 4027, 4028, 4029, 3947
1208, 1142, 1182, 1183, 1143, 4029, 4030, 4031, 3949
1209, 1143, 1183, 1184, 1144, 4031, 4032, 4033, 3951
1210, 1144, 1184, 1185, 1145, 4033, 4034, 4035, 3953
1211, 1145, 1185, 1186, 1146, 4035, 4036, 4037, 3955
1212, 1146, 1186, 1187, 1147, 4037, 4038, 4039, 3957
1213, 1147, 1187, 1188, 1148, 4039, 4040, 4041, 3959
1214, 1148, 1188, 1189, 1149, 4041, 4042, 4043, 3961
1215, 1149, 1189, 1190, 1150, 4043, 4044, 4045, 3963
1216, 1150, 1190, 1191, 1151, 4045, 4046, 4047, 3965
1217, 1151, 1191, 1192, 1152, 4047, 4048, 4049, 3967
1218, 1152, 1192, 1193, 1153, 4049, 4050, 4051, 3969
1219, 1153, 1193, 1194, 1154, 4051, 4052, 4053, 3971
1220, 1154, 1194, 1195, 1155, 4053, 4054, 4055, 3973
1221, 1155, 1195, 1196, 1156, 4055, 4056, 4057, 3975
1222, 1156, 1196, 1197, 1157, 4057, 4058, 4059, 3977
1223, 1157, 1197, 1198, 1158, 4059, 4060, 4061, 3979
1224, 1158, 1198, 1199, 1159, 4061, 4062, 4063, 3981
1225, 1159, 1199, 1200, 1160, 4063, 4064, 4065, 3983
1226, 1160, 1200, 1201, 1161, 4065, 4066, 4067, 3985
1227, 1161, 1201, 1202, 1162, 4067, 4068, 4069, 3987
1228, 1162, 1202, 1203, 1163, 4069, 4070, 4071, 3989
1229, 1163, 1203, 1204, 1164, 4071, 4072, 4073, 3991
1230, 1164, 1204, 1205, 1165, 4073, 4074, 4075, 3993
1231, 1165, 1205, 1206, 1166, 4075, 4076, 4077, 3995
1232, 1166, 1206, 1207, 1167, 4077, 4078, 4079, 3997
1233, 1167, 1207, 69, 68, 4079, 4080, 1991, 3999
1234, 69, 70, 1208, 1168, 1992, 4081, 4082, 4000
1235, 1168, 1208, 1209, 1169, 4082, 4083, 4084, 4002
1236, 1169, 1209, 1210, 1170, 4084, 4085, 4086, 4004
1237, 1170, 1210, 1211, 1171, 4086, 4087, 4088, 4006
1238, 1171, 1211, 1212, 1172, 4088, 4089, 4090, 4008
1239, 1172, 1212, 1213, 1173, 4090, 4091, 4092, 4010
1240, 1173, 1213, 1214, 1174, 4092, 4093, 4094, 4012
1241, 1174, 1214, 1215, 1175, 4094, 4095, 4096, 4014
1242, 1175, 1215, 1216, 1176, 4096, 4097, 4098, 4016
1243, 1176, 1216, 1217, 1177, 4098, 4099, 4100, 4018
1244, 1177, 1217, 1218, 1178, 4100, 4101, 4102, 4020
1245, 1178, 1218, 1219, 1179, 4102, 4103, 4104, 4022
1246, 1179, 1219, 1220, 1180, 4104, 4105, 4106, 4024
1247, 1180, 1220, 1221, 1181, 4106, 4107, 4108, 4026
1248, 1181, 1221, 1222, 1182, 4108, 4109, 4110, 4028
1249, 1182, 1222, 1223, 1183, 4110, 4111, 4112, 4030
1250, 1183, 1223, 1224, 1184, 4112, 4113, 4114, 4032
1251, 1184, 1224, 1225, 1185, 4114, 4115, 4116, 4034
1252, 1185, 1225, 1226, 1186, 4116, 4117, 4118, 4036
1253, 1186, 1226, 1227, 1187, 4118, 4119, 4120, 4038
1254, 1187, 1227, 1228, 1188, 4120, 4121, 4122, 4040
1255, 1188, 1228, 1229, 1189, 4122, 4123, 4124, 4042
1256, 1189, 1229, 1230, 1190, 4124, 4125, 4126, 4044
1257, 1190, 1230, 1231, 1191, 4126, 4127, 4128, 4046
1258, 1191, 1231, 1232, 1192, 4128, 4129, 4130, 4048
1259, 1192, 1232, 1233, 1193, 4130, 4131, 4132, 4050
1260, 1193, 1233, 1234, 1194, 4132, 4133, 4134, 4052
1261, 1194, 1234, 1235, 1195, 4134, 4135, 4136, 4054
1262, 1195, 1235, 1236, 1196, 4136, 4137, 4138, 4056
1263, 1196, 1236, 1237, 1197, 4138, 4139, 4140, 4058
1264, 1197, 1237, 1238, 1198, 4140, 4141, 4142, 4060
1265, 1198, 1238, 1239, 1199, 4142, 4143, 4144, 4062
1266, 1199, 1239, 1240, 1200, 4144, 4145, 4146, 4064
1267, 1200, 1240, 1241, 1201, 4146, 4147, 4148, 4066
1268, 1201, 1241, 1242, 1202, 4148, 4149, 4150, 4068
1269, 1202, 1242, 1243, 1203, 4150, 4151, 4152, 4070
1270, 1203, 1243, 1244, 1204, 4152, 4153, 4154, 4072
1271, 1204, 1244, 1245, 1205, 4154, 4155, 4156, 4074
1272, 1205, 1245, 1246, 1206, 4156, 4157, 4158, 4076
1273, 1206, 1246, 1247, 1207, 4158, 4159, 4160, 4078
1274, 1207, 1247, 70, 69, 4160, 4161, 1992, 4080
1275, 70, 71, 1248, 1208, 1993, 4162, 4163, 4081
1276, 1208, 1248, 1249, 1209, 4163, 4164, 4165, 4083
1277, 1209, 1249, 1250, 1210, 4165, 4166, 4167, 4085
1278, 1210, 1250, 1251, 1211, 4167, 4168, 4169, 4087
1279, 1211, 1251, 1252, 1212, 4169, 4170, 4171, 4089
1280, 1212, 1252, 1253, 1213, 4171, 4172, 4173, 4091
1281, 1213, 1253, 1254, 1214, 4173, 4174, 4175, 4093
1282, 1214, 1254, 1255, 1215, 4175, 4176, 4177, 4095
1283, 1215, 1255, 1256, 1216, 4177, 4178, 4179, 4097
1284, 1216, 1256, 1257, 1217, 4179, 4180, 4181, 4099
1285, 1217, 1257, 1258, 1218, 4181, 4182, 4183, 4101
1286, 1218, 1258, 1259, 1219, 4183, 4184, 4185, 4103
1287, 1219, 1259, 1260, 1220, 4185, 4186, 4187, 4105
1288, 1220, 1260, 1261, 1221, 4187, 4188, 4189, 4107
1289, 1221, 1261, 1262, 1222, 4189, 4190, 4191, 4109
1290, 1222, 1262, 1263, 1223, 4191, 4192, 4193, 4111
1291, 1223, 1263, 1264, 1224, 4193, 4194, 4195, 4113
1292, 1224, 1264, 1265, 1225, 4195, 4196, 4197, 4115
1293, 1225, 1265, 1266, 1226, 4197, 4198, 4199, 4117
1294, 1226, 1266, 1267, 1227, 4199, 4200, 4201, 4119
1295, 1227, 1267, 1268, 1228, 4201, 4202, 4203, 4121
1296, 1228, 1268, 1269, 1229, 4203, 4204, 4205, 4123
1297, 1229, 1269, 1270, 1230, 4205, 4206, 4207, 4125
1298, 1230, 1270, 1271, 1231, 4207, 4208, 4209, 4127
1299, 1231, 1271, 1272, 1232, 4209, 4210, 4211, 4129
1300, 1232, 1272, 1273, 1233, 4211, 4212, 4213, 4131
1301, 1233, 1273, 1274, 1234, 4213, 4214, 4215, 4133
1302, 1234, 1274, 1275, 1235, 4215, 4216, 4217, 4135
1303, 1235, 1275, 1276, 1236, 4217, 4218, 4219, 4137
1304, 1236, 1276, 1277, 1237, 4219, 4220, 4221, 4139
1305, 1237, 1277, 1278, 1238, 4221, 4222, 4223, 4141
1306, 1238, 1278, 1279, 1239, 4223, 4224, 4225, 4143
1307, 1239, 1279, 1280, 1240, 4225, 4226, 4227, 4145
1308, 1240, 1280, 1281, 1241, 4227, 4228, 4229, 4147
1309, 1241, 1281, 1282, 1242, 4229, 4230, 4231, 4149
1310, 1242, 1282, 1283, 1243, 4231, 4232, 4233, 4151
1311, 1243, 1283, 1284, 1244, 4233, 4234, 4235, 4153
1312, 1244, 1284, 1285, 1245, 4235, 4236, 4237, 4155
1313, 1245, 1285, 1286, 1246, 4237, 4238, 4239, 4157
1314, 1246, 1286, 1287, 1247, 4239, 4240, 4241, 4159
1315, 1247, 1287, 71, 70, 4241, 4242, 1993, 4161
1316, 71, 72, 1288, 1248, 1994, 4243, 4244, 4162
1317, 1248, 1288, 1289, 1249, 4244, 4245, 4246, 4164
1318, 1249, 1289, 1290, 1250, 4246, 4247, 4248, 4166
1319, 1250, 1290, 1291, 1251, 4248, 4249, 4250, 4168
1320, 1251, 1291, 1292, 1252, 4250, 4251, 4252, 4170
1321, 1252, 1292, 1293, 1253, 4252, 4253, 4254, 4172
1322, 1253, 1293, 1294, 1254, 4254, 4255, 4256, 4174
1323, 1254, 1294, 1295, 1255, 4256, 4257, 4258, 4176
1324, 1255, 1295, 1296, 1256, 4258, 4259, 4260, 4178
1325, 1256, 1296, 1297, 1257, 4260, 4261, 4262, 4180
1326, 1257, 1297, 1298, 1258, 4262, 4263, 4264, 4182
1327, 1258, 1298, 1299, 1259, 4264, 4265, 4266, 4184
1328, 1259, 1299, 1300, 1260, 4266, 4267, 4268, 4186
1329, 1260, 1300, 1301, 1261, 4268, 4269, 4270, 4188
1330, 1261, 1301, 1302, 1262, 4270, 4271, 4272, 4190
1331, 1262, 1302, 1303, 1263, 4272, 4273, 4274, 4192
1332, 1263, 1303, 1304, 1264, 4274, 4275, 4276, 4194
1333, 1264, 1304, 1305, 1265, 4276, 4277, 4278, 4196
1334, 1265, 1305, 1306, 1266, 4278, 4279, 4280, 4198
1335, 1266, 1306, 1307, 1267, 4280, 4281, 4282, 4200
1336, 1267, 1307, 1308, 1268, 4282, 4283, 4284, 4202
1337, 1268, 1308, 1309, 1269, 4284, 4285, 4286, 4204
1338, 1269, 1309, 1310, 1270, 4286, 4287, 4288, 4206
1339, 1270, 1310, 1311, 1271, 4288, 4289, 4290, 4208
1340, 1271, 1311, 1312, 1272, 4290, 4291, 4292, 4210
1341, 1272, 1312, 1313, 1273, 4292, 4293, 4294, 4212
1342, 1273, 1313, 1314, 1274, 4294, 4295, 4296, 4214
1343, 1274, 1314, 1315, 1275, 4296, 4297, 4298, 4216
1344, 1275, 1315, 1316, 1276, 4298, 4299, 4300, 4218
1345, 1276, 1316, 1317, 1277, 4300, 4301, 4302, 4220
1346, 1277, 1317, 1318, 1278, 4302, 4303, 4304, 4222
1347, 1278, 1318, 1319, 1279, 4304, 4305, 4306, 4224
1348, 1279, 1319, 1320, 1280, 4306, 4307, 4308, 4226
1349, 1280, 1320, 1321, 1281, 4308, 4309, 4310, 4228
1350, 1281, 1321, 1322, 1282, 4310, 4311, 4312, 4230
1351, 1282, 1322, 1323, 1283, 4312, 4313, 4314, 4232
1352, 1283, 1323, 1324, 1284, 4314, 4315, 4316, 4234
1353, 1284, 1324, 1325, 1285, 4316, 4317, 4318, 4236
1354, 1285, 1325, 1326, 1286, 4318, 4319, 4320, 4238
1355, 1286, 1326, 1327, 1287, 4320, 4321, 4322, 4240
1356, 1287, 1327, 72, 71, 4322, 4323, 1994, 4242
1357, 72, 73, 1328, 1288, 1995, 4324, 4325, 4243
1358, 1288, 1328, 1329, 1289, 4325, 4326, 4327, 4245
1359, 1289, 1329, 1330, 1290, 4327, 4328, 4329, 4247
1360, 1290, 1330, 1331, 1291, 4329, 4330, 4331, 4249
1361, 1291, 1331, 1332, 1292, 4331, 4332, 4333, 4251
1362, 1292, 1332, 1333, 1293, 4333, 4334, 4335, 4253
1363, 1293, 1333, 1334, 1294, 4335, 4336, 4337, 4255
1364, 1294, 1334, 1335, 1295, 4337, 4338, 4339, 4257
1365, 1295, 1335, 1336, 1296, 4339, 4340, 4341, 4259
1366, 1296, 1336, 1337, 1297, 4341, 4342, 4343, 4261
1367, 1297, 1337, 1338, 1298, 4343, 4344, 4345, 4263
1368, 1298, 1338, 1339, 1299, 4345, 4346, 4347, 4265
1369, 1299, 1339, 1340, 1300, 4347, 4348, 4349, 4267
1370, 1300, 1340, 1341, 1301, 4349, 4350, 4351, 4269
1371, 1301, 1341, 1342, 1302, 4351, 4352, 4353, 4271
1372, 1302, 1342, 1343, 1303, 4353, 4354, 4355, 4273
1373, 1303, 1343, 1344, 1304, 4355, 4356, 4357, 4275
1374, 1304, 1344, 1345, 1305, 4357, 4358, 4359, 4277
1375, 1305, 1345, 1346, 1306, 4359, 4360, 4361, 4279
1376, 1306, 1346, 1347, 1307, 4361, 4362, 4363, 4281
1377, 1307, 1347, 1348, 1308, 4363, 4364, 4365, 4283
1378, 1308, 1348, 1349, 1309, 4365, 4366, 4367, 4285
1379, 1309, 1349, 1350, 1310, 4367, 4368, 4369, 4287
1380, 1310, 1350, 1351, 1311, 4369, 4370, 4371, 4289
1381, 1311, 1351, 1352, 1312, 4371, 4372, 4373, 4291
1382, 1312, 1352, 1353, 1313, 4373, 4374, 4375, 4293
1383, 1313, 1353, 1354, 1314, 4375, 4376, 4377, 4295
1384, 1314, 1354, 1355, 1315, 4377, 4378, 4379, 4297
1385, 1315, 1355, 1356, 1316, 4379, 4380, 4381, 4299
1386, 1316, 1356, 1357, 1317, 4381, 4382, 4383, 4301
1387, 1317, 1357, 1358, 1318, 4383, 4384, 4385, 4303
1388, 1318, 1358, 1359, 1319, 4385, 4386, 4387, 4305
1389, 1319, 1359, 1360, 1320, 4387, 4388, 4389, 4307
1390, 1320, 1360, 1361, 1321, 4389, 4390, 4391, 4309
1391, 1321, 1361, 1362, 1322, 4391, 4392, 4393, 4311
1392, 1322, 1362, 1363, 1323, 4393, 4394, 4395, 4313
1393, 1323, 1363, 1364, 1324, 4395, 4396, 4397, 4315
1394, 1324, 1364, 1365, 1325, 4397, 4398, 4399, 4317
1395, 1325, 1365, 1366, 1326, 4399, 4400, 4401, 4319
1396, 1326, 1366, 1367, 1327, 4401, 4402, 4403, 4321
1397, 1327, 1367, 73, 72, 4403, 4404, 1995, 4323
1398, 73, 74, 1368, 1328, 1996, 4405, 4406, 4324
1399, 1328, 1368, 1369, 1329, 4406, 4407, 4408, 4326
1400, 1329, 1369, 1370, 1330, 4408, 4409, 4410, 4328
1401, 1330, 1370, 1371, 1331, 4410, 4411, 4412, 4330
1402, 1331, 1371, 1372, 1332, 4412, 4413, 4414, 4332
1403, 1332, 1372, 1373, 1333, 4414, 4415, 4416, 4334
1404, 1333, 1373, 1374, 1334, 4416, 4417, 4418, 4336
1405, 1334, 1374, 1375, 1335, 4418, 4419, 4420, 4338
1406, 1335, 1375, 1376, 1336, 4420, 4421, 4422, 4340
1407, 1336, 1376, 1377, 1337, 4422, 4423, 4424, 4342
1408, 1337, 1377, 1378, 1338, 4424, 4425, 4426, 4344
1409, 1338, 1378, 1379, 1339, 4426, 4427, 4428, 4346
1410, 1339, 1379, 1380, 1340, 4428, 4429, 4430, 4348
1411, 1340, 1380, 1381, 1341, 4430, 4431, 4432, 4350
1412, 1341, 1381, 1382, 1342, 4432, 4433, 4434, 4352
1413, 1342, 1382, 1383, 1343, 4434, 4435, 4436, 4354
1414, 1343, 1383, 1384, 1344, 4436, 4437, 4438, 4356
1415, 1344, 1384, 1385, 1345, 4438, 4439, 4440, 4358
1416, 1345, 1385, 1386, 1346, 4440, 4441, 4442, 4360
1417, 1346, 1386, 1387, 1347, 4442, 4443, 4444, 4362
1418, 1347, 1387, 1388, 1348, 4444, 4445, 4446, 4364
1419, 1348, 1388, 1389, 1349, 4446, 4447, 4448, 4366
1420, 1349, 1389, 1390, 1350, 4448, 4449, 4450, 4368
1421, 1350, 1390, 1391, 1351, 4450, 4451, 4452, 4370
1422, 1351, 1391, 1392, 1352, 4452, 4453, 4454, 4372
1423, 1352, 1392, 1393, 1353, 4454, 4455, 4456, 4374
1424, 1353, 1393, 1394, 1354, 4456, 4457, 4458, 4376
1425, 1354, 1394, 1395, 1355, 4458, 4459, 4460, 4378
1426, 1355, 1395, 1396, 1356, 4460, 4461, 4462, 4380
1427, 1356, 1396, 1397, 1357, 4462, 4463, 4464, 4382
1428, 1357, 1397, 1398, 1358, 4464, 4465, 4466, 4384
1429, 1358, 1398, 1399, 1359, 4466, 4467, 4468, 4386
1430, 1359, 1399, 1400, 1360, 4468, 4469, 4470, 4388
1431, 1360, 1400, 1401, 1361, 4470, 4471, 4472, 4390
1432, 1361, 1401, 1402, 1362, 4472, 4473, 4474, 4392
1433, 1362, 1402, 1403, 1363, 4474, 4475, 4476, 4394
1434, 1363, 1403, 1404, 1364, 4476, 4477, 4478, 4396
1435, 1364, 1404, 1405, 1365, 4478, 4479, 4480, 4398
1436, 1365, 1405, 1406, 1366, 4480, 4481, 4482, 4400
1437, 1366, 1406, 1407, 1367, 4482, 4483, 4484, 4402
1438, 1367, 1407, 74, 73, 4484, 4485, 1996, 4404
1439, 74, 75, 1408, 1368, 1997, 4486, 4487, 4405
1440, 1368, 1408, 1409, 1369, 4487, 4488, 4489, 4407
1441, 1369, 1409, 1410, 1370, 4489, 4490, 4491, 4409
1442, 1370, 1410, 1411, 1371, 4491, 4492, 4493, 4411
1443, 1371, 1411, 1412, 1372, 4493, 4494, 4495, 4413
1444, 1372, 1412, 1413, 1373, 4495, 4496, 4497, 4415
1445, 1373, 1413, 1414, 1374, 4497, 4498, 4499, 4417
1446, 1374, 1414, 1415, 1375, 4499, 4500, 4501, 4419
1447, 1375, 1415, 1416, 1376, 4501, 4502, 4503, 4421
1448, 1376, 1416, 1417, 1377, 4503, 4504, 4505, 4423
1449, 1377, 1417, 1418, 1378, 4505, 4506, 4507, 4425
1450, 1378, 1418, 1419, 1379, 4507, 4508, 4509, 4427
1451, 1379, 1419, 1420, 1380, 4509, 4510, 4511, 4429
1452, 1380, 1420, 1421, 1381, 4511, 4512, 4513, 4431
1453, 1381, 1421, 1422, 1382, 4513, 4514, 4515, 4433
1454, 1382, 1422, 1423, 1383, 4515, 4516, 4517, 4435
1455, 1383, 1423, 1424, 1384, 4517, 4518, 4519, 4437
1456, 1384, 1424, 1425, 1385, 4519, 4520, 4521, 4439
1457, 1385, 1425, 1426, 1386, 4521, 4522, 4523, 4441
1458, 1386, 1426, 1427, 1387, 4523, 4524, 4525, 4443
1459, 1387, 1427, 1428, 1388, 4525, 4526, 4527, 4445
1460, 1388, 1428, 1429, 1389, 4527, 4528, 4529, 4447
1461, 1389, 1429, 1430, 1390, 4529, 4530, 4531, 4449
1462, 1390, 1430, 1431, 1391, 4531, 4532, 4533, 4451
1463, 1391, 1431, 1432, 1392, 4533, 4534, 4535, 4453
1464, 1392, 1432, 1433, 1393, 4535, 4536, 4537, 4455
1465, 1393, 1433, 1434, 1394, 4537, 4538, 4539, 4457
1466, 1394, 1434, 1435, 1395, 4539, 4540, 4541, 4459
1467, 1395, 1435, 1436, 1396, 4541, 4542, 4543, 4461
1468, 1396, 1436, 1437, 1397, 4543, 4544, 4545, 4463
1469, 1397, 1437, 1438, 1398, 4545, 4546, 4547, 4465
1470, 1398, 1438, 1439, 1399, 4547, 4548, 4549, 4467
1471, 1399, 1439, 1440, 1400, 4549, 4550, 4551, 4469
1472, 1400, 1440, 1441, 1401, 4551, 4552, 4553, 4471
1473, 1401, 1441, 1442, 1402, 4553, 4554, 4555, 4473
1474, 1402, 1442, 1443, 1403, 4555, 4556, 4557, 4475
1475, 1403, 1443, 1444, 1404, 4557, 4558, 4559, 4477
1476, 1404, 1444, 1445, 1405, 4559, 4560, 4561, 4479
1477, 1405, 1445, 1446, 1406, 4561, 4562, 4563, 4481
1478, 1406, 1446, 1447, 1407, 4563, 4564, 4565, 4483
1479, 1407, 1447, 75, 74, 4565, 4566, 1997, 4485
1480, 75, 76, 1448, 1408, 1998, 4567, 4568, 4486
1481, 1408, 1448, 1449, 1409, 4568, 4569, 4570, 4488
1482, 1409, 1449, 1450, 1410, 4570, 4571, 4572, 4490
1483, 1410, 1450, 1451, 1411, 4572, 4573, 4574, 4492
1484, 1411, 1451, 1452, 1412, 4574, 4575, 4576, 4494
1485, 1412, 1452, 1453, 1413, 4576, 4577, 4578, 4496
1486, 1413, 1453, 1454, 1414, 4578, 4579, 4580, 4498
1487, 1414, 1454, 1455, 1415, 4580, 4581, 4582, 4500
1488, 1415, 1455, 1456, 1416, 4582, 4583, 4584, 4502
1489, 1416, 1456, 1457, 1417, 4584, 4585, 4586, 4504
1490, 1417, 1457, 1458, 1418, 4586, 4587, 4588, 4506
1491, 1418, 1458, 1459, 1419, 4588, 4589, 4590, 4508
1492, 1419, 1459, 1460, 1420, 4590, 4591, 4592, 4510
1493, 1420, 1460, 1461, 1421, 4592, 4593, 4594, 4512
1494, 1421, 1461, 1462, 1422, 4594, 4595, 4596, 4514
1495, 1422, 1462, 1463, 1423, 4596, 4597, 4598, 4516
1496, 1423, 1463, 1464, 1424, 4598, 4599, 4600, 4518
1497, 1424, 1464, 1465, 1425, 4600, 4601, 4602, 4520
1498, 1425, 1465, 1466, 1426, 4602, 4603, 4604, 4522
1499, 1426, 1466, 1467, 1427, 4604, 4605, 4606, 4524
1500, 1427, 1467, 1468, 1428, 4606, 4607, 4608, 4526
1501, 1428, 1468, 1469, 1429, 4608, 4609, 4610, 4528
1502, 1429, 1469, 1470, 1430, 4610, 4611, 4612, 4530
1503, 1430, 1470, 1471, 1431, 4612, 4613, 4614, 4532
1504, 1431, 1471, 1472, 1432, 4614, 4615, 4616, 4534
1505, 1432, 1472, 1473, 1433, 4616, 4617, 4618, 4536
1506, 1433, 1473, 1474, 1434, 4618, 4619, 4620, 4538
1507, 1434, 1474, 1475, 1435, 4620, 4621, 4622, 4540
1508, 1435, 1475, 1476, 1436, 4622, 4623, 4624, 4542
1509, 1436, 1476, 1477, 1437, 4624, 4625, 4626, 4544
1510, 1437, 1477, 1478, 1438, 4626, 4627, 4628, 4546
1511, 1438, 1478, 1479, 1439, 4628, 4629, 4630, 4548
1512, 1439, 1479, 1480, 1440, 4630, 4631, 4632, 4550
1513, 1440, 1480, 1481, 1441, 4632, 4633, 4634, 4552
1514, 1441, 1481, 1482, 1442, 4634, 4635, 4636, 4554
1515, 1442, 1482, 1483, 1443, 4636, 4637, 4638, 4556
1516, 1443, 1483, 1484, 1444, 4638, 4639, 4640, 4558
1517, 1444, 1484, 1485, 1445, 4640, 4641, 4642, 4560
1518, 1445, 1485, 1486, 1446, 4642, 4643, 4644, 4562
1519, 1446, 1486, 1487, 1447, 4644, 4645, 4646, 4564
1520, 1447, 1487, 76, 75, 4646, 4647, 1998, 4566
1521, 76, 77, 1488, 1448, 1999, 4648, 4649, 4567
1522, 1448, 1488, 1489, 1449, 4649, 4650, 4651, 4569
1523, 1449, 1489, 1490, 1450, 4651, 4652, 4653, 4571
1524, 1450, 1490, 1491, 1451, 4653, 4654, 4655, 4573
1525, 1451, 1491, 1492, 1452, 4655, 4656, 4657, 4575
1526, 1452, 1492, 1493, 1453, 4657, 4658, 4659, 4577
1527, 1453, 1493, 1494, 1454, 4659, 4660, 4661, 4579
1528, 1454, 1494, 1495, 1455, 4661, 4662, 4663, 4581
1529, 1455, 1495, 1496, 1456, 4663, 4664, 4665, 4583
1530, 1456, 1496, 1497, 1457, 4665, 4666, 4667, 4585
1531, 1457, 1497, 1498, 1458, 4667, 4668, 4669, 4587
1532, 1458, 1498, 1499, 1459, 4669, 4670, 4671, 4589
1533, 1459, 1499, 1500, 1460, 4671, 4672, 4673, 4591
1534, 1460, 1500, 1501, 1461, 4673, 4674, 4675, 4593
1535, 1461, 1501, 1502, 1462, 4675, 4676, 4677, 4595
1536, 1462, 1502, 1503, 1463, 4677, 4678, 4679, 4597
1537, 1463, 1503, 1504, 1464, 4679, 4680, 4681, 4599
1538, 1464, 1504, 1505, 1465, 4681, 4682, 4683, 4601
1539, 1465, 1505, 1506, 1466, 4683, 4684, 4685, 4603
1540, 1466, 1506, 1507, 1467, 4685, 4686, 4687, 4605
1541, 1467, 1507, 1508, 1468, 4687, 4688, 4689, 4607
1542, 1468, 1508, 1509, 1469, 4689, 4690, 4691, 4609
1543, 1469, 1509, 1510, 1470, 4691, 4692, 4693, 4611
1544, 1470, 1510, 1511, 1471, 4693, 4694, 4695, 4613
1545, 1471, 1511, 1512, 1472, 4695, 4696, 4697, 4615
1546, 1472, 1512, 1513, 1473, 4697, 4698, 4699, 4617
1547, 1473, 1513, 1514, 1474, 4699, 4700, 4701, 4619
1548, 1474, 1514, 1515, 1475, 4701, 4702, 4703, 4621
1549, 1475, 1515, 1516, 1476, 4703, 4704, 4705, 4623
1550, 1476, 1516, 1517, 1477, 4705, 4706, 4707, 4625
1551, 1477, 1517, 1518, 1478, 4707, 4708, 4709, 4627
1552, 1478, 1518, 1519, 1479, 4709, 4710, 4711, 4629
1553, 1479, 1519, 1520, 1480, 4711, 4712, 4713, 4631
1554, 1480, 1520, 1521, 1481, 4713, 4714, 4715, 4633
1555, 1481, 1521, 1522, 1482, 4715, 4716, 4717, 4635
1556, 1482, 1522, 1523, 1483, 4717, 4718, 4719, 4637
1557, 1483, 1523, 1524, 1484, 4719, 4720, 4721, 4639
1558, 1484, 1524, 1525, 1485, 4721, 4722, 4723, 4641
1559, 1485, 1525, 1526, 1486, 4723, 4724, 4725, 4643
1560, 1486, 1526, 1527, 1487, 4725, 4726, 4727, 4645
1561, 1487, 1527, 77, 76, 4727, 4728, 1999, 4647
1562, 77, 78, 1528, 1488, 2000, 4729, 4730, 4648
1563, 1488, 1528, 1529, 1489, 4730, 4731, 4732, 4650
1564, 1489, 1529, 1530, 1490, 4732, 4733, 4734, 4652
1565, 1490, 1530, 1531, 1491, 4734, 4735, 4736, 4654
1566, 1491, 1531, 1532, 1492, 4736, 4737, 4738, 4656
1567, 1492, 1532, 1533, 1493, 4738, 4739, 4740, 4658
1568, 1493, 1533, 1534, 1494, 4740, 4741, 4742, 4660
1569, 1494, 1534, 1535, 1495, 4742, 4743, 4744, 4662
1570, 1495, 1535, 1536, 1496, 4744, 4745, 4746, 4664
1571, 1496, 1536, 1537, 1497, 4746, 4747, 4748, 4666
1572, 1497, 1537, 1538, 1498, 4748, 4749, 4750, 4668
1573, 1498, 1538, 1539, 1499, 4750, 4751, 4752, 4670
1574, 1499, 1539, 1540, 1500, 4752, 4753, 4754, 4672
1575, 1500, 1540, 1541, 1501, 4754, 4755, 4756, 4674
1576, 1501, 1541, 1542, 1502, 4756, 4757, 4758, 4676
1577, 1502, 1542, 1543, 1503, 4758, 4759, 4760, 4678
1578, 1503, 1543, 1544, 1504, 4760, 4761, 4762, 4680
1579, 1504, 1544, 1545, 1505, 4762, 4763, 4764, 4682
1580, 1505, 1545, 1546, 1506, 4764, 4765, 4766, 4684
1581, 1506, 1546, 1547, 1507, 4766, 4767, 4768, 4686
1582, 1507, 1547, 1548, 1508, 4768, 4769, 4770, 4688
1583, 1508, 1548, 1549, 1509, 4770, 4771, 4772, 4690
1584, 1509, 1549, 1550, 1510, 4772, 4773, 4774, 4692
1585, 1510, 1550, 1551, 1511, 4774, 4775, 4776, 4694
1586, 1511, 1551, 1552, 1512, 4776, 4777, 4778, 4696
1587, 1512, 1552, 1553, 1513, 4778, 4779, 4780, 4698
1588, 1513, 1553, 1554, 1514, 4780, 4781, 4782, 4700
1589, 1514, 1554, 1555, 1515, 4782, 4783, 4784, 4702
1590, 1515, 1555, 1556, 1516, 4784, 4785, 4786, 4704
1591, 1516, 1556, 1557, 1517, 4786, 4787, 4788, 4706
1592, 1517, 1557, 1558, 1518, 4788, 4789, 4790, 4708
1593, 1518, 1558, 1559, 1519, 4790, 4791, 4792, 4710
1594, 1519, 1559, 1560, 1520, 4792, 4793, 4794, 4712
1595, 1520, 1560, 1561, 1521, 4794, 4795, 4796, 4714
1596, 1521, 1561, 1562, 1522, 4796, 4797, 4798, 4716
1597, 1522, 1562, 1563, 1523, 4798, 4799, 4800, 4718
1598, 1523, 1563, 1564, 1524, 4800, 4801, 4802, 4720
1599, 1524, 1564, 1565, 1525, 4802, 4803, 4804, 4722
1600, 1525, 1565, 1566, 1526, 4804, 4805, 4806, 4724
1601, 1526, 1566, 1567, 1527, 4806, 4807, 4808, 4726
1602, 1527, 1567, 78, 77, 4808, 4809, 2000, 4728
1603, 78, 79, 1568, 1528, 2001, 4810, 4811, 4729
1604, 1528, 1568, 1569, 1529, 4811, 4812, 4813, 4731
1605, 1529, 1569, 1570, 1530, 4813, 4814, 4815, 4733
1606, 1530, 1570, 1571, 1531, 4815, 4816, 4817, 4735
1607, 1531, 1571, 1572, 1532, 4817, 4818, 4819, 4737
1608, 1532, 1572, 1573, 1533, 4819, 4820, 4821, 4739
1609, 1533, 1573, 1574, 1534, 4821, 4822, 4823, 4741
1610, 1534, 1574, 1575, 1535, 4823, 4824, 4825, 4743
1611, 1535, 1575, 1576, 1536, 4825, 4826, 4827, 4745
1612, 1536, 1576, 1577, 1537, 4827, 4828, 4829, 4747
1613, 1537, 1577, 1578, 1538, 4829, 4830, 4831, 4749
1614, 1538, 1578, 1579, 1539, 4831, 4832, 4833, 4751
1615, 1539, 1579, 1580, 1540, 4833, 4834, 4835, 4753
1616, 1540, 1580, 1581, 1541, 4835, 4836, 4837, 4755
1617, 1541, 1581, 1582, 1542, 4837, 4838, 4839, 4757
1618, 1542, 1582, 1583, 1543, 4839, 4840, 4841, 4759
1619, 1543, 1583, 1584, 1544, 4841, 4842, 4843, 4761
1620, 1544, 1584, 1585, 1545, 4843, 4844, 4845, 4763
1621, 1545, 1585, 1586, 1546, 4845, 4846, 4847, 4765
1622, 1546, 1586, 1587, 1547, 4847, 4848, 4849, 4767
1623, 1547, 1587, 1588, 1548, 4849, 4850, 4851, 4769
1624, 1548, 1588, 1589, 1549, 4851, 4852, 4853, 4771
1625, 1549, 1589, 1590, 1550, 4853, 4854, 4855, 4773
1626, 1550, 1590, 1591, 1551, 4855, 4856, 4857, 4775
1627, 1551, 1591, 1592, 1552, 4857, 4858, 4859, 4777
1628, 1552, 1592, 1593, 1553, 4859, 4860, 4861, 4779
1629, 1553, 1593, 1594, 1554, 4861, 4862, 4863, 4781
1630, 1554, 1594, 1595, 1555, 4863, 4864, 4865, 4783
1631, 1555, 1595, 1596, 1556, 4865, 4866, 4867, 4785
1632, 1556, 1596, 1597, 1557, 4867, 4868, 4869, 4787
1633, 1557, 1597, 1598, 1558, 4869, 4870, 4871, 4789
1634, 1558, 1598, 1599, 1559, 4871, 4872, 4873, 4791
1635, 1559, 1599, 1600, 1560, 4873, 4874, 4875, 4793
1636, 1560, 1600, 1601, 1561, 4875, 4876, 4877, 4795
1637, 1561, 1601, 1602, 1562, 4877, 4878, 4879, 4797
1638, 1562, 1602, 1603, 1563, 4879, 4880, 4881, 4799
1639, 1563, 1603, 1604, 1564, 4881, 4882, 4883, 4801
1640, 1564, 1604, 1605, 1565, 4883, 4884, 4885, 4803
1641, 1565, 1605, 1606, 1566, 4885, 4886, 4887, 4805
1642, 1566, 1606, 1607, 1567, 4887, 4888, 4889, 4807
1643, 1567, 1607, 79, 78, 4889, 4890, 2001, 4809
1644, 79, 2, 119, 1568, 2002, 2043, 4891, 4810
1645, 1568, 119, 118, 1569, 4891, 2042, 4892, 4812
1646, 1569, 118, 117, 1570, 4892, 2041, 4893, 4814
1647, 1570, 117, 116, 1571, 4893, 2040, 4894, 4816
1648, 1571, 116, 115, 1572, 4894, 2039, 4895, 4818
1649, 1572, 115, 114, 1573, 4895, 2038, 4896, 4820
1650, 1573, 114, 113, 1574, 4896, 2037, 4897, 4822
1651, 1574, 113, 112, 1575, 4897, 2036, 4898, 4824
1652, 1575, 112, 111, 1576, 4898, 2035, 4899, 4826
1653, 1576, 111, 110, 1577, 4899, 2034, 4900, 4828
1654, 1577, 110, 109, 1578, 4900, 2033, 4901, 4830
1655, 1578, 109, 108, 1579, 4901, 2032, 4902, 4832
1656, 1579, 108, 107, 1580, 4902, 2031, 4903, 4834
1657, 1580, 107, 106, 1581, 4903, 2030, 4904, 4836
1658, 1581, 106, 105, 1582, 4904, 2029, 4905, 4838
1659, 1582, 105, 104, 1583, 4905, 2028, 4906, 4840
1660, 1583, 104, 103, 1584, 4906, 2027, 4907, 4842
1661, 1584, 103, 102, 1585, 4907, 2026, 4908, 4844
1662, 1585, 102, 101, 1586, 4908, 2025, 4909, 4846
1663, 1586, 101, 100, 1587, 4909, 2024, 4910, 4848
1664, 1587, 100, 99, 1588, 4910, 2023, 4911, 4850
1665, 1588, 99, 98, 1589, 4911, 2022, 4912, 4852
1666, 1589, 98, 97, 1590, 4912, 2021, 4913, 4854
1667, 1590, 97, 96, 1591, 4913, 2020, 4914, 4856
1668, 1591, 96, 95, 1592, 4914, 2019, 4915, 4858
1669, 1592, 95, 94, 1593, 4915, 2018, 4916, 4860
1670, 1593, 94, 93, 1594, 4916, 2017, 4917, 4862
1671, 1594, 93, 92, 1595, 4917, 2016, 4918, 4864
1672, 1595, 92, 91, 1596, 4918, 2015, 4919, 4866
1673, 1596, 91, 90, 1597, 4919, 2014, 4920, 4868
1674, 1597, 90, 89, 1598, 4920, 2013, 4921, 4870
1675, 1598, 89, 88, 1599, 4921, 2012, 4922, 4872
1676, 1599, 88, 87, 1600, 4922, 2011, 4923, 4874
1677, 1600, 87, 86, 1601, 4923, 2010, 4924, 4876
1678, 1601, 86, 85, 1602, 4924, 2009, 4925, 4878
1679, 1602, 85, 84, 1603, 4925, 2008, 4926, 4880
1680, 1603, 84, 83, 1604, 4926, 2007, 4927, 4882
1681, 1604, 83, 82, 1605, 4927, 2006, 4928, 4884
1682, 1605, 82, 81, 1606, 4928, 2005, 4929, 4886
1683, 1606, 81, 80, 1607, 4929, 2004, 4930, 4888
1684, 1607, 80, 2, 79, 4930, 2003, 2002, 4890
1685, 3, 160, 1608, 159, 2085, 4931, 4932, 2084
1686, 159, 1608, 1609, 158, 4932, 4933, 4934, 2083
1687, 158, 1609, 1610, 157, 4934, 4935, 4936, 2082
1688, 157, 1610, 1611, 156, 4936, 4937, 4938, 2081
1689, 156, 1611, 1612, 155, 4938, 4939, 4940, 2080
1690, 155, 1612, 1613, 154, 4940, 4941, 4942, 2079
1691, 154, 1613, 1614, 153, 4942, 4943, 4944, 2078
1692, 153, 1614, 1615, 152, 4944, 4945, 4946, 2077
1693, 152, 1615, 1616, 151, 4946, 4947, 4948, 2076
1694, 151, 1616, 1617, 150, 4948, 4949, 4950, 2075
1695, 150, 1617, 1618, 149, 4950, 4951, 4952, 2074
1696, 149, 1618, 1619, 148, 4952, 4953, 4954, 2073
1697, 148, 1619, 1620, 147, 4954, 4955, 4956, 2072
1698, 147, 1620, 1621, 146, 4956, 4957, 4958, 2071
1699, 146, 1621, 1622, 145, 4958, 4959, 4960, 2070
1700, 145, 1622, 1623, 144, 4960, 4961, 4962, 2069
1701, 144, 1623, 1624, 143, 4962, 4963, 4964, 2068
1702, 143, 1624, 1625, 142, 4964, 4965, 4966, 2067
1703, 142, 1625, 1626, 141, 4966, 4967, 4968, 2066
1704, 141, 1626, 1627, 140, 4968, 4969, 4970, 2065
1705, 140, 1627, 1628, 139, 4970, 4971, 4972, 2064
1706, 139, 1628, 1629, 138, 4972, 4973, 4974, 2063
1707, 138, 1629, 1630, 137, 4974, 4975, 4976, 2062
1708, 137, 1630, 1631, 136, 4976, 4977, 4978, 2061
1709, 136, 1631, 1632, 135, 4978, 4979, 4980, 2060
1710, 135, 1632, 1633, 134, 4980, 4981, 4982, 2059
1711, 134, 1633, 1634, 133, 4982, 4983, 4984, 2058
1712, 133, 1634, 1635, 132, 4984, 4985, 4986, 2057
1713, 132, 1635, 1636, 131, 4986, 4987, 4988, 2056
1714, 131, 1636, 1637, 130, 4988, 4989, 4990, 2055
1715, 130, 1637, 1638, 129, 4990, 4991, 4992, 2054
1716, 129, 1638, 1639, 128, 4992, 4993, 4994, 2053
1717, 128, 1639, 1640, 127, 4994, 4995, 4996, 2052
1718, 127, 1640, 1641, 126, 4996, 4997, 4998, 2051
1719, 126, 1641, 1642, 125, 4998, 4999, 5000, 2050
1720, 125, 1642, 1643, 124, 5000, 5001, 5002, 2049
1721, 124, 1643, 1644, 123, 5002, 5003, 5004, 2048
1722, 123, 1644, 1645, 122, 5004, 5005, 5006, 2047
1723, 122, 1645, 1646, 121, 5006, 5007, 5008, 2046
1724, 121, 1646, 1647, 120, 5008, 5009, 5010, 2045
1725, 120, 1647, 160, 3, 5010, 5011, 2085, 2044
1726, 160, 4, 200, 1608, 2086, 2127, 5012, 4931
1727, 1608, 200, 199, 1609, 5012, 2126, 5013, 4933
1728, 1609, 199, 198, 1610, 5013, 2125, 5014, 4935
1729, 1610, 198, 197, 1611, 5014, 2124, 5015, 4937
1730, 1611, 197, 196, 1612, 5015, 2123, 5016, 4939
1731, 1612, 196, 195, 1613, 5016, 2122, 5017, 4941
1732, 1613, 195, 194, 1614, 5017, 2121, 5018, 4943
1733, 1614, 194, 193, 1615, 5018, 2120, 5019, 4945
1734, 1615, 193, 192, 1616, 5019, 2119, 5020, 4947
1735, 1616, 192, 191, 1617, 5020, 2118, 5021, 4949
1736, 1617, 191, 190, 1618, 5021, 2117, 5022, 4951
1737, 1618, 190, 189, 1619, 5022, 2116, 5023, 4953
1738, 1619, 189, 188, 1620, 5023, 2115, 5024, 4955
1739, 1620, 188, 187, 1621, 5024, 2114, 5025, 4957
1740, 1621, 187, 186, 1622, 5025, 2113, 5026, 4959
1741, 1622, 186, 185, 1623, 5026, 2112, 5027, 4961
1742, 1623, 185, 184, 1624, 5027, 2111, 5028, 4963
1743, 1624, 184, 183, 1625, 5028, 2110, 5029, 4965
1744, 1625, 183, 182, 1626, 5029, 2109, 5030, 4967
1745, 1626, 182, 181, 1627, 5030, 2108, 5031, 4969
1746, 1627, 181, 180, 1628, 5031, 2107, 5032, 4971
1747, 1628, 180, 179, 1629, 5032, 2106, 5033, 4973
1748, 1629, 179, 178, 1630, 5033, 2105, 5034, 4975
1749, 1630, 178, 177, 1631, 5034, 2104, 5035, 4977
1750, 1631, 177, 176, 1632, 5035, 2103, 5036, 4979
1751, 1632, 176, 175, 1633, 5036, 2102, 5037, 4981
1752, 1633, 175, 174, 1634, 5037, 2101, 5038, 4983
1753, 1634, 174, 173, 1635, 5038, 2100, 5039, 4985
1754, 1635, 173, 172, 1636, 5039, 2099, 5040, 4987
1755, 1636, 172, 171, 1637, 5040, 2098, 5041, 4989
1756, 1637, 171, 170, 1638, 5041, 2097, 5042, 4991
1757, 1638, 170, 169, 1639, 5042, 2096, 5043, 4993
1758, 1639, 169, 168, 1640, 5043, 2095, 5044, 4995
1759, 1640, 168, 167, 1641, 5044, 2094, 5045, 4997
1760, 1641, 167, 166, 1642, 5045, 2093, 5046, 4999
1761, 1642, 166, 165, 1643, 5046, 2092, 5047, 5001
1762, 1643, 165, 164, 1644, 5047, 2091, 5048, 5003
1763, 1644, 164, 163, 1645, 5048, 2090, 5049, 5005
1764, 1645, 163, 162, 1646, 5049, 2089, 5050, 5007
1765, 1646, 162, 161, 1647, 5050, 2088, 5051, 5009
1766, 1647, 161, 4, 160, 5051, 2087, 2086, 5011
1767, 5, 241, 1648, 240, 2169, 5052, 5053, 2168
1768, 240, 1648, 1649, 239, 5053, 5054, 5055, 2167
1769, 239, 1649, 1650, 238, 5055, 5056, 5057, 2166
1770, 238, 1650, 1651, 237, 5057, 5058, 5059, 2165
1771, 237, 1651, 1652, 236, 5059, 5060, 5061, 2164
1772, 236, 1652, 1653, 235, 5061, 5062, 5063, 2163
1773, 235, 1653, 1654, 234, 5063, 5064, 5065, 2162
1774, 234, 1654, 1655, 233, 5065, 5066, 5067, 2161
1775, 233, 1655, 1656, 232, 5067, 5068, 5069, 2160
1776, 232, 1656, 1657, 231, 5069, 5070, 5071, 2159
1777, 231, 1657, 1658, 230, 5071, 5072, 5073, 2158
1778, 230, 1658, 1659, 229, 5073, 5074, 5075, 2157
1779, 229, 1659, 1660, 228, 5075, 5076, 5077, 2156
1780, 228, 1660, 1661, 227, 5077, 5078, 5079, 2155
1781, 227, 1661, 1662, 226, 5079, 5080, 5081, 2154
1782, 226, 1662, 1663, 225, 5081, 5082, 5083, 2153
1783, 225, 1663, 1664, 224, 5083, 5084, 5085, 2152
1784, 224, 1664, 1665, 223, 5085, 5086, 5087, 2151
1785, 223, 1665, 1666, 222, 5087, 5088, 5089, 2150
1786, 222, 1666, 1667, 221, 5089, 5090, 5091, 2149
1787, 221, 1667, 1668, 220, 5091, 5092, 5093, 2148
1788, 220, 1668, 1669, 219, 5093, 5094, 5095, 2147
1789, 219, 1669, 1670, 218, 5095, 5096, 5097, 2146
1790, 218, 1670, 1671, 217, 5097, 5098, 5099, 2145
1791, 217, 1671, 1672, 216, 5099, 5100, 5101, 2144
1792, 216, 1672, 1673, 215, 5101, 5102, 5103, 2143
1793, 215, 1673, 1674, 214, 5103, 5104, 5105, 2142
1794, 214, 1674, 1675, 213, 5105, 5106, 5107, 2141
1795, 213, 1675, 1676, 212, 5107, 5108, 5109, 2140
1796, 212, 1676, 1677, 211, 5109, 5110, 5111, 2139
1797, 211, 1677, 1678, 210, 5111, 5112, 5113, 2138
1798, 210, 1678, 1679, 209, 5113, 5114, 5115, 2137
1799, 209, 1679, 1680, 208, 5115, 5116, 5117, 2136
1800, 208, 1680, 1681, 207, 5117, 5118, 5119, 2135
1801, 207, 1681, 1682, 206, 5119, 5120, 5121, 2134
1802, 206, 1682, 1683, 205, 5121, 5122, 5123, 2133
1803, 205, 1683, 1684, 204, 5123, 5124, 5125, 2132
1804, 204, 1684, 1685, 203, 5125, 5126, 5127, 2131
1805, 203, 1685, 1686, 202, 5127, 5128, 5129, 2130
1806, 202, 1686, 1687, 201, 5129, 5130, 5131, 2129
1807, 201, 1687, 241, 5, 5131, 5132, 2169, 2128
1808, 241, 242, 1688, 1648, 2170, 5133, 5134, 5052
1809, 1648, 1688, 1689, 1649, 5134, 5135, 5136, 5054
1810, 1649, 1689, 1690, 1650, 5136, 5137, 5138, 5056
1811, 1650, 1690, 1691, 1651, 5138, 5139, 5140, 5058
1812, 1651, 1691, 1692, 1652, 5140, 5141, 5142, 5060
1813, 1652, 1692, 1693, 1653, 5142, 5143, 5144, 5062
1814, 1653, 1693, 1694, 1654, 5144, 5145, 5146, 5064
1815, 1654, 1694, 1695, 1655, 5146, 5147, 5148, 5066
1816, 1655, 1695, 1696, 1656, 5148, 5149, 5150, 5068
1817, 1656, 1696, 1697, 1657, 5150, 5151, 5152, 5070
1818, 1657, 1697, 1698, 1658, 5152, 5153, 5154, 5072
1819, 1658, 1698, 1699, 1659, 5154, 5155, 5156, 5074
1820, 1659, 1699, 1700, 1660, 5156, 5157, 5158, 5076
1821, 1660, 1700, 1701, 1661, 5158, 5159, 5160, 5078
1822, 1661, 1701, 1702, 1662, 5160, 5161, 5162, 5080
1823, 1662, 1702, 1703, 1663, 5162, 5163, 5164, 5082
1824, 1663, 1703, 1704, 1664, 5164, 5165, 5166, 5084
1825, 1664, 1704, 1705, 1665, 5166, 5167, 5168, 5086
1826, 1665, 1705, 1706, 1666, 5168, 5169, 5170, 5088
1827, 1666, 1706, 1707, 1667, 5170, 5171, 5172, 5090
1828, 1667, 1707, 1708, 1668, 5172, 5173, 5174, 5092
1829, 1668, 1708, 1709, 1669, 5174, 5175, 5176, 5094
1830, 1669, 1709, 1710, 1670, 5176, 5177, 5178, 5096
1831, 1670, 1710, 1711, 1671, 5178, 5179, 5180, 5098
1832, 1671, 1711, 1712, 1672, 5180, 5181, 5182, 5100
1833, 1672, 1712, 1713, 1673, 5182, 5183, 5184, 5102
1834, 1673, 1713, 1714, 1674, 5184, 5185, 5186, 5104
1835, 1674, 1714, 1715, 1675, 5186, 5187, 5188, 5106
1836, 1675, 1715, 1716, 1676, 5188, 5189, 5190, 5108
1837, 1676, 1716, 1717, 1677, 5190, 5191, 5192, 5110
1838, 1677, 1717, 1718, 1678, 5192, 5193, 5194, 5112
1839, 1678, 1718, 1719, 1679, 5194, 5195, 5196, 5114
1840, 1679, 1719, 1720, 1680, 5196, 5197, 5198, 5116
1841, 1680, 1720, 1721, 1681, 5198, 5199, 5200, 5118
1842, 1681, 1721, 1722, 1682, 5200, 5201, 5202, 5120
1843, 1682, 1722, 1723, 1683, 5202, 5203, 5204, 5122
1844, 1683, 1723, 1724, 1684, 5204, 5205, 5206, 5124
1845, 1684, 1724, 1725, 1685, 5206, 5207, 5208, 5126
1846, 1685, 1725, 1726, 1686, 5208, 5209, 5210, 5128
1847, 1686, 1726, 1727, 1687, 5210, 5211, 5212, 5130
1848, 1687, 1727, 242, 241, 5212, 5213, 2170, 5132
1849, 242, 243, 1728, 1688, 2171, 5214, 5215, 5133
1850, 1688, 1728, 1729, 1689, 5215, 5216, 5217, 5135
1851, 1689, 1729, 1730, 1690, 5217, 5218, 5219, 5137
1852, 1690, 1730, 1731, 1691, 5219, 5220, 5221, 5139
1853, 1691, 1731, 1732, 1692, 5221, 5222, 5223, 5141
1854, 1692, 1732, 1733, 1693, 5223, 5224, 5225, 5143
1855, 1693, 1733, 1734, 1694, 5225, 5226, 5227, 5145
1856, 1694, 1734, 1735, 1695, 5227, 5228, 5229, 5147
1857, 1695, 1735, 1736, 1696, 5229, 5230, 5231, 5149
1858, 1696, 1736, 1737, 1697, 5231, 5232, 5233, 5151
1859, 1697, 1737, 1738, 1698, 5233, 5234, 5235, 5153
1860, 1698, 1738, 1739, 1699, 5235, 5236, 5237, 5155
1861, 1699, 1739, 1740, 1700, 5237, 5238, 5239, 5157
1862, 1700, 1740, 1741, 1701, 5239, 5240, 5241, 5159
1863, 1701, 1741, 1742, 1702, 5241, 5242, 5243, 5161
1864, 1702, 1742, 1743, 1703, 5243, 5244, 5245, 5163
1865, 1703, 1743, 1744, 1704, 5245, 5246, 5247, 5165
1866, 1704, 1744, 1745, 1705, 5247, 5248, 5249, 5167
1867, 1705, 1745, 1746, 1706, 5249, 5250, 5251, 5169
1868, 1706, 1746, 1747, 1707, 5251, 5252, 5253, 5171
1869, 1707, 1747, 1748, 1708, 5253, 5254, 5255, 5173
1870, 1708, 1748, 1749, 1709, 5255, 5256, 5257, 5175
1871, 1709, 1749, 1750, 1710, 5257, 5258, 5259, 5177
1872, 1710, 1750, 1751, 1711, 5259, 5260, 5261, 5179
1873, 1711, 1751, 1752, 1712, 5261, 5262, 5263, 5181
1874, 1712, 1752, 1753, 1713, 5263, 5264, 5265, 5183
1875, 1713, 1753, 1754, 1714, 5265, 5266, 5267, 5185
1876, 1714, 1754, 1755, 1715, 5267, 5268, 5269, 5187
1877, 1715, 1755, 1756, 1716, 5269, 5270, 5271, 5189
1878, 1716, 1756, 1757, 1717, 5271, 5272, 5273, 5191
1879, 1717, 1757, 1758, 1718, 5273, 5274, 5275, 5193
1880, 1718, 1758, 1759, 1719, 5275, 5276, 5277, 5195
1881, 1719, 1759, 1760, 1720, 5277, 5278, 5279, 5197
1882, 1720, 1760, 1761, 1721, 5279, 5280, 5281, 5199
1883, 1721, 1761, 1762, 1722, 5281, 5282, 5283, 5201
1884, 1722, 1762, 1763, 1723, 5283, 5284, 5285, 5203
1885, 1723, 1763, 1764, 1724, 5285, 5286, 5287, 5205
1886, 1724, 1764, 1765, 1725, 5287, 5288, 5289, 5207
1887, 1725, 1765, 1766, 1726, 5289, 5290, 5291, 5209
1888, 1726, 1766, 1767, 1727, 5291, 5292, 5293, 5211
1889, 1727, 1767, 243, 242, 5293, 5294, 2171, 5213
1890, 243, 244, 1768, 1728, 2172, 5295, 5296, 5214
1891, 1728, 1768, 1769, 1729, 5296, 5297, 5298, 5216
1892, 1729, 1769, 1770, 1730, 5298, 5299, 5300, 5218
1893, 1730, 1770, 1771, 1731, 5300, 5301, 5302, 5220
1894, 1731, 1771, 1772, 1732, 5302, 5303, 5304, 5222
1895, 1732, 1772, 1773, 1733, 5304, 5305, 5306, 5224
1896, 1733, 1773, 1774, 1734, 5306, 5307, 5308, 5226
1897, 1734, 1774, 1775, 1735, 5308, 5309, 5310, 5228
1898, 1735, 1775, 1776, 1736, 5310, 5311, 5312, 5230
1899, 1736, 1776, 1777, 1737, 5312, 5313, 5314, 5232
1900, 1737, 1777, 1778, 1738, 5314, 5315, 5316, 5234
1901, 1738, 1778, 1779, 1739, 5316, 5317, 5318, 5236
1902, 1739, 1779, 1780, 1740, 5318, 5319, 5320, 5238
1903, 1740, 1780, 1781, 1741, 5320, 5321, 5322, 5240
1904, 1741, 1781, 1782, 1742, 5322, 5323, 5324, 5242
1905, 1742, 1782, 1783, 1743, 5324, 5325, 5326, 5244
1906, 1743, 1783, 1784, 1744, 5326, 5327, 5328, 5246
1907, 1744, 1784, 1785, 1745, 5328, 5329, 5330, 5248
1908, 1745, 1785, 1786, 1746, 5330, 5331, 5332, 5250
1909, 1746, 1786, 1787, 1747, 5332, 5333, 5334, 5252
1910, 1747, 1787, 1788, 1748, 5334, 5335, 5336, 5254
1911, 1748, 1788, 1789, 1749, 5336, 5337, 5338, 5256
1912, 1749, 1789, 1790, 1750, 5338, 5339, 5340, 5258
1913, 1750, 1790, 1791, 1751, 5340, 5341, 5342, 5260
1914, 1751, 1791, 1792, 1752, 5342, 5343, 5344, 5262
1915, 1752, 1792, 1793, 1753, 5344, 5345, 5346, 5264
1916, 1753, 1793, 1794, 1754, 5346, 5347, 5348, 5266
1917, 1754, 1794, 1795, 1755, 5348, 5349, 5350, 5268
1918, 1755, 1795, 1796, 1756, 5350, 5351, 5352, 5270
1919, 1756, 1796, 1797, 1757, 5352, 5353, 5354, 5272
1920, 1757, 1797, 1798, 1758, 5354, 5355, 5356, 5274
1921, 1758, 1798, 1799, 1759, 5356, 5357, 5358, 5276
1922, 1759, 1799, 1800, 1760, 5358, 5359, 5360, 5278
1923, 1760, 1800, 1801, 1761, 5360, 5361, 5362, 5280
1924, 1761, 1801, 1802, 1762, 5362, 5363, 5364, 5282
1925, 1762, 1802, 1803, 1763, 5364, 5365, 5366, 5284
1926, 1763, 1803, 1804, 1764, 5366, 5367, 5368, 5286
1927, 1764, 1804, 1805, 1765, 5368, 5369, 5370, 5288
1928, 1765, 1805, 1806, 1766, 5370, 5371, 5372, 5290
1929, 1766, 1806, 1807, 1767, 5372, 5373, 5374, 5292
1930, 1767, 1807, 244, 243, 5374, 5375, 2172, 5294
1931, 244, 245, 1808, 1768, 2173, 5376, 5377, 5295
1932, 1768, 1808, 1809, 1769, 5377, 5378, 5379, 5297
1933, 1769, 1809, 1810, 1770, 5379, 5380, 5381, 5299
1934, 1770, 1810, 1811, 1771, 5381, 5382, 5383, 5301
1935, 1771, 1811, 1812, 1772, 5383, 5384, 5385, 5303
1936, 1772, 1812, 1813, 1773, 5385, 5386, 5387, 5305
1937, 1773, 1813, 1814, 1774, 5387, 5388, 5389, 5307
1938, 1774, 1814, 1815, 1775, 5389, 5390, 5391, 5309
1939, 1775, 1815, 1816, 1776, 5391, 5392, 5393, 5311
1940, 1776, 1816, 1817, 1777, 5393, 5394, 5395, 5313
1941, 1777, 1817, 1818, 1778, 5395, 5396, 5397, 5315
1942, 1778, 1818, 1819, 1779, 5397, 5398, 5399, 5317
1943, 1779, 1819, 1820, 1780, 5399, 5400, 5401, 5319
1944, 1780, 1820, 1821, 1781, 5401, 5402, 5403, 5321
1945, 1781, 1821, 1822, 1782, 5403, 5404, 5405, 5323
1946, 1782, 1822, 1823, 1783, 5405, 5406, 5407, 5325
1947, 1783, 1823, 1824, 1784, 5407, 5408, 5409, 5327
1948, 1784, 1824, 1825, 1785, 5409, 5410, 5411, 5329
1949, 1785, 1825, 1826, 1786, 5411, 5412, 5413, 5331
1950, 1786, 1826, 1827, 1787, 5413, 5414, 5415, 5333
1951, 1787, 1827, 1828, 1788, 5415, 5416, 5417, 5335
1952, 1788, 1828, 1829, 1789, 5417, 5418, 5419, 5337
1953, 1789, 1829, 1830, 1790, 5419, 5420, 5421, 5339
1954, 1790, 1830, 1831, 1791, 5421, 5422, 5423, 5341
1955, 1791, 1831, 1832, 1792, 5423, 5424, 5425, 5343
1956, 1792, 1832, 1833, 1793, 5425, 5426, 5427, 5345
1957, 1793, 1833, 1834, 1794, 5427, 5428, 5429, 5347
1958, 1794, 1834, 1835, 1795, 5429, 5430, 5431, 5349
1959, 1795, 1835, 1836, 1796, 5431, 5432, 5433, 5351
1960, 1796, 1836, 1837, 1797, 5433, 5434, 5435, 5353
1961, 1797, 1837, 1838, 1798, 5435, 5436, 5437, 5355
1962, 1798, 1838, 1839, 1799, 5437, 5438, 5439, 5357
1963, 1799, 1839, 1840, 1800, 5439, 5440, 5441, 5359
1964, 1800, 1840, 1841, 1801, 5441, 5442, 5443, 5361
1965, 1801, 1841, 1842, 1802, 5443, 5444, 5445, 5363
1966, 1802, 1842, 1843, 1803, 5445, 5446, 5447, 5365
1967, 1803, 1843, 1844, 1804, 5447, 5448, 5449, 5367
1968, 1804, 1844, 1845, 1805, 5449, 5450, 5451, 5369
1969, 1805, 1845, 1846, 1806, 5451, 5452, 5453, 5371
1970, 1806, 1846, 1847, 1807, 5453, 5454, 5455, 5373
1971, 1807, 1847, 245, 244, 5455, 5456, 2173, 5375
1972, 245, 246, 1848, 1808, 2174, 5457, 5458, 5376
1973, 1808, 1848, 1849, 1809, 5458, 5459, 5460, 5378
1974, 1809, 1849, 1850, 1810, 5460, 5461, 5462, 5380
1975, 1810, 1850, 1851, 1811, 5462, 5463, 5464, 5382
1976, 1811, 1851, 1852, 1812, 5464, 5465, 5466, 5384
1977, 1812, 1852, 1853, 1813, 5466, 5467, 5468, 5386
1978, 1813, 1853, 1854, 1814, 5468, 5469, 5470, 5388
1979, 1814, 1854, 1855, 1815, 5470, 5471, 5472, 5390
1980, 1815, 1855, 1856, 1816, 5472, 5473, 5474, 5392
1981, 1816, 1856, 1857, 1817, 5474, 5475, 5476, 5394
1982, 1817, 1857, 1858, 1818, 5476, 5477, 5478, 5396
1983, 1818, 1858, 1859, 1819, 5478, 5479, 5480, 5398
1984, 1819, 1859, 1860, 1820, 5480, 5481, 5482, 5400
1985, 1820, 1860, 1861, 1821, 5482, 5483, 5484, 5402
1986, 1821, 1861, 1862, 1822, 5484, 5485, 5486, 5404
1987, 1822, 1862, 1863, 1823, 5486, 5487, 5488, 5406
1988, 1823, 1863, 1864, 1824, 5488, 5489, 5490, 5408
1989, 1824, 1864, 1865, 1825, 5490, 5491, 5492, 5410
1990, 1825, 1865, 1866, 1826, 5492, 5493, 5494, 5412
1991, 1826, 1866, 1867, 1827, 5494, 5495, 5496, 5414
1992, 1827, 1867, 1868, 1828, 5496, 5497, 5498, 5416
1993, 1828, 1868, 1869, 1829, 5498, 5499, 5500, 5418
1994, 1829, 1869, 1870, 1830, 5500, 5501, 5502, 5420
1995, 1830, 1870, 1871, 1831, 5502, 5503, 5504, 5422
1996, 1831, 1871, 1872, 1832, 5504, 5505, 5506, 5424
1997, 1832, 1872, 1873, 1833, 5506, 5507, 5508, 5426
1998, 1833, 1873, 1874, 1834, 5508, 5509, 5510, 5428
1999, 1834, 1874, 1875, 1835, 5510, 5511, 5512, 5430
2000, 1835, 1875, 1876, 1836, 5512, 5513, 5514, 5432
2001, 1836, 1876, 1877, 1837, 5514, 5515, 5516, 5434
2002, 1837, 1877, 1878, 1838, 5516, 5517, 5518, 5436
2003, 1838, 1878, 1879, 1839, 5518, 5519, 5520, 5438
2004, 1839, 1879, 1880, 1840, 5520, 5521, 5522, 5440
2005, 1840, 1880, 1881, 1841, 5522, 5523, 5524, 5442
2006, 1841, 1881, 1882, 1842, 5524, 5525, 5526, 5444
2007, 1842, 1882, 1883, 1843, 5526, 5527, 5528, 5446
2008, 1843, 1883, 1884, 1844, 5528, 5529, 5530, 5448
2009, 1844, 1884, 1885, 1845, 5530, 5531, 5532, 5450
2010, 1845, 1885, 1886, 1846, 5532, 5533, 5534, 5452
2011, 1846, 1886, 1887, 1847, 5534, 5535, 5536, 5454
2012, 1847, 1887, 246, 245, 5536, 5537, 2174, 5456
2013, 246, 247, 1888, 1848, 2175, 5538, 5539, 5457
2014, 1848, 1888, 1889, 1849, 5539, 5540, 5541, 5459
2015, 1849, 1889, 1890, 1850, 5541, 5542, 5543, 5461
2016, 1850, 1890, 1891, 1851, 5543, 5544, 5545, 5463
2017, 1851, 1891, 1892, 1852, 5545, 5546, 5547, 5465
2018, 1852, 1892, 1893, 1853, 5547, 5548, 5549, 5467
2019, 1853, 1893, 1894, 1854, 5549, 5550, 5551, 5469
2020, 1854, 1894, 1895, 1855, 5551, 5552, 5553, 5471
2021, 1855, 1895, 1896, 1856, 5553, 5554, 5555, 5473
2022, 1856, 1896, 1897, 1857, 5555, 5556, 5557, 5475
2023, 1857, 1897, 1898, 1858, 5557, 5558, 5559, 5477
2024, 1858, 1898, 1899, 1859, 5559, 5560, 5561, 5479
2025, 1859, 1899, 1900, 1860, 5561, 5562, 5563, 5481
2026, 1860, 1900, 1901, 1861, 5563, 5564, 5565, 5483
2027, 1861, 1901, 1902, 1862, 5565, 5566, 5567, 5485
2028, 1862, 1902, 1903, 1863, 5567, 5568, 5569, 5487
2029, 1863, 1903, 1904, 1864, 5569, 5570, 5571, 5489
2030, 1864, 1904, 1905, 1865, 5571, 5572, 5573, 5491
2031, 1865, 1905, 1906, 1866, 5573, 5574, 5575, 5493
2032, 1866, 1906, 1907, 1867, 5575, 5576, 5577, 5495
2033, 1867, 1907, 1908, 1868, 5577, 5578, 5579, 5497
2034, 1868, 1908, 1909, 1869, 5579, 5580, 5581, 5499
2035, 1869, 1909, 1910, 1870, 5581, 5582, 5583, 5501
2036, 1870, 1910, 1911, 1871, 5583, 5584, 5585, 5503
2037, 1871, 1911, 1912, 1872, 5585, 5586, 5587, 5505
2038, 1872, 1912, 1913, 1873, 5587, 5588, 5589, 5507
2039, 1873, 1913, 1914, 1874, 5589, 5590, 5591, 5509
2040, 1874, 1914, 1915, 1875, 5591, 5592, 5593, 5511
2041, 1875, 1915, 1916, 1876, 5593, 5594, 5595, 5513
2042, 1876, 1916, 1917, 1877, 5595, 5596, 5597, 5515
2043, 1877, 1917, 1918, 1878, 5597, 5598, 5599, 5517
2044, 1878, 1918, 1919, 1879, 5599, 5600, 5601, 5519
2045, 1879, 1919, 1920, 1880, 5601, 5602, 5603, 5521
2046, 1880, 1920, 1921, 1881, 5603, 5604, 5605, 5523
2047, 1881, 1921, 1922, 1882, 5605, 5606, 5607, 5525
2048, 1882, 1922, 1923, 1883, 5607, 5608, 5609, 5527
2049, 1883, 1923, 1924, 1884, 5609, 5610, 5611, 5529
2050, 1884, 1924, 1925, 1885, 5611, 5612, 5613, 5531
2051, 1885, 1925, 1926, 1886, 5613, 5614, 5615, 5533
2052, 1886, 1926, 1927, 1887, 5615, 5616, 5617, 5535
2053, 1887, 1927, 247, 246, 5617, 5618, 2175, 5537
2054, 247, 6, 287, 1888, 2176, 2217, 5619, 5538
2055, 1888, 287, 286, 1889, 5619, 2216, 5620, 5540
2056, 1889, 286, 285, 1890, 5620, 2215, 5621, 5542
2057, 1890, 285, 284, 1891, 5621, 2214, 5622, 5544
2058, 1891, 284, 283, 1892, 5622, 2213, 5623, 5546
2059, 1892, 283, 282, 1893, 5623, 2212, 5624, 5548
2060, 1893, 282, 281, 1894, 5624, 2211, 5625, 5550
2061, 1894, 281, 280, 1895, 5625, 2210, 5626, 5552
2062, 1895, 280, 279, 1896, 5626, 2209, 5627, 5554
2063, 1896, 279, 278, 1897, 5627, 2208, 5628, 5556
2064, 1897, 278, 277, 1898, 5628, 2207, 5629, 5558
2065, 1898, 277, 276, 1899, 5629, 2206, 5630, 5560
2066, 1899, 276, 275, 1900, 5630, 2205, 5631, 5562
2067, 1900, 275, 274, 1901, 5631, 2204, 5632, 5564
2068, 1901, 274, 273, 1902, 5632, 2203, 5633, 5566
2069, 1902, 273, 272, 1903, 5633, 2202, 5634, 5568
2070, 1903, 272, 271, 1904, 5634, 2201, 5635, 5570
2071, 1904, 271, 270, 1905, 5635, 2200, 5636, 5572
2072, 1905, 270, 269, 1906, 5636, 2199, 5637, 5574
2073, 1906, 269, 268, 1907, 5637, 2198, 5638, 5576
2074, 1907, 268, 267, 1908, 5638, 2197, 5639, 5578
2075, 1908, 267, 266, 1909, 5639, 2196, 5640, 5580
2076, 1909, 266, 265, 1910, 5640, 2195, 5641, 5582
2077, 1910, 265, 264, 1911, 5641, 2194, 5642, 5584
2078, 1911, 264, 263, 1912, 5642, 2193, 5643, 5586
2079, 1912, 263, 262, 1913, 5643, 2192, 5644, 5588
2080, 1913, 262, 261, 1914, 5644, 2191, 5645, 5590
2081, 1914, 261, 260, 1915, 5645, 2190, 5646, 5592
2082, 1915, 260, 259, 1916, 5646, 2189, 5647, 5594
2083, 1916, 259, 258, 1917, 5647, 2188, 5648, 5596
2084, 1917, 258, 257, 1918, 5648, 2187, 5649, 5598
2085, 1918, 257, 256, 1919, 5649, 2186, 5650, 5600
2086, 1919, 256, 255, 1920, 5650, 2185, 5651, 5602
2087, 1920, 255, 254, 1921, 5651, 2184, 5652, 5604
2088, 1921, 254, 253, 1922, 5652, 2183, 5653, 5606
2089, 1922, 253, 252, 1923, 5653, 2182, 5654, 5608
2090, 1923, 252, 251, 1924, 5654, 2181, 5655, 5610
2091, 1924, 251, 250, 1925, 5655, 2180, 5656, 5612
2092, 1925, 250, 249, 1926, 5656, 2179, 5657, 5614
2093, 1926, 249, 248, 1927, 5657, 2178, 5658, 5616
2094, 1927, 248, 6, 247, 5658, 2177, 2176, 5618
*ELSET,ELSET=PhysicalLine1
1, 2, 3, 4, 5, 6, 7, 8, 9, 10, 
11, 12, 13, 14, 15, 16, 17, 18, 19, 20, 
21, 22, 23, 24, 25, 26, 27, 28, 29, 30, 
31, 32, 33, 34, 35, 36, 37, 38, 39, 40, 
41, 42, 43, 44, 45, 46, 47, 48, 49, 50, 
51, 52, 53, 54, 55, 56, 57, 58, 59, 60, 
61, 62, 63, 64, 65, 66, 67, 68, 69, 70, 
71, 72, 73, 74, 75, 76, 77, 78, 79, 80, 
81, 82, 83, 84, 85, 86, 87, 88, 89, 90, 
91, 92, 93, 94, 95, 96, 97, 98, 99, 100, 
101, 102, 103, 104, 105, 106, 107, 108, 109, 110, 
111, 112, 113, 114, 115, 116, 117, 118, 119, 120, 
121, 122, 123, 124, 125, 126, 127, 128, 129, 130, 
131, 132, 133, 134, 135, 136, 137, 138, 139, 140, 
141, 142, 143, 144, 145, 146, 147, 148, 149, 150, 
151, 152, 153, 154, 155, 156, 157, 158, 159, 160, 
161, 162, 163, 164, 165, 166, 167, 168, 169, 170, 
171, 172, 173, 174, 175, 176, 177, 178, 179, 180, 
181, 182, 183, 184, 185, 186, 187, 188, 189, 190, 
191, 192, 193, 194, 195, 196, 197, 198, 199, 200, 
201, 202, 203, 204, 205, 206, 207, 208, 209, 210, 
211, 212, 213, 214, 215, 216, 217, 218, 219, 220, 
221, 222, 223, 224, 225, 226, 227, 228, 229, 230, 
231, 232, 233, 234, 235, 236, 237, 238, 239, 240, 
241, 242, 243, 244, 245, 246, 247, 248, 249, 250, 
251, 252, 253, 254, 255, 256, 257, 258, 259, 260, 
261, 262, 263, 264, 265, 266, 267, 268, 269, 270, 
271, 272, 273, 274, 275, 276, 277, 278, 279, 280, 
281, 282, 283, 284, 285, 286, 287, 288, 289, 290, 
*ELSET,ELSET=PhysicalSurface1
291, 292, 293, 294, 295, 296, 297, 298, 299, 300, 
301, 302, 303, 304, 305, 306, 307, 308, 309, 310, 
311, 312, 313, 314, 315, 316, 317, 318, 319, 320, 
321, 322, 323, 324, 325, 326, 327, 328, 329, 330, 
331, 332, 333, 334, 335, 336, 337, 338, 339, 340, 
341, 342, 343, 344, 345, 346, 347, 348, 349, 350, 
351, 352, 353, 354, 355, 356, 357, 358, 359, 360, 
361, 362, 363, 364, 365, 366, 367, 368, 369, 370, 
371, 372, 373, 374, 375, 376, 377, 378, 379, 380, 
381, 382, 383, 384, 385, 386, 387, 388, 389, 390, 
391, 392, 393, 394, 395, 396, 397, 398, 399, 400, 
401, 402, 403, 404, 405, 406, 407, 408, 409, 410, 
411, 412, 413, 414, 415, 416, 417, 418, 419, 420, 
421, 422, 423, 424, 425, 426, 427, 428, 429, 430, 
431, 432, 433, 434, 435, 436, 437, 438, 439, 440, 
441, 442, 443, 444, 445, 446, 447, 448, 449, 450, 
451, 452, 453, 454, 455, 456, 457, 458, 459, 460, 
461, 462, 463, 464, 465, 466, 467, 468, 469, 470, 
471, 472, 473, 474, 475, 476, 477, 478, 479, 480, 
481, 482, 483, 484, 485, 486, 487, 488, 489, 490, 
491, 492, 493, 494, 495, 496, 497, 498, 499, 500, 
501, 502, 503, 504, 505, 506, 507, 508, 509, 510, 
511, 512, 513, 514, 515, 516, 517, 518, 519, 520, 
521, 522, 523, 524, 525, 526, 527, 528, 529, 530, 
531, 532, 533, 534, 535, 536, 537, 538, 539, 540, 
541, 542, 543, 544, 545, 546, 547, 548, 549, 550, 
551, 552, 553, 554, 555, 556, 557, 558, 559, 560, 
561, 562, 563, 564, 565, 566, 567, 568, 569, 570, 
571, 572, 573, 574, 575, 576, 577, 578, 579, 580, 
581, 582, 583, 584, 585, 586, 587, 588, 589, 590, 
591, 592, 593, 594, 595, 596, 597, 598, 599, 600, 
601, 602, 603, 604, 605, 606, 607, 608, 609, 610, 
611, 612, 613, 614, 615, 616, 617, 618, 619, 620, 
621, 622, 623, 624, 625, 626, 627, 628, 629, 630, 
631, 632, 633, 634, 635, 636, 637, 638, 639, 640, 
641, 642, 643, 644, 645, 646, 647, 648, 649, 650, 
651, 652, 653, 654, 655, 656, 657, 658, 659, 660, 
661, 662, 663, 664, 665, 666, 667, 668, 669, 670, 
671, 672, 673, 674, 675, 676, 677, 678, 679, 680, 
681, 682, 683, 684, 685, 686, 687, 688, 689, 690, 
691, 692, 693, 694, 695, 696, 697, 698, 699, 700, 
701, 702, 703, 704, 705, 706, 707, 708, 709, 710, 
711, 712, 713, 714, 715, 716, 717, 718, 719, 720, 
721, 722, 723, 724, 725, 726, 727, 728, 729, 730, 
731, 732, 733, 734, 735, 736, 737, 738, 739, 740, 
741, 742, 743, 744, 745, 746, 747, 748, 749, 750, 
751, 752, 753, 754, 755, 756, 757, 758, 759, 760, 
761, 762, 763, 764, 765, 766, 767, 768, 769, 770, 
771, 772, 773, 774, 775, 776, 777, 778, 779, 780, 
781, 782, 783, 784, 785, 786, 787, 788, 789, 790, 
791, 792, 793, 794, 795, 796, 797, 798, 799, 800, 
801, 802, 803, 804, 805, 806, 807, 808, 809, 810, 
811, 812, 813, 814, 815, 816, 817, 818, 819, 820, 
821, 822, 823, 824, 825, 826, 827, 828, 829, 830, 
831, 832, 833, 834, 835, 836, 837, 838, 839, 840, 
841, 842, 843, 844, 845, 846, 847, 848, 849, 850, 
851, 852, 853, 854, 855, 856, 857, 858, 859, 860, 
861, 862, 863, 864, 865, 866, 867, 868, 869, 870, 
871, 872, 873, 874, 875, 876, 877, 878, 879, 880, 
881, 882, 883, 884, 885, 886, 887, 888, 889, 890, 
891, 892, 893, 894, 895, 896, 897, 898, 899, 900, 
901, 902, 903, 904, 905, 906, 907, 908, 909, 910, 
911, 912, 913, 914, 915, 916, 917, 918, 919, 920, 
921, 922, 923, 924, 925, 926, 927, 928, 929, 930, 
931, 932, 933, 934, 935, 936, 937, 938, 939, 940, 
941, 942, 943, 944, 945, 946, 947, 948, 949, 950, 
951, 952, 953, 954, 955, 956, 957, 958, 959, 960, 
961, 962, 963, 964, 965, 966, 967, 968, 969, 970, 
971, 972, 973, 974, 975, 976, 977, 978, 979, 980, 
981, 982, 983, 984, 985, 986, 987, 988, 989, 990, 
991, 992, 993, 994, 995, 996, 997, 998, 999, 1000, 
1001, 1002, 1003, 1004, 1005, 1006, 1007, 1008, 1009, 1010, 
1011, 1012, 1013, 1014, 1015, 1016, 1017, 1018, 1019, 1020, 
1021, 1022, 1023, 1024, 1025, 1026, 1027, 1028, 1029, 1030, 
1031, 1032, 1033, 1034, 1035, 1036, 1037, 1038, 1039, 1040, 
1041, 1042, 1043, 1044, 1045, 1046, 1047, 1048, 1049, 1050, 
1051, 1052, 1053, 1054, 1055, 1056, 1057, 1058, 1059, 1060, 
1061, 1062, 1063, 1064, 1065, 1066, 1067, 1068, 1069, 1070, 
1071, 1072, 1073, 1074, 1075, 1076, 1077, 1078, 1079, 1080, 
1081, 1082, 1083, 1084, 1085, 1086, 1087, 1088, 1089, 1090, 
1091, 1092, 1093, 1094, 1095, 1096, 1097, 1098, 1099, 1100, 
1101, 1102, 1103, 1104, 1105, 1106, 1107, 1108, 1109, 1110, 
1111, 1112, 1113, 1114, 1115, 1116, 1117, 1118, 1119, 1120, 
1121, 1122, 1123, 1124, 1125, 1126, 1127, 1128, 1129, 1130, 
1131, 1132, 1133, 1134, 1135, 1136, 1137, 1138, 1139, 1140, 
1141, 1142, 1143, 1144, 1145, 1146, 1147, 1148, 1149, 1150, 
1151, 1152, 1153, 1154, 1155, 1156, 1157, 1158, 1159, 1160, 
1161, 1162, 1163, 1164, 1165, 1166, 1167, 1168, 1169, 1170, 
1171, 1172, 1173, 1174, 1175, 1176, 1177, 1178, 1179, 1180, 
1181, 1182, 1183, 1184, 1185, 1186, 1187, 1188, 1189, 1190, 
1191, 1192, 1193, 1194, 1195, 1196, 1197, 1198, 1199, 1200, 
1201, 1202, 1203, 1204, 1205, 1206, 1207, 1208, 1209, 1210, 
1211, 1212, 1213, 1214, 1215, 1216, 1217, 1218, 1219, 1220, 
1221, 1222, 1223, 1224, 1225, 1226, 1227, 1228, 1229, 1230, 
1231, 1232, 1233, 1234, 1235, 1236, 1237, 1238, 1239, 1240, 
1241, 1242, 1243, 1244, 1245, 1246, 1247, 1248, 1249, 1250, 
1251, 1252, 1253, 1254, 1255, 1256, 1257, 1258, 1259, 1260, 
1261, 1262, 1263, 1264, 1265, 1266, 1267, 1268, 1269, 1270, 
1271, 1272, 1273, 1274, 1275, 1276, 1277, 1278, 1279, 1280, 
1281, 1282, 1283, 1284, 1285, 1286, 1287, 1288, 1289, 1290, 
1291, 1292, 1293, 1294, 1295, 1296, 1297, 1298, 1299, 1300, 
1301, 1302, 1303, 1304, 1305, 1306, 1307, 1308, 1309, 1310, 
1311, 1312, 1313, 1314, 1315, 1316, 1317, 1318, 1319, 1320, 
1321, 1322, 1323, 1324, 1325, 1326, 1327, 1328, 1329, 1330, 
1331, 1332, 1333, 1334, 1335, 1336, 1337, 1338, 1339, 1340, 
1341, 1342, 1343, 1344, 1345, 1346, 1347, 1348, 1349, 1350, 
1351, 1352, 1353, 1354, 1355, 1356, 1357, 1358, 1359, 1360, 
1361, 1362, 1363, 1364, 1365, 1366, 1367, 1368, 1369, 1370, 
1371, 1372, 1373, 1374, 1375, 1376, 1377, 1378, 1379, 1380, 
1381, 1382, 1383, 1384, 1385, 1386, 1387, 1388, 1389, 1390, 
1391, 1392, 1393, 1394, 1395, 1396, 1397, 1398, 1399, 1400, 
1401, 1402, 1403, 1404, 1405, 1406, 1407, 1408, 1409, 1410, 
1411, 1412, 1413, 1414, 1415, 1416, 1417, 1418, 1419, 1420, 
1421, 1422, 1423, 1424, 1425, 1426, 1427, 1428, 1429, 1430, 
1431, 1432, 1433, 1434, 1435, 1436, 1437, 1438, 1439, 1440, 
1441, 1442, 1443, 1444, 1445, 1446, 1447, 1448, 1449, 1450, 
1451, 1452, 1453, 1454, 1455, 1456, 1457, 1458, 1459, 1460, 
1461, 1462, 1463, 1464, 1465, 1466, 1467, 1468, 1469, 1470, 
1471, 1472, 1473, 1474, 1475, 1476, 1477, 1478, 1479, 1480, 
1481, 1482, 1483, 1484, 1485, 1486, 1487, 1488, 1489, 1490, 
1491, 1492, 1493, 1494, 1495, 1496, 1497, 1498, 1499, 1500, 
1501, 1502, 1503, 1504, 1505, 1506, 1507, 1508, 1509, 1510, 
1511, 1512, 1513, 1514, 1515, 1516, 1517, 1518, 1519, 1520, 
1521, 1522, 1523, 1524, 1525, 1526, 1527, 1528, 1529, 1530, 
1531, 1532, 1533, 1534, 1535, 1536, 1537, 1538, 1539, 1540, 
1541, 1542, 1543, 1544, 1545, 1546, 1547, 1548, 1549, 1550, 
1551, 1552, 1553, 1554, 1555, 1556, 1557, 1558, 1559, 1560, 
1561, 1562, 1563, 1564, 1565, 1566, 1567, 1568, 1569, 1570, 
1571, 1572, 1573, 1574, 1575, 1576, 1577, 1578, 1579, 1580, 
1581, 1582, 1583, 1584, 1585, 1586, 1587, 1588, 1589, 1590, 
1591, 1592, 1593, 1594, 1595, 1596, 1597, 1598, 1599, 1600, 
1601, 1602, 1603, 1604, 1605, 1606, 1607, 1608, 1609, 1610, 
1611, 1612, 1613, 1614, 1615, 1616, 1617, 1618, 1619, 1620, 
1621, 1622, 1623, 1624, 1625, 1626, 1627, 1628, 1629, 1630, 
1631, 1632, 1633, 1634, 1635, 1636, 1637, 1638, 1639, 1640, 
1641, 1642, 1643, 1644, 1645, 1646, 1647, 1648, 1649, 1650, 
1651, 1652, 1653, 1654, 1655, 1656, 1657, 1658, 1659, 1660, 
1661, 1662, 1663, 1664, 1665, 1666, 1667, 1668, 1669, 1670, 
1671, 1672, 1673, 1674, 1675, 1676, 1677, 1678, 1679, 1680, 
1681, 1682, 1683, 1684, 1685, 1686, 1687, 1688, 1689, 1690, 
1691, 1692, 1693, 1694, 1695, 1696, 1697, 1698, 1699, 1700, 
1701, 1702, 1703, 1704, 1705, 1706, 1707, 1708, 1709, 1710, 
1711, 1712, 1713, 1714, 1715, 1716, 1717, 1718, 1719, 1720, 
1721, 1722, 1723, 1724, 1725, 1726, 1727, 1728, 1729, 1730, 
1731, 1732, 1733, 1734, 1735, 1736, 1737, 1738, 1739, 1740, 
1741, 1742, 1743, 1744, 1745, 1746, 1747, 1748, 1749, 1750, 
1751, 1752, 1753, 1754, 1755, 1756, 1757, 1758, 1759, 1760, 
1761, 1762, 1763, 1764, 1765, 1766, 1767, 1768, 1769, 1770, 
1771, 1772, 1773, 1774, 1775, 1776, 1777, 1778, 1779, 1780, 
1781, 1782, 1783, 1784, 1785, 1786, 1787, 1788, 1789, 1790, 
1791, 1792, 1793, 1794, 1795, 1796, 1797, 1798, 1799, 1800, 
1801, 1802, 1803, 1804, 1805, 1806, 1807, 1808, 1809, 1810, 
1811, 1812, 1813, 1814, 1815, 1816, 1817, 1818, 1819, 1820, 
1821, 1822, 1823, 1824, 1825, 1826, 1827, 1828, 1829, 1830, 
1831, 1832, 1833, 1834, 1835, 1836, 1837, 1838, 1839, 1840, 
1841, 1842, 1843, 1844, 1845, 1846, 1847, 1848, 1849, 1850, 
1851, 1852, 1853, 1854, 1855, 1856, 1857, 1858, 1859, 1860, 
1861, 1862, 1863, 1864, 1865, 1866, 1867, 1868, 1869, 1870, 
1871, 1872, 1873, 1874, 1875, 1876, 1877, 1878, 1879, 1880, 
1881, 1882, 1883, 1884, 1885, 1886, 1887, 1888, 1889, 1890, 
1891, 1892, 1893, 1894, 1895, 1896, 1897, 1898, 1899, 1900, 
1901, 1902, 1903, 1904, 1905, 1906, 1907, 1908, 1909, 1910, 
1911, 1912, 1913, 1914, 1915, 1916, 1917, 1918, 1919, 1920, 
1921, 1922, 1923, 1924, 1925, 1926, 1927, 1928, 1929, 1930, 
1931, 1932, 1933, 1934, 1935, 1936, 1937, 1938, 1939, 1940, 
1941, 1942, 1943, 1944, 1945, 1946, 1947, 1948, 1949, 1950, 
1951, 1952, 1953, 1954, 1955, 1956, 1957, 1958, 1959, 1960, 
1961, 1962, 1963, 1964, 1965, 1966, 1967, 1968, 1969, 1970, 
1971, 1972, 1973, 1974, 1975, 1976, 1977, 1978, 1979, 1980, 
1981, 1982, 1983, 1984, 1985, 1986, 1987, 1988, 1989, 1990, 
1991, 1992, 1993, 1994, 1995, 1996, 1997, 1998, 1999, 2000, 
2001, 2002, 2003, 2004, 2005, 2006, 2007, 2008, 2009, 2010, 
2011, 2012, 2013, 2014, 2015, 2016, 2017, 2018, 2019, 2020, 
2021, 2022, 2023, 2024, 2025, 2026, 2027, 2028, 2029, 2030, 
2031, 2032, 2033, 2034, 2035, 2036, 2037, 2038, 2039, 2040, 
2041, 2042, 2043, 2044, 2045, 2046, 2047, 2048, 2049, 2050, 
2051, 2052, 2053, 2054, 2055, 2056, 2057, 2058, 2059, 2060, 
2061, 2062, 2063, 2064, 2065, 2066, 2067, 2068, 2069, 2070, 
2071, 2072, 2073, 2074, 2075, 2076, 2077, 2078, 2079, 2080, 
2081, 2082, 2083, 2084, 2085, 2086, 2087, 2088, 2089, 2090, 
2091, 2092, 2093, 2094, 
*NSET,NSET=PhysicalLine1
1, 2, 3, 4, 5, 6, 7, 8, 9, 10, 
11, 12, 13, 14, 15, 16, 17, 18, 19, 20, 
21, 22, 23, 24, 25, 26, 27, 28, 29, 30, 
31, 32, 33, 34, 35, 36, 37, 38, 39, 40, 
41, 42, 43, 44, 45, 46, 47, 48, 49, 50, 
51, 52, 53, 54, 55, 56, 57, 58, 59, 60, 
61, 62, 63, 64, 65, 66, 67, 68, 69, 70, 
71, 72, 73, 74, 75, 76, 77, 78, 79, 80, 
81, 82, 83, 84, 85, 86, 87, 88, 89, 90, 
91, 92, 93, 94, 95, 96, 97, 98, 99, 100, 
101, 102, 103, 104, 105, 106, 107, 108, 109, 110, 
111, 112, 113, 114, 115, 116, 117, 118, 119, 120, 
121, 122, 123, 124, 125, 126, 127, 128, 129, 130, 
131, 132, 133, 134, 135, 136, 137, 138, 139, 140, 
141, 142, 143, 144, 145, 146, 147, 148, 149, 150, 
151, 152, 153, 154, 155, 156, 157, 158, 159, 160, 
161, 162, 163, 164, 165, 166, 167, 168, 169, 170, 
171, 172, 173, 174, 175, 176, 177, 178, 179, 180, 
181, 182, 183, 184, 185, 186, 187, 188, 189, 190, 
191, 192, 193, 194, 195, 196, 197, 198, 199, 200, 
201, 202, 203, 204, 205, 206, 207, 208, 209, 210, 
211, 212, 213, 214, 215, 216, 217, 218, 219, 220, 
221, 222, 223, 224, 225, 226, 227, 228, 229, 230, 
231, 232, 233, 234, 235, 236, 237, 238, 239, 240, 
241, 242, 243, 244, 245, 246, 247, 248, 249, 250, 
251, 252, 253, 254, 255, 256, 257, 258, 259, 260, 
261, 262, 263, 264, 265, 266, 267, 268, 269, 270, 
271, 272, 273, 274, 275, 276, 277, 278, 279, 280, 
281, 282, 283, 284, 285, 286, 287, 1928, 1929, 1930, 
1931, 1932, 1933, 1934, 1935, 1936, 1937, 1938, 1939, 1940, 
1941, 1942, 1943, 1944, 1945, 1946, 1947, 1948, 1949, 1950, 
1951, 1952, 1953, 1954, 1955, 1956, 1957, 1958, 1959, 1960, 
1961, 1962, 1963, 1964, 1965, 1966, 1967, 1968, 1969, 1970, 
1971, 1972, 1973, 1974, 1975, 1976, 1977, 1978, 1979, 1980, 
1981, 1982, 1983, 1984, 1985, 1986, 1987, 1988, 1989, 1990, 
1991, 1992, 1993, 1994, 1995, 1996, 1997, 1998, 1999, 2000, 
2001, 2002, 2003, 2004, 2005, 2006, 2007, 2008, 2009, 2010, 
2011, 2012, 2013, 2014, 2015, 2016, 2017, 2018, 2019, 2020, 
2021, 2022, 2023, 2024, 2025, 2026, 2027, 2028, 2029, 2030, 
2031, 2032, 2033, 2034, 2035, 2036, 2037, 2038, 2039, 2040, 
2041, 2042, 2043, 2044, 2045, 2046, 2047, 2048, 2049, 2050, 
2051, 2052, 2053, 2054, 2055, 2056, 2057, 2058, 2059, 2060, 
2061, 2062, 2063, 2064, 2065, 2066, 2067, 2068, 2069, 2070, 
2071, 2072, 2073, 2074, 2075, 2076, 2077, 2078, 2079, 2080, 
2081, 2082, 2083, 2084, 2085, 2086, 2087, 2088, 2089, 2090, 
2091, 2092, 2093, 2094, 2095, 2096, 2097, 2098, 2099, 2100, 
2101, 2102, 2103, 2104, 2105, 2106, 2107, 2108, 2109, 2110, 
2111, 2112, 2113, 2114, 2115, 2116, 2117, 2118, 2119, 2120, 
2121, 2122, 2123, 2124, 2125, 2126, 2127, 2128, 2129, 2130, 
2131, 2132, 2133, 2134, 2135, 2136, 2137, 2138, 2139, 2140, 
2141, 2142, 2143, 2144, 2145, 2146, 2147, 2148, 2149, 2150, 
2151, 2152, 2153, 2154, 2155, 2156, 2157, 2158, 2159, 2160, 
2161, 2162, 2163, 2164, 2165, 2166, 2167, 2168, 2169, 2170, 
2171, 2172, 2173, 2174, 2175, 2176, 2177, 2178, 2179, 2180, 
2181, 2182, 2183, 2184, 2185, 2186, 2187, 2188, 2189, 2190, 
2191, 2192, 2193, 2194, 2195, 2196, 2197, 2198, 2199, 2200, 
2201, 2202, 2203, 2204, 2205, 2206, 2207, 2208, 2209, 2210, 
2211, 2212, 2213, 2214, 2215, 2216, 2217, 
*NSET,NSET=PhysicalSurface1
1, 2, 3, 4, 5, 6, 7, 8, 9, 10, 
11, 12, 13, 14, 15, 16, 17, 18, 19, 20, 
21, 22, 23, 24, 25, 26, 27, 28, 29, 30, 
31, 32, 33, 34, 35, 36, 37, 38, 39, 40, 
41, 42, 43, 44, 45, 46, 47, 48, 49, 50, 
51, 52, 53, 54, 55, 56, 57, 58, 59, 60, 
61, 62, 63, 64, 65, 66, 67, 68, 69, 70, 
71, 72, 73, 74, 75, 76, 77, 78, 79, 80, 
81, 82, 83, 84, 85, 86, 87, 88, 89, 90, 
91, 92, 93, 94, 95, 96, 97, 98, 99, 100, 
101, 102, 103, 104, 105, 106, 107, 108, 109, 110, 
111, 112, 113, 114, 115, 116, 117, 118, 119, 120, 
121, 122, 123, 124, 125, 126, 127, 128, 129, 130, 
131, 132, 133, 134, 135, 136, 137, 138, 139, 140, 
141, 142, 143, 144, 145, 146, 147, 148, 149, 150, 
151, 152, 153, 154, 155, 156, 157, 158, 159, 160, 
161, 162, 163, 164, 165, 166, 167, 168, 169, 170, 
171, 172, 173, 174, 175, 176, 177, 178, 179, 180, 
181, 182, 183, 184, 185, 186, 187, 188, 189, 190, 
191, 192, 193, 194, 195, 196, 197, 198, 199, 200, 
201, 202, 203, 204, 205, 206, 207, 208, 209, 210, 
211, 212, 213, 214, 215, 216, 217, 218, 219, 220, 
221, 222, 223, 224, 225, 226, 227, 228, 229, 230, 
231, 232, 233, 234, 235, 236, 237, 238, 239, 240, 
241, 242, 243, 244, 245, 246, 247, 248, 249, 250, 
251, 252, 253, 254, 255, 256, 257, 258, 259, 260, 
261, 262, 263, 264, 265, 266, 267, 268, 269, 270, 
271, 272, 273, 274, 275, 276, 277, 278, 279, 280, 
281, 282, 283, 284, 285, 286, 287, 288, 289, 290, 
291, 292, 293, 294, 295, 296, 297, 298, 299, 300, 
301, 302, 303, 304, 305, 306, 307, 308, 309, 310, 
311, 312, 313, 314, 315, 316, 317, 318, 319, 320, 
321, 322, 323, 324, 325, 326, 327, 328, 329, 330, 
331, 332, 333, 334, 335, 336, 337, 338, 339, 340, 
341, 342, 343, 344, 345, 346, 347, 348, 349, 350, 
351, 352, 353, 354, 355, 356, 357, 358, 359, 360, 
361, 362, 363, 364, 365, 366, 367, 368, 369, 370, 
371, 372, 373, 374, 375, 376, 377, 378, 379, 380, 
381, 382, 383, 384, 385, 386, 387, 388, 389, 390, 
391, 392, 393, 394, 395, 396, 397, 398, 399, 400, 
401, 402, 403, 404, 405, 406, 407, 408, 409, 410, 
411, 412, 413, 414, 415, 416, 417, 418, 419, 420, 
421, 422, 423, 424, 425, 426, 427, 428, 429, 430, 
431, 432, 433, 434, 435, 436, 437, 438, 439, 440, 
441, 442, 443, 444, 445, 446, 447, 448, 449, 450, 
451, 452, 453, 454, 455, 456, 457, 458, 459, 460, 
461, 462, 463, 464, 465, 466, 467, 468, 469, 470, 
471, 472, 473, 474, 475, 476, 477, 478, 479, 480, 
481, 482, 483, 484, 485, 486, 487, 488, 489, 490, 
491, 492, 493, 494, 495, 496, 497, 498, 499, 500, 
501, 502, 503, 504, 505, 506, 507, 508, 509, 510, 
511, 512, 513, 514, 515, 516, 517, 518, 519, 520, 
521, 522, 523, 524, 525, 526, 527, 528, 529, 530, 
531, 532, 533, 534, 535, 536, 537, 538, 539, 540, 
541, 542, 543, 544, 545, 546, 547, 548, 549, 550, 
551, 552, 553, 554, 555, 556, 557, 558, 559, 560, 
561, 562, 563, 564, 565, 566, 567, 568, 569, 570, 
571, 572, 573, 574, 575, 576, 577, 578, 579, 580, 
581, 582, 583, 584, 585, 586, 587, 588, 589, 590, 
591, 592, 593, 594, 595, 596, 597, 598, 599, 600, 
601, 602, 603, 604, 605, 606, 607, 608, 609, 610, 
611, 612, 613, 614, 615, 616, 617, 618, 619, 620, 
621, 622, 623, 624, 625, 626, 627, 628, 629, 630, 
631, 632, 633, 634, 635, 636, 637, 638, 639, 640, 
641, 642, 643, 644, 645, 646, 647, 648, 649, 650, 
651, 652, 653, 654, 655, 656, 657, 658, 659, 660, 
661, 662, 663, 664, 665, 666, 667, 668, 669, 670, 
671, 672, 673, 674, 675, 676, 677, 678, 679, 680, 
681, 682, 683, 684, 685, 686, 687, 688, 689, 690, 
691, 692, 693, 694, 695, 696, 697, 698, 699, 700, 
701, 702, 703, 704, 705, 706, 707, 708, 709, 710, 
711, 712, 713, 714, 715, 716, 717, 718, 719, 720, 
721, 722, 723, 724, 725, 726, 727, 728, 729, 730, 
731, 732, 733, 734, 735, 736, 737, 738, 739, 740, 
741, 742, 743, 744, 745, 746, 747, 748, 749, 750, 
751, 752, 753, 754, 755, 756, 757, 758, 759, 760, 
761, 762, 763, 764, 765, 766, 767, 768, 769, 770, 
771, 772, 773, 774, 775, 776, 777, 778, 779, 780, 
781, 782, 783, 784, 785, 786, 787, 788, 789, 790, 
791, 792, 793, 794, 795, 796, 797, 798, 799, 800, 
801, 802, 803, 804, 805, 806, 807, 808, 809, 810, 
811, 812, 813, 814, 815, 816, 817, 818, 819, 820, 
821, 822, 823, 824, 825, 826, 827, 828, 829, 830, 
831, 832, 833, 834, 835, 836, 837, 838, 839, 840, 
841, 842, 843, 844, 845, 846, 847, 848, 849, 850, 
851, 852, 853, 854, 855, 856, 857, 858, 859, 860, 
861, 862, 863, 864, 865, 866, 867, 868, 869, 870, 
871, 872, 873, 874, 875, 876, 877, 878, 879, 880, 
881, 882, 883, 884, 885, 886, 887, 888, 889, 890, 
891, 892, 893, 894, 895, 896, 897, 898, 899, 900, 
901, 902, 903, 904, 905, 906, 907, 908, 909, 910, 
911, 912, 913, 914, 915, 916, 917, 918, 919, 920, 
921, 922, 923, 924, 925, 926, 927, 928, 929, 930, 
931, 932, 933, 934, 935, 936, 937, 938, 939, 940, 
941, 942, 943, 944, 945, 946, 947, 948, 949, 950, 
951, 952, 953, 954, 955, 956, 957, 958, 959, 960, 
961, 962, 963, 964, 965, 966, 967, 968, 969, 970, 
971, 972, 973, 974, 975, 976, 977, 978, 979, 980, 
981, 982, 983, 984, 985, 986, 987, 988, 989, 990, 
991, 992, 993, 994, 995, 996, 997, 998, 999, 1000, 
1001, 1002, 1003, 1004, 1005, 1006, 1007, 1008, 1009, 1010, 
1011, 1012, 1013, 1014, 1015, 1016, 1017, 1018, 1019, 1020, 
1021, 1022, 1023, 1024, 1025, 1026, 1027, 1028, 1029, 1030, 
1031, 1032, 1033, 1034, 1035, 1036, 1037, 1038, 1039, 1040, 
1041, 1042, 1043, 1044, 1045, 1046, 1047, 1048, 1049, 1050, 
1051, 1052, 1053, 1054, 1055, 1056, 1057, 1058, 1059, 1060, 
1061, 1062, 1063, 1064, 1065, 1066, 1067, 1068, 1069, 1070, 
1071, 1072, 1073, 1074, 1075, 1076, 1077, 1078, 1079, 1080, 
1081, 1082, 1083, 1084, 1085, 1086, 1087, 1088, 1089, 1090, 
1091, 1092, 1093, 1094, 1095, 1096, 1097, 1098, 1099, 1100, 
1101, 1102, 1103, 1104, 1105, 1106, 1107, 1108, 1109, 1110, 
1111, 1112, 1113, 1114, 1115, 1116, 1117, 1118, 1119, 1120, 
1121, 1122, 1123, 1124, 1125, 1126, 1127, 1128, 1129, 1130, 
1131, 1132, 1133, 1134, 1135, 1136, 1137, 1138, 1139, 1140, 
1141, 1142, 1143, 1144, 1145, 1146, 1147, 1148, 1149, 1150, 
1151, 1152, 1153, 1154, 1155, 1156, 1157, 1158, 1159, 1160, 
1161, 1162, 1163, 1164, 1165, 1166, 1167, 1168, 1169, 1170, 
1171, 1172, 1173, 1174, 1175, 1176, 1177, 1178, 1179, 1180, 
1181, 1182, 1183, 1184, 1185, 1186, 1187, 1188, 1189, 1190, 
1191, 1192, 1193, 1194, 1195, 1196, 1197, 1198, 1199, 1200, 
1201, 1202, 1203, 1204, 1205, 1206, 1207, 1208, 1209, 1210, 
1211, 1212, 1213, 1214, 1215, 1216, 1217, 1218, 1219, 1220, 
1221, 1222, 1223, 1224, 1225, 1226, 1227, 1228, 1229, 1230, 
1231, 1232, 1233, 1234, 1235, 1236, 1237, 1238, 1239, 1240, 
1241, 1242, 1243, 1244, 1245, 1246, 1247, 1248, 1249, 1250, 
1251, 1252, 1253, 1254, 1255, 1256, 1257, 1258, 1259, 1260, 
1261, 1262, 1263, 1264, 1265, 1266, 1267, 1268, 1269, 1270, 
1271, 1272, 1273, 1274, 1275, 1276, 1277, 1278, 1279, 1280, 
1281, 1282, 1283, 1284, 1285, 1286, 1287, 1288, 1289, 1290, 
1291, 1292, 1293, 1294, 1295, 1296, 1297, 1298, 1299, 1300, 
1301, 1302, 1303, 1304, 1305, 1306, 1307, 1308, 1309, 1310, 
1311, 1312, 1313, 1314, 1315, 1316, 1317, 1318, 1319, 1320, 
1321, 1322, 1323, 1324, 1325, 1326, 1327, 1328, 1329, 1330, 
1331, 1332, 1333, 1334, 1335, 1336, 1337, 1338, 1339, 1340, 
1341, 1342, 1343, 1344, 1345, 1346, 1347, 1348, 1349, 1350, 
1351, 1352, 1353, 1354, 1355, 1356, 1357, 1358, 1359, 1360, 
1361, 1362, 1363, 1364, 1365, 1366, 1367, 1368, 1369, 1370, 
1371, 1372, 1373, 1374, 1375, 1376, 1377, 1378, 1379, 1380, 
1381, 1382, 1383, 1384, 1385, 1386, 1387, 1388, 1389, 1390, 
1391, 1392, 1393, 1394, 1395, 1396, 1397, 1398, 1399, 1400, 
1401, 1402, 1403, 1404, 1405, 1406, 1407, 1408, 1409, 1410, 
1411, 1412, 1413, 1414, 1415, 1416, 1417, 1418, 1419, 1420, 
1421, 1422, 1423, 1424, 1425, 1426, 1427, 1428, 1429, 1430, 
1431, 1432, 1433, 1434, 1435, 1436, 1437, 1438, 1439, 1440, 
1441, 1442, 1443, 1444, 1445, 1446, 1447, 1448, 1449, 1450, 
1451, 1452, 1453, 1454, 1455, 1456, 1457, 1458, 1459, 1460, 
1461, 1462, 1463, 1464, 1465, 1466, 1467, 1468, 1469, 1470, 
1471, 1472, 1473, 1474, 1475, 1476, 1477, 1478, 1479, 1480, 
1481, 1482, 1483, 1484, 1485, 1486, 1487, 1488, 1489, 1490, 
1491, 1492, 1493, 1494, 1495, 1496, 1497, 1498, 1499, 1500, 
1501, 1502, 1503, 1504, 1505, 1506, 1507, 1508, 1509, 1510, 
1511, 1512, 1513, 1514, 1515, 1516, 1517, 1518, 1519, 1520, 
1521, 1522, 1523, 1524, 1525, 1526, 1527, 1528, 1529, 1530, 
1531, 1532, 1533, 1534, 1535, 1536, 1537, 1538, 1539, 1540, 
1541, 1542, 1543, 1544, 1545, 1546, 1547, 1548, 1549, 1550, 
1551, 1552, 1553, 1554, 1555, 1556, 1557, 1558, 1559, 1560, 
1561, 1562, 1563, 1564, 1565, 1566, 1567, 1568, 1569, 1570, 
1571, 1572, 1573, 1574, 1575, 1576, 1577, 1578, 1579, 1580, 
1581, 1582, 1583, 1584, 1585, 1586, 1587, 1588, 1589, 1590, 
1591, 1592, 1593, 1594, 1595, 1596, 1597, 1598, 1599, 1600, 
1601, 1602, 1603, 1604, 1605, 1606, 1607, 1608, 1609, 1610, 
1611, 1612, 1613, 1614, 1615, 1616, 1617, 1618, 1619, 1620, 
1621, 1622, 1623, 1624, 1625, 1626, 1627, 1628, 1629, 1630, 
1631, 1632, 1633, 1634, 1635, 1636, 1637, 1638, 1639, 1640, 
1641, 1642, 1643, 1644, 1645, 1646, 1647, 1648, 1649, 1650, 
1651, 1652, 1653, 1654, 1655, 1656, 1657, 1658, 1659, 1660, 
1661, 1662, 1663, 1664, 1665, 1666, 1667, 1668, 1669, 1670, 
1671, 1672, 1673, 1674, 1675, 1676, 1677, 1678, 1679, 1680, 
1681, 1682, 1683, 1684, 1685, 1686, 1687, 1688, 1689, 1690, 
1691, 1692, 1693, 1694, 1695, 1696, 1697, 1698, 1699, 1700, 
1701, 1702, 1703, 1704, 1705, 1706, 1707, 1708, 1709, 1710, 
1711, 1712, 1713, 1714, 1715, 1716, 1717, 1718, 1719, 1720, 
1721, 1722, 1723, 1724, 1725, 1726, 1727, 1728, 1729, 1730, 
1731, 1732, 1733, 1734, 1735, 1736, 1737, 1738, 1739, 1740, 
1741, 1742, 1743, 1744, 1745, 1746, 1747, 1748, 1749, 1750, 
1751, 1752, 1753, 1754, 1755, 1756, 1757, 1758, 1759, 1760, 
1761, 1762, 1763, 1764, 1765, 1766, 1767, 1768, 1769, 1770, 
1771, 1772, 1773, 1774, 1775, 1776, 1777, 1778, 1779, 1780, 
1781, 1782, 1783, 1784, 1785, 1786, 1787, 1788, 1789, 1790, 
1791, 1792, 1793, 1794, 1795, 1796, 1797, 1798, 1799, 1800, 
1801, 1802, 1803, 1804, 1805, 1806, 1807, 1808, 1809, 1810, 
1811, 1812, 1813, 1814, 1815, 1816, 1817, 1818, 1819, 1820, 
1821, 1822, 1823, 1824, 1825, 1826, 1827, 1828, 1829, 1830, 
1831, 1832, 1833, 1834, 1835, 1836, 1837, 1838, 1839, 1840, 
1841, 1842, 1843, 1844, 1845, 1846, 1847, 1848, 1849, 1850, 
1851, 1852, 1853, 1854, 1855, 1856, 1857, 1858, 1859, 1860, 
1861, 1862, 1863, 1864, 1865, 1866, 1867, 1868, 1869, 1870, 
1871, 1872, 1873, 1874, 1875, 1876, 1877, 1878, 1879, 1880, 
1881, 1882, 1883, 1884, 1885, 1886, 1887, 1888, 1889, 1890, 
1891, 1892, 1893, 1894, 1895, 1896, 1897, 1898, 1899, 1900, 
1901, 1902, 1903, 1904, 1905, 1906, 1907, 1908, 1909, 1910, 
1911, 1912, 1913, 1914, 1915, 1916, 1917, 1918, 1919, 1920, 
1921, 1922, 1923, 1924, 1925, 1926, 1927, 1928, 1929, 1930, 
1931, 1932, 1933, 1934, 1935, 1936, 1937, 1938, 1939, 1940, 
1941, 1942, 1943, 1944, 1945, 1946, 1947, 1948, 1949, 1950, 
1951, 1952, 1953, 1954, 1955, 1956, 1957, 1958, 1959, 1960, 
1961, 1962, 1963, 1964, 1965, 1966, 1967, 1968, 1969, 1970, 
1971, 1972, 1973, 1974, 1975, 1976, 1977, 1978, 1979, 1980, 
1981, 1982, 1983, 1984, 1985, 1986, 1987, 1988, 1989, 1990, 
1991, 1992, 1993, 1994, 1995, 1996, 1997, 1998, 1999, 2000, 
2001, 2002, 2003, 2004, 2005, 2006, 2007, 2008, 2009, 2010, 
2011, 2012, 2013, 2014, 2015, 2016, 2017, 2018, 2019, 2020, 
2021, 2022, 2023, 2024, 2025, 2026, 2027, 2028, 2029, 2030, 
2031, 2032, 2033, 2034, 2035, 2036, 2037, 2038, 2039, 2040, 
2041, 2042, 2043, 2044, 2045, 2046, 2047, 2048, 2049, 2050, 
2051, 2052, 2053, 2054, 2055, 2056, 2057, 2058, 2059, 2060, 
2061, 2062, 2063, 2064, 2065, 2066, 2067, 2068, 2069, 2070, 
2071, 2072, 2073, 2074, 2075, 2076, 2077, 2078, 2079, 2080, 
2081, 2082, 2083, 2084, 2085, 2086, 2087, 2088, 2089, 2090, 
2091, 2092, 2093, 2094, 2095, 2096, 2097, 2098, 2099, 2100, 
2101, 2102, 2103, 2104, 2105, 2106, 2107, 2108, 2109, 2110, 
2111, 2112, 2113, 2114, 2115, 2116, 2117, 2118, 2119, 2120, 
2121, 2122, 2123, 2124, 2125, 2126, 2127, 2128, 2129, 2130, 
2131, 2132, 2133, 2134, 2135, 2136, 2137, 2138, 2139, 2140, 
2141, 2142, 2143, 2144, 2145, 2146, 2147, 2148, 2149, 2150, 
2151, 2152, 2153, 2154, 2155, 2156, 2157, 2158, 2159, 2160, 
2161, 2162, 2163, 2164, 2165, 2166, 2167, 2168, 2169, 2170, 
2171, 2172, 2173, 2174, 2175, 2176, 2177, 2178, 2179, 2180, 
2181, 2182, 2183, 2184, 2185, 2186, 2187, 2188, 2189, 2190, 
2191, 2192, 2193, 2194, 2195, 2196, 2197, 2198, 2199, 2200, 
2201, 2202, 2203, 2204, 2205, 2206, 2207, 2208, 2209, 2210, 
2211, 2212, 2213, 2214, 2215, 2216, 2217, 2218, 2219, 2220, 
2221, 2222, 2223, 2224, 2225, 2226, 2227, 2228, 2229, 2230, 
2231, 2232, 2233, 2234, 2235, 2236, 2237, 2238, 2239, 2240, 
2241, 2242, 2243, 2244, 2245, 2246, 2247, 2248, 2249, 2250, 
2251, 2252, 2253, 2254, 2255, 2256, 2257, 2258, 2259, 2260, 
2261, 2262, 2263, 2264, 2265, 2266, 2267, 2268, 2269, 2270, 
2271, 2272, 2273, 2274, 2275, 2276, 2277, 2278, 2279, 2280, 
2281, 2282, 2283, 2284, 2285, 2286, 2287, 2288, 2289, 2290, 
2291, 2292, 2293, 2294, 2295, 2296, 2297, 2298, 2299, 2300, 
2301, 2302, 2303, 2304, 2305, 2306, 2307, 2308, 2309, 2310, 
2311, 2312, 2313, 2314, 2315, 2316, 2317, 2318, 2319, 2320, 
2321, 2322, 2323, 2324, 2325, 2326, 2327, 2328, 2329, 2330, 
2331, 2332, 2333, 2334, 2335, 2336, 2337, 2338, 2339, 2340, 
2341, 2342, 2343, 2344, 2345, 2346, 2347, 2348, 2349, 2350, 
2351, 2352, 2353, 2354, 2355, 2356, 2357, 2358, 2359, 2360, 
2361, 2362, 2363, 2364, 2365, 2366, 2367, 2368, 2369, 2370, 
2371, 2372, 2373, 2374, 2375, 2376, 2377, 2378, 2379, 2380, 
2381, 2382, 2383, 2384, 2385, 2386, 2387, 2388, 2389, 2390, 
2391, 2392, 2393, 2394, 2395, 2396, 2397, 2398, 2399, 2400, 
2401, 2402, 2403, 2404, 2405, 2406, 2407, 2408, 2409, 2410, 
2411, 2412, 2413, 2414, 2415, 2416, 2417, 2418, 2419, 2420, 
2421, 2422, 2423, 2424, 2425, 2426, 2427, 2428, 2429, 2430, 
2431, 2432, 2433, 2434, 2435, 2436, 2437, 2438, 2439, 2440, 
2441, 2442, 2443, 2444, 2445, 2446, 2447, 2448, 2449, 2450, 
2451, 2452, 2453, 2454, 2455, 2456, 2457, 2458, 2459, 2460, 
2461, 2462, 2463, 2464, 2465, 2466, 2467, 2468, 2469, 2470, 
2471, 2472, 2473, 2474, 2475, 2476, 2477, 2478, 2479, 2480, 
2481, 2482, 2483, 2484, 2485, 2486, 2487, 2488, 2489, 2490, 
2491, 2492, 2493, 2494, 2495, 2496, 2497, 2498, 2499, 2500, 
2501, 2502, 2503, 2504, 2505, 2506, 2507, 2508, 2509, 2510, 
2511, 2512, 2513, 2514, 2515, 2516, 2517, 2518, 2519, 2520, 
2521, 2522, 2523, 2524, 2525, 2526, 2527, 2528, 2529, 2530, 
2531, 2532, 2533, 2534, 2535, 2536, 2537, 2538, 2539, 2540, 
2541, 2542, 2543, 2544, 2545, 2546, 2547, 2548, 2549, 2550, 
2551, 2552, 2553, 2554, 2555, 2556, 2557, 2558, 2559, 2560, 
2561, 2562, 2563, 2564, 2565, 2566, 2567, 2568, 2569, 2570, 
2571, 2572, 2573, 2574, 2575, 2576, 2577, 2578, 2579, 2580, 
2581, 2582, 2583, 2584, 2585, 2586, 2587, 2588, 2589, 2590, 
2591, 2592, 2593, 2594, 2595, 2596, 2597, 2598, 2599, 2600, 
2601, 2602, 2603, 2604, 2605, 2606, 2607, 2608, 2609, 2610, 
2611, 2612, 2613, 2614, 2615, 2616, 2617, 2618, 2619, 2620, 
2621, 2622, 2623, 2624, 2625, 2626, 2627, 2628, 2629, 2630, 
2631, 2632, 2633, 2634, 2635, 2636, 2637, 2638, 2639, 2640, 
2641, 2642, 2643, 2644, 2645, 2646, 2647, 2648, 2649, 2650, 
2651, 2652, 2653, 2654, 2655, 2656, 2657, 2658, 2659, 2660, 
2661, 2662, 2663, 2664, 2665, 2666, 2667, 2668, 2669, 2670, 
2671, 2672, 2673, 2674, 2675, 2676, 2677, 2678, 2679, 2680, 
2681, 2682, 2683, 2684, 2685, 2686, 2687, 2688, 2689, 2690, 
2691, 2692, 2693, 2694, 2695, 2696, 2697, 2698, 2699, 2700, 
2701, 2702, 2703, 2704, 2705, 2706, 2707, 2708, 2709, 2710, 
2711, 2712, 2713, 2714, 2715, 2716, 2717, 2718, 2719, 2720, 
2721, 2722, 2723, 2724, 2725, 2726, 2727, 2728, 2729, 2730, 
2731, 2732, 2733, 2734, 2735, 2736, 2737, 2738, 2739, 2740, 
2741, 2742, 2743, 2744, 2745, 2746, 2747, 2748, 2749, 2750, 
2751, 2752, 2753, 2754, 2755, 2756, 2757, 2758, 2759, 2760, 
2761, 2762, 2763, 2764, 2765, 2766, 2767, 2768, 2769, 2770, 
2771, 2772, 2773, 2774, 2775, 2776, 2777, 2778, 2779, 2780, 
2781, 2782, 2783, 2784, 2785, 2786, 2787, 2788, 2789, 2790, 
2791, 2792, 2793, 2794, 2795, 2796, 2797, 2798, 2799, 2800, 
2801, 2802, 2803, 2804, 2805, 2806, 2807, 2808, 2809, 2810, 
2811, 2812, 2813, 2814, 2815, 2816, 2817, 2818, 2819, 2820, 
2821, 2822, 2823, 2824, 2825, 2826, 2827, 2828, 2829, 2830, 
2831, 2832, 2833, 2834, 2835, 2836, 2837, 2838, 2839, 2840, 
2841, 2842, 2843, 2844, 2845, 2846, 2847, 2848, 2849, 2850, 
2851, 2852, 2853, 2854, 2855, 2856, 2857, 2858, 2859, 2860, 
2861, 2862, 2863, 2864, 2865, 2866, 2867, 2868, 2869, 2870, 
2871, 2872, 2873, 2874, 2875, 2876, 2877, 2878, 2879, 2880, 
2881, 2882, 2883, 2884, 2885, 2886, 2887, 2888, 2889, 2890, 
2891, 2892, 2893, 2894, 2895, 2896, 2897, 2898, 2899, 2900, 
2901, 2902, 2903, 2904, 2905, 2906, 2907, 2908, 2909, 2910, 
2911, 2912, 2913, 2914, 2915, 2916, 2917, 2918, 2919, 2920, 
2921, 2922, 2923, 2924, 2925, 2926, 2927, 2928, 2929, 2930, 
2931, 2932, 2933, 2934, 2935, 2936, 2937, 2938, 2939, 2940, 
2941, 2942, 2943, 2944, 2945, 2946, 2947, 2948, 2949, 2950, 
2951, 2952, 2953, 2954, 2955, 2956, 2957, 2958, 2959, 2960, 
2961, 2962, 2963, 2964, 2965, 2966, 2967, 2968, 2969, 2970, 
2971, 2972, 2973, 2974, 2975, 2976, 2977, 2978, 2979, 2980, 
2981, 2982, 2983, 2984, 2985, 2986, 2987, 2988, 2989, 2990, 
2991, 2992, 2993, 2994, 2995, 2996, 2997, 2998, 2999, 3000, 
3001, 3002, 3003, 3004, 3005, 3006, 3007, 3008, 3009, 3010, 
3011, 3012, 3013, 3014, 3015, 3016, 3017, 3018, 3019, 3020, 
3021, 3022, 3023, 3024, 3025, 3026, 3027, 3028, 3029, 3030, 
3031, 3032, 3033, 3034, 3035, 3036, 3037, 3038, 3039, 3040, 
3041, 3042, 3043, 3044, 3045, 3046, 3047, 3048, 3049, 3050, 
3051, 3052, 3053, 3054, 3055, 3056, 3057, 3058, 3059, 3060, 
3061, 3062, 3063, 3064, 3065, 3066, 3067, 3068, 3069, 3070, 
3071, 3072, 3073, 3074, 3075, 3076, 3077, 3078, 3079, 3080, 
3081, 3082, 3083, 3084, 3085, 3086, 3087, 3088, 3089, 3090, 
3091, 3092, 3093, 3094, 3095, 3096, 3097, 3098, 3099, 3100, 
3101, 3102, 3103, 3104, 3105, 3106, 3107, 3108, 3109, 3110, 
3111, 3112, 3113, 3114, 3115, 3116, 3117, 3118, 3119, 3120, 
3121, 3122, 3123, 3124, 3125, 3126, 3127, 3128, 3129, 3130, 
3131, 3132, 3133, 3134, 3135, 3136, 3137, 3138, 3139, 3140, 
3141, 3142, 3143, 3144, 3145, 3146, 3147, 3148, 3149, 3150, 
3151, 3152, 3153, 3154, 3155, 3156, 3157, 3158, 3159, 3160, 
3161, 3162, 3163, 3164, 3165, 3166, 3167, 3168, 3169, 3170, 
3171, 3172, 3173, 3174, 3175, 3176, 3177, 3178, 3179, 3180, 
3181, 3182, 3183, 3184, 3185, 3186, 3187, 3188, 3189, 3190, 
3191, 3192, 3193, 3194, 3195, 3196, 3197, 3198, 3199, 3200, 
3201, 3202, 3203, 3204, 3205, 3206, 3207, 3208, 3209, 3210, 
3211, 3212, 3213, 3214, 3215, 3216, 3217, 3218, 3219, 3220, 
3221, 3222, 3223, 3224, 3225, 3226, 3227, 3228, 3229, 3230, 
3231, 3232, 3233, 3234, 3235, 3236, 3237, 3238, 3239, 3240, 
3241, 3242, 3243, 3244, 3245, 3246, 3247, 3248, 3249, 3250, 
3251, 3252, 3253, 3254, 3255, 3256, 3257, 3258, 3259, 3260, 
3261, 3262, 3263, 3264, 3265, 3266, 3267, 3268, 3269, 3270, 
3271, 3272, 3273, 3274, 3275, 3276, 3277, 3278, 3279, 3280, 
3281, 3282, 3283, 3284, 3285, 3286, 3287, 3288, 3289, 3290, 
3291, 3292, 3293, 3294, 3295, 3296, 3297, 3298, 3299, 3300, 
3301, 3302, 3303, 3304, 3305, 3306, 3307, 3308, 3309, 3310, 
3311, 3312, 3313, 3314, 3315, 3316, 3317, 3318, 3319, 3320, 
3321, 3322, 3323, 3324, 3325, 3326, 3327, 3328, 3329, 3330, 
3331, 3332, 3333, 3334, 3335, 3336, 3337, 3338, 3339, 3340, 
3341, 3342, 3343, 3344, 3345, 3346, 3347, 3348, 3349, 3350, 
3351, 3352, 3353, 3354, 3355, 3356, 3357, 3358, 3359, 3360, 
3361, 3362, 3363, 3364, 3365, 3366, 3367, 3368, 3369, 3370, 
3371, 3372, 3373, 3374, 3375, 3376, 3377, 3378, 3379, 3380, 
3381, 3382, 3383, 3384, 3385, 3386, 3387, 3388, 3389, 3390, 
3391, 3392, 3393, 3394, 3395, 3396, 3397, 3398, 3399, 3400, 
3401, 3402, 3403, 3404, 3405, 3406, 3407, 3408, 3409, 3410, 
3411, 3412, 3413, 3414, 3415, 3416, 3417, 3418, 3419, 3420, 
3421, 3422, 3423, 3424, 3425, 3426, 3427, 3428, 3429, 3430, 
3431, 3432, 3433, 3434, 3435, 3436, 3437, 3438, 3439, 3440, 
3441, 3442, 3443, 3444, 3445, 3446, 3447, 3448, 3449, 3450, 
3451, 3452, 3453, 3454, 3455, 3456, 3457, 3458, 3459, 3460, 
3461, 3462, 3463, 3464, 3465, 3466, 3467, 3468, 3469, 3470, 
3471, 3472, 3473, 3474, 3475, 3476, 3477, 3478, 3479, 3480, 
3481, 3482, 3483, 3484, 3485, 3486, 3487, 3488, 3489, 3490, 
3491, 3492, 3493, 3494, 3495, 3496, 3497, 3498, 3499, 3500, 
3501, 3502, 3503, 3504, 3505, 3506, 3507, 3508, 3509, 3510, 
3511, 3512, 3513, 3514, 3515, 3516, 3517, 3518, 3519, 3520, 
3521, 3522, 3523, 3524, 3525, 3526, 3527, 3528, 3529, 3530, 
3531, 3532, 3533, 3534, 3535, 3536, 3537, 3538, 3539, 3540, 
3541, 3542, 3543, 3544, 3545, 3546, 3547, 3548, 3549, 3550, 
3551, 3552, 3553, 3554, 3555, 3556, 3557, 3558, 3559, 3560, 
3561, 3562, 3563, 3564, 3565, 3566, 3567, 3568, 3569, 3570, 
3571, 3572, 3573, 3574, 3575, 3576, 3577, 3578, 3579, 3580, 
3581, 3582, 3583, 3584, 3585, 3586, 3587, 3588, 3589, 3590, 
3591, 3592, 3593, 3594, 3595, 3596, 3597, 3598, 3599, 3600, 
3601, 3602, 3603, 3604, 3605, 3606, 3607, 3608, 3609, 3610, 
3611, 3612, 3613, 3614, 3615, 3616, 3617, 3618, 3619, 3620, 
3621, 3622, 3623, 3624, 3625, 3626, 3627, 3628, 3629, 3630, 
3631, 3632, 3633, 3634, 3635, 3636, 3637, 3638, 3639, 3640, 
3641, 3642, 3643, 3644, 3645, 3646, 3647, 3648, 3649, 3650, 
3651, 3652, 3653, 3654, 3655, 3656, 3657, 3658, 3659, 3660, 
3661, 3662, 3663, 3664, 3665, 3666, 3667, 3668, 3669, 3670, 
3671, 3672, 3673, 3674, 3675, 3676, 3677, 3678, 3679, 3680, 
3681, 3682, 3683, 3684, 3685, 3686, 3687, 3688, 3689, 3690, 
3691, 3692, 3693, 3694, 3695, 3696, 3697, 3698, 3699, 3700, 
3701, 3702, 3703, 3704, 3705, 3706, 3707, 3708, 3709, 3710, 
3711, 3712, 3713, 3714, 3715, 3716, 3717, 3718, 3719, 3720, 
3721, 3722, 3723, 3724, 3725, 3726, 3727, 3728, 3729, 3730, 
3731, 3732, 3733, 3734, 3735, 3736, 3737, 3738, 3739, 3740, 
3741, 3742, 3743, 3744, 3745, 3746, 3747, 3748, 3749, 3750, 
3751, 3752, 3753, 3754, 3755, 3756, 3757, 3758, 3759, 3760, 
3761, 3762, 3763, 3764, 3765, 3766, 3767, 3768, 3769, 3770, 
3771, 3772, 3773, 3774, 3775, 3776, 3777, 3778, 3779, 3780, 
3781, 3782, 3783, 3784, 3785, 3786, 3787, 3788, 3789, 3790, 
3791, 3792, 3793, 3794, 3795, 3796, 3797, 3798, 3799, 3800, 
3801, 3802, 3803, 3804, 3805, 3806, 3807, 3808, 3809, 3810, 
3811, 3812, 3813, 3814, 3815, 3816, 3817, 3818, 3819, 3820, 
3821, 3822, 3823, 3824, 3825, 3826, 3827, 3828, 3829, 3830, 
3831, 3832, 3833, 3834, 3835, 3836, 3837, 3838, 3839, 3840, 
3841, 3842, 3843, 3844, 3845, 3846, 3847, 3848, 3849, 3850, 
3851, 3852, 3853, 3854, 3855, 3856, 3857, 3858, 3859, 3860, 
3861, 3862, 3863, 3864, 3865, 3866, 3867, 3868, 3869, 3870, 
3871, 3872, 3873, 3874, 3875, 3876, 3877, 3878, 3879, 3880, 
3881, 3882, 3883, 3884, 3885, 3886, 3887, 3888, 3889, 3890, 
3891, 3892, 3893, 3894, 3895, 3896, 3897, 3898, 3899, 3900, 
3901, 3902, 3903, 3904, 3905, 3906, 3907, 3908, 3909, 3910, 
3911, 3912, 3913, 3914, 3915, 3916, 3917, 3918, 3919, 3920, 
3921, 3922, 3923, 3924, 3925, 3926, 3927, 3928, 3929, 3930, 
3931, 3932, 3933, 3934, 3935, 3936, 3937, 3938, 3939, 3940, 
3941, 3942, 3943, 3944, 3945, 3946, 3947, 3948, 3949, 3950, 
3951, 3952, 3953, 3954, 3955, 3956, 3957, 3958, 3959, 3960, 
3961, 3962, 3963, 3964, 3965, 3966, 3967, 3968, 3969, 3970, 
3971, 3972, 3973, 3974, 3975, 3976, 3977, 3978, 3979, 3980, 
3981, 3982, 3983, 3984, 3985, 3986, 3987, 3988, 3989, 3990, 
3991, 3992, 3993, 3994, 3995, 3996, 3997, 3998, 3999, 4000, 
4001, 4002, 4003, 4004, 4005, 4006, 4007, 4008, 4009, 4010, 
4011, 4012, 4013, 4014, 4015, 4016, 4017, 4018, 4019, 4020, 
4021, 4022, 4023, 4024, 4025, 4026, 4027, 4028, 4029, 4030, 
4031, 4032, 4033, 4034, 4035, 4036, 4037, 4038, 4039, 4040, 
4041, 4042, 4043, 4044, 4045, 4046, 4047, 4048, 4049, 4050, 
4051, 4052, 4053, 4054, 4055, 4056, 4057, 4058, 4059, 4060, 
4061, 4062, 4063, 4064, 4065, 4066, 4067, 4068, 4069, 4070, 
4071, 4072, 4073, 4074, 4075, 4076, 4077, 4078, 4079, 4080, 
4081, 4082, 4083, 4084, 4085, 4086, 4087, 4088, 4089, 4090, 
4091, 4092, 4093, 4094, 4095, 4096, 4097, 4098, 4099, 4100, 
4101, 4102, 4103, 4104, 4105, 4106, 4107, 4108, 4109, 4110, 
4111, 4112, 4113, 4114, 4115, 4116, 4117, 4118, 4119, 4120, 
4121, 4122, 4123, 4124, 4125, 4126, 4127, 4128, 4129, 4130, 
4131, 4132, 4133, 4134, 4135, 4136, 4137, 4138, 4139, 4140, 
4141, 4142, 4143, 4144, 4145, 4146, 4147, 4148, 4149, 4150, 
4151, 4152, 4153, 4154, 4155, 4156, 4157, 4158, 4159, 4160, 
4161, 4162, 4163, 4164, 4165, 4166, 4167, 4168, 4169, 4170, 
4171, 4172, 4173, 4174, 4175, 4176, 4177, 4178, 4179, 4180, 
4181, 4182, 4183, 4184, 4185, 4186, 4187, 4188, 4189, 4190, 
4191, 4192, 4193, 4194, 4195, 4196, 4197, 4198, 4199, 4200, 
4201, 4202, 4203, 4204, 4205, 4206, 4207, 4208, 4209, 4210, 
4211, 4212, 4213, 4214, 4215, 4216, 4217, 4218, 4219, 4220, 
4221, 4222, 4223, 4224, 4225, 4226, 4227, 4228, 4229, 4230, 
4231, 4232, 4233, 4234, 4235, 4236, 4237, 4238, 4239, 4240, 
4241, 4242, 4243, 4244, 4245, 4246, 4247, 4248, 4249, 4250, 
4251, 4252, 4253, 4254, 4255, 4256, 4257, 4258, 4259, 4260, 
4261, 4262, 4263, 4264, 4265, 4266, 4267, 4268, 4269, 4270, 
4271, 4272, 4273, 4274, 4275, 4276, 4277, 4278, 4279, 4280, 
4281, 4282, 4283, 4284, 4285, 4286, 4287, 4288, 4289, 4290, 
4291, 4292, 4293, 4294, 4295, 4296, 4297, 4298, 4299, 4300, 
4301, 4302, 4303, 4304, 4305, 4306, 4307, 4308, 4309, 4310, 
4311, 4312, 4313, 4314, 4315, 4316, 4317, 4318, 4319, 4320, 
4321, 4322, 4323, 4324, 4325, 4326, 4327, 4328, 4329, 4330, 
4331, 4332, 4333, 4334, 4335, 4336, 4337, 4338, 4339, 4340, 
4341, 4342, 4343, 4344, 4345, 4346, 4347, 4348, 4349, 4350, 
4351, 4352, 4353, 4354, 4355, 4356, 4357, 4358, 4359, 4360, 
4361, 4362, 4363, 4364, 4365, 4366, 4367, 4368, 4369, 4370, 
4371, 4372, 4373, 4374, 4375, 4376, 4377, 4378, 4379, 4380, 
4381, 4382, 4383, 4384, 4385, 4386, 4387, 4388, 4389, 4390, 
4391, 4392, 4393, 4394, 4395, 4396, 4397, 4398, 4399, 4400, 
4401, 4402, 4403, 4404, 4405, 4406, 4407, 4408, 4409, 4410, 
4411, 4412, 4413, 4414, 4415, 4416, 4417, 4418, 4419, 4420, 
4421, 4422, 4423, 4424, 4425, 4426, 4427, 4428, 4429, 4430, 
4431, 4432, 4433, 4434, 4435, 4436, 4437, 4438, 4439, 4440, 
4441, 4442, 4443, 4444, 4445, 4446, 4447, 4448, 4449, 4450, 
4451, 4452, 4453, 4454, 4455, 4456, 4457, 4458, 4459, 4460, 
4461, 4462, 4463, 4464, 4465, 4466, 4467, 4468, 4469, 4470, 
4471, 4472, 4473, 4474, 4475, 4476, 4477, 4478, 4479, 4480, 
4481, 4482, 4483, 4484, 4485, 4486, 4487, 4488, 4489, 4490, 
4491, 4492, 4493, 4494, 4495, 4496, 4497, 4498, 4499, 4500, 
4501, 4502, 4503, 4504, 4505, 4506, 4507, 4508, 4509, 4510, 
4511, 4512, 4513, 4514, 4515, 4516, 4517, 4518, 4519, 4520, 
4521, 4522, 4523, 4524, 4525, 4526, 4527, 4528, 4529, 4530, 
4531, 4532, 4533, 4534, 4535, 4536, 4537, 4538, 4539, 4540, 
4541, 4542, 4543, 4544, 4545, 4546, 4547, 4548, 4549, 4550, 
4551, 4552, 4553, 4554, 4555, 4556, 4557, 4558, 4559, 4560, 
4561, 4562, 4563, 4564, 4565, 4566, 4567, 4568, 4569, 4570, 
4571, 4572, 4573, 4574, 4575, 4576, 4577, 4578, 4579, 4580, 
4581, 4582, 4583, 4584, 4585, 4586, 4587, 4588, 4589, 4590, 
4591, 4592, 4593, 4594, 4595, 4596, 4597, 4598, 4599, 4600, 
4601, 4602, 4603, 4604, 4605, 4606, 4607, 4608, 4609, 4610, 
4611, 4612, 4613, 4614, 4615, 4616, 4617, 4618, 4619, 4620, 
4621, 4622, 4623, 4624, 4625, 4626, 4627, 4628, 4629, 4630, 
4631, 4632, 4633, 4634, 4635, 4636, 4637, 4638, 4639, 4640, 
4641, 4642, 4643, 4644, 4645, 4646, 4647, 4648, 4649, 4650, 
4651, 4652, 4653, 4654, 4655, 4656, 4657, 4658, 4659, 4660, 
4661, 4662, 4663, 4664, 4665, 4666, 4667, 4668, 4669, 4670, 
4671, 4672, 4673, 4674, 4675, 4676, 4677, 4678, 4679, 4680, 
4681, 4682, 4683, 4684, 4685, 4686, 4687, 4688, 4689, 4690, 
4691, 4692, 4693, 4694, 4695, 4696, 4697, 4698, 4699, 4700, 
4701, 4702, 4703, 4704, 4705, 4706, 4707, 4708, 4709, 4710, 
4711, 4712, 4713, 4714, 4715, 4716, 4717, 4718, 4719, 4720, 
4721, 4722, 4723, 4724, 4725, 4726, 4727, 4728, 4729, 4730, 
4731, 4732, 4733, 4734, 4735, 4736, 4737, 4738, 4739, 4740, 
4741, 4742, 4743, 4744, 4745, 4746, 4747, 4748, 4749, 4750, 
4751, 4752, 4753, 4754, 4755, 4756, 4757, 4758, 4759, 4760, 
4761, 4762, 4763, 4764, 4765, 4766, 4767, 4768, 4769, 4770, 
4771, 4772, 4773, 4774, 4775, 4776, 4777, 4778, 4779, 4780, 
4781, 4782, 4783, 4784, 4785, 4786, 4787, 4788, 4789, 4790, 
4791, 4792, 4793, 4794, 4795, 4796, 4797, 4798, 4799, 4800, 
4801, 4802, 4803, 4804, 4805, 4806, 4807, 4808, 4809, 4810, 
4811, 4812, 4813, 4814, 4815, 4816, 4817, 4818, 4819, 4820, 
4821, 4822, 4823, 4824, 4825, 4826, 4827, 4828, 4829, 4830, 
4831, 4832, 4833, 4834, 4835, 4836, 4837, 4838, 4839, 4840, 
4841, 4842, 4843, 4844, 4845, 4846, 4847, 4848, 4849, 4850, 
4851, 4852, 4853, 4854, 4855, 4856, 4857, 4858, 4859, 4860, 
4861, 4862, 4863, 4864, 4865, 4866, 4867, 4868, 4869, 4870, 
4871, 4872, 4873, 4874, 4875, 4876, 4877, 4878, 4879, 4880, 
4881, 4882, 4883, 4884, 4885, 4886, 4887, 4888, 4889, 4890, 
4891, 4892, 4893, 4894, 4895, 4896, 4897, 4898, 4899, 4900, 
4901, 4902, 4903, 4904, 4905, 4906, 4907, 4908, 4909, 4910, 
4911, 4912, 4913, 4914, 4915, 4916, 4917, 4918, 4919, 4920, 
4921, 4922, 4923, 4924, 4925, 4926, 4927, 4928, 4929, 4930, 
4931, 4932, 4933, 4934, 4935, 4936, 4937, 4938, 4939, 4940, 
4941, 4942, 4943, 4944, 4945, 4946, 4947, 4948, 4949, 4950, 
4951, 4952, 4953, 4954, 4955, 4956, 4957, 4958, 4959, 4960, 
4961, 4962, 4963, 4964, 4965, 4966, 4967, 4968, 4969, 4970, 
4971, 4972, 4973, 4974, 4975, 4976, 4977, 4978, 4979, 4980, 
4981, 4982, 4983, 4984, 4985, 4986, 4987, 4988, 4989, 4990, 
4991, 4992, 4993, 4994, 4995, 4996, 4997, 4998, 4999, 5000, 
5001, 5002, 5003, 5004, 5005, 5006, 5007, 5008, 5009, 5010, 
5011, 5012, 5013, 5014, 5015, 5016, 5017, 5018, 5019, 5020, 
5021, 5022, 5023, 5024, 5025, 5026, 5027, 5028, 5029, 5030, 
5031, 5032, 5033, 5034, 5035, 5036, 5037, 5038, 5039, 5040, 
5041, 5042, 5043, 5044, 5045, 5046, 5047, 5048, 5049, 5050, 
5051, 5052, 5053, 5054, 5055, 5056, 5057, 5058, 5059, 5060, 
5061, 5062, 5063, 5064, 5065, 5066, 5067, 5068, 5069, 5070, 
5071, 5072, 5073, 5074, 5075, 5076, 5077, 5078, 5079, 5080, 
5081, 5082, 5083, 5084, 5085, 5086, 5087, 5088, 5089, 5090, 
5091, 5092, 5093, 5094, 5095, 5096, 5097, 5098, 5099, 5100, 
5101, 5102, 5103, 5104, 5105, 5106, 5107, 5108, 5109, 5110, 
5111, 5112, 5113, 5114, 5115, 5116, 5117, 5118, 5119, 5120, 
5121, 5122, 5123, 5124, 5125, 5126, 5127, 5128, 5129, 5130, 
5131, 5132, 5133, 5134, 5135, 5136, 5137, 5138, 5139, 5140, 
5141, 5142, 5143, 5144, 5145, 5146, 5147, 5148, 5149, 5150, 
5151, 5152, 5153, 5154, 5155, 5156, 5157, 5158, 5159, 5160, 
5161, 5162, 5163, 5164, 5165, 5166, 5167, 5168, 5169, 5170, 
5171, 5172, 5173, 5174, 5175, 5176, 5177, 5178, 5179, 5180, 
5181, 5182, 5183, 5184, 5185, 5186, 5187, 5188, 5189, 5190, 
5191, 5192, 5193, 5194, 5195, 5196, 5197, 5198, 5199, 5200, 
5201, 5202, 5203, 5204, 5205, 5206, 5207, 5208, 5209, 5210, 
5211, 5212, 5213, 5214, 5215, 5216, 5217, 5218, 5219, 5220, 
5221, 5222, 5223, 5224, 5225, 5226, 5227, 5228, 5229, 5230, 
5231, 5232, 5233, 5234, 5235, 5236, 5237, 5238, 5239, 5240, 
5241, 5242, 5243, 5244, 5245, 5246, 5247, 5248, 5249, 5250, 
5251, 5252, 5253, 5254, 5255, 5256, 5257, 5258, 5259, 5260, 
5261, 5262, 5263, 5264, 5265, 5266, 5267, 5268, 5269, 5270, 
5271, 5272, 5273, 5274, 5275, 5276, 5277, 5278, 5279, 5280, 
5281, 5282, 5283, 5284, 5285, 5286, 5287, 5288, 5289, 5290, 
5291, 5292, 5293, 5294, 5295, 5296, 5297, 5298, 5299, 5300, 
5301, 5302, 5303, 5304, 5305, 5306, 5307, 5308, 5309, 5310, 
5311, 5312, 5313, 5314, 5315, 5316, 5317, 5318, 5319, 5320, 
5321, 5322, 5323, 5324, 5325, 5326, 5327, 5328, 5329, 5330, 
5331, 5332, 5333, 5334, 5335, 5336, 5337, 5338, 5339, 5340, 
5341, 5342, 5343, 5344, 5345, 5346, 5347, 5348, 5349, 5350, 
5351, 5352, 5353, 5354, 5355, 5356, 5357, 5358, 5359, 5360, 
5361, 5362, 5363, 5364, 5365, 5366, 5367, 5368, 5369, 5370, 
5371, 5372, 5373, 5374, 5375, 5376, 5377, 5378, 5379, 5380, 
5381, 5382, 5383, 5384, 5385, 5386, 5387, 5388, 5389, 5390, 
5391, 5392, 5393, 5394, 5395, 5396, 5397, 5398, 5399, 5400, 
5401, 5402, 5403, 5404, 5405, 5406, 5407, 5408, 5409, 5410, 
5411, 5412, 5413, 5414, 5415, 5416, 5417, 5418, 5419, 5420, 
5421, 5422, 5423, 5424, 5425, 5426, 5427, 5428, 5429, 5430, 
5431, 5432, 5433, 5434, 5435, 5436, 5437, 5438, 5439, 5440, 
5441, 5442, 5443, 5444, 5445, 5446, 5447, 5448, 5449, 5450, 
5451, 5452, 5453, 5454, 5455, 5456, 5457, 5458, 5459, 5460, 
5461, 5462, 5463, 5464, 5465, 5466, 5467, 5468, 5469, 5470, 
5471, 5472, 5473, 5474, 5475, 5476, 5477, 5478, 5479, 5480, 
5481, 5482, 5483, 5484, 5485, 5486, 5487, 5488, 5489, 5490, 
5491, 5492, 5493, 5494, 5495, 5496, 5497, 5498, 5499, 5500, 
5501, 5502, 5503, 5504, 5505, 5506, 5507, 5508, 5509, 5510, 
5511, 5512, 5513, 5514, 5515, 5516, 5517, 5518, 5519, 5520, 
5521, 5522, 5523, 5524, 5525, 5526, 5527, 5528, 5529, 5530, 
5531, 5532, 5533, 5534, 5535, 5536, 5537, 5538, 5539, 5540, 
5541, 5542, 5543, 5544, 5545, 5546, 5547, 5548, 5549, 5550, 
5551, 5552, 5553, 5554, 5555, 5556, 5557, 5558, 5559, 5560, 
5561, 5562, 5563, 5564, 5565, 5566, 5567, 5568, 5569, 5570, 
5571, 5572, 5573, 5574, 5575, 5576, 5577, 5578, 5579, 5580, 
5581, 5582, 5583, 5584, 5585, 5586, 5587, 5588, 5589, 5590, 
5591, 5592, 5593, 5594, 5595, 5596, 5597, 5598, 5599, 5600, 
5601, 5602, 5603, 5604, 5605, 5606, 5607, 5608, 5609, 5610, 
5611, 5612, 5613, 5614, 5615, 5616, 5617, 5618, 5619, 5620, 
5621, 5622, 5623, 5624, 5625, 5626, 5627, 5628, 5629, 5630, 
5631, 5632, 5633, 5634, 5635, 5636, 5637, 5638, 5639, 5640, 
5641, 5642, 5643, 5644, 5645, 5646, 5647, 5648, 5649, 5650, 
5651, 5652, 5653, 5654, 5655, 5656, 5657, 5658, 
