**Heading
nonlinear buckling analysis, skirt  with openings and holes under load, shell mesh
*INCLUDE, INPUT=all.msh
*INCLUDE, INPUT=skir_sless_top_LOAD.nam
*INCLUDE, INPUT=base_plate_center_YFIX.nam
*BOUNDARY
Nbase_plate_center_YFIX,1,3
Nskir_sless_top_LOAD,1,2

*Material, Name=S450
*Density
7.8E-09
*Elastic
210000, 0.28
*Expansion, Zero=20
1.1E-05
*Conductivity
14
*Specific heat
440000000
*Plastic
450, 0
495, 0.02
540, 0.05
675, 0.4
**

*SHELL SECTION, ELSET=Eall, COMPOSITE
12.5,,S450
12.5,,S450

** step 1, nonlinear displacement control buckling analysis 
*STEP,NLGEOM,INC=10000
*STATIC
0.02,1,1e-4,0.1 
*BOUNDARY, 
Nskir_sless_top_LOAD,3,3,100
*NODE FILE, OUTPUT=2D
U
*EL FILE
S
*NODE PRINT, NSET=Nskir_sless_top_LOAD
U
*NODE PRINT, NSET=Nbase_plate_center_YFIX, TOTALS=ONLY
RF

*END STEP