*Heading
 noholes_S8_256.inp
*NODE
1, 1627.5, 0, -415
2, 1627.5, 0, -8667.5
3, 1627.5, 0, 0
4, 1627.5, 0, -10667.5
5, 1607.4627743186, 254.59709185298, -415
6, 1547.8444802704, 502.92515834523, -415
7, 1450.1131181166, 738.86953832611, -415
8, 1316.6751583452, 956.620498106, -415
9, 1150.8162863811, 1150.8162863811, -415
10, 956.620498106, 1316.6751583452, -415
11, 738.86953832611, 1450.1131181166, -415
12, 502.92515834523, 1547.8444802704, -415
13, 254.59709185298, 1607.4627743186, -415
14, -2.6172196123487e-13, 1627.5, -415
15, -254.59709185298, 1607.4627743186, -415
16, -502.92515834523, 1547.8444802704, -415
17, -738.86953832611, 1450.1131181166, -415
18, -956.620498106, 1316.6751583452, -415
19, -1150.8162863811, 1150.8162863811, -415
20, -1316.6751583452, 956.620498106, -415
21, -1450.1131181166, 738.86953832611, -415
22, -1547.8444802704, 502.92515834523, -415
23, -1607.4627743186, 254.59709185298, -415
24, -1627.5, 1.9931126656123e-13, -415
25, -1607.4627743186, -254.59709185298, -415
26, -1547.8444802704, -502.92515834523, -415
27, -1450.1131181166, -738.86953832611, -415
28, -1316.6751583452, -956.620498106, -415
29, -1150.8162863811, -1150.8162863811, -415
30, -956.620498106, -1316.6751583452, -415
31, -738.86953832611, -1450.1131181166, -415
32, -502.92515834523, -1547.8444802704, -415
33, -254.59709185298, -1607.4627743186, -415
34, -2.9896689984185e-13, -1627.5, -415
35, 254.59709185298, -1607.4627743186, -415
36, 502.92515834523, -1547.8444802704, -415
37, 738.86953832611, -1450.1131181166, -415
38, 956.620498106, -1316.6751583452, -415
39, 1150.8162863811, -1150.8162863811, -415
40, 1316.6751583452, -956.620498106, -415
41, 1450.1131181166, -738.86953832611, -415
42, 1547.8444802704, -502.92515834523, -415
43, 1607.4627743186, -254.59709185298, -415
44, 1622.4829606507, 127.69217829707, -415
45, 1582.5320454472, 379.93232967549, -415
46, 1503.6139391621, 622.81728617418, -415
47, 1387.6718674863, 850.36641407521, -415
48, 1237.5607090141, 1056.9766986574, -415
49, 1056.9766986574, 1237.5607090141, -415
50, 850.36641407521, 1387.6718674863, -415
51, 622.81728617418, 1503.6139391621, -415
52, 379.93232967549, 1582.5320454472, -415
53, 127.69217829707, 1622.4829606507, -415
54, -127.69217829707, 1622.4829606507, -415
55, -379.93232967549, 1582.5320454472, -415
56, -622.81728617418, 1503.6139391621, -415
57, -850.36641407521, 1387.6718674863, -415
58, -1056.9766986574, 1237.560709014, -415
59, -1237.5607090141, 1056.9766986574, -415
60, -1387.6718674863, 850.36641407521, -415
61, -1503.6139391621, 622.81728617418, -415
62, -1582.5320454472, 379.93232967549, -415
63, -1622.4829606507, 127.69217829707, -415
64, -1622.4829606507, -127.69217829707, -415
65, -1582.5320454472, -379.93232967549, -415
66, -1503.6139391621, -622.81728617418, -415
67, -1387.6718674863, -850.36641407521, -415
68, -1237.5607090141, -1056.9766986574, -415
69, -1056.9766986574, -1237.5607090141, -415
70, -850.36641407521, -1387.6718674863, -415
71, -622.81728617418, -1503.6139391621, -415
72, -379.93232967549, -1582.5320454472, -415
73, -127.69217829707, -1622.4829606507, -415
74, 127.69217829707, -1622.4829606507, -415
75, 379.93232967549, -1582.5320454472, -415
76, 622.81728617418, -1503.6139391621, -415
77, 850.36641407521, -1387.6718674863, -415
78, 1056.9766986574, -1237.5607090141, -415
79, 1237.5607090141, -1056.9766986574, -415
80, 1387.6718674863, -850.36641407521, -415
81, 1503.6139391621, -622.81728617418, -415
82, 1582.5320454472, -379.93232967549, -415
83, 1622.4829606507, -127.69217829707, -415
84, 1627.5, 9.9655633280616e-14, -657.72058823529
85, 1627.5, 9.9655633280616e-14, -900.44117647059
86, 1627.5, 9.9655633280616e-14, -1143.1617647059
87, 1627.5, 9.9655633280616e-14, -1385.8823529412
88, 1627.5, 9.9655633280616e-14, -1628.6029411765
89, 1627.5, 9.9655633280616e-14, -1871.3235294118
90, 1627.5, 9.9655633280616e-14, -2114.0441176471
91, 1627.5, 9.9655633280616e-14, -2356.7647058824
92, 1627.5, 9.9655633280616e-14, -2599.4852941176
93, 1627.5, 9.9655633280616e-14, -2842.2058823529
94, 1627.5, 9.9655633280616e-14, -3084.9264705882
95, 1627.5, 9.9655633280616e-14, -3327.6470588235
96, 1627.5, 9.9655633280616e-14, -3570.3676470588
97, 1627.5, 9.9655633280616e-14, -3813.0882352941
98, 1627.5, 9.9655633280616e-14, -4055.8088235294
99, 1627.5, 9.9655633280616e-14, -4298.5294117647
100, 1627.5, 9.9655633280616e-14, -4541.25
101, 1627.5, 9.9655633280616e-14, -4783.9705882353
102, 1627.5, 9.9655633280616e-14, -5026.6911764706
103, 1627.5, 9.9655633280616e-14, -5269.4117647059
104, 1627.5, 9.9655633280616e-14, -5512.1323529412
105, 1627.5, 9.9655633280616e-14, -5754.8529411765
106, 1627.5, 9.9655633280616e-14, -5997.5735294118
107, 1627.5, 9.9655633280616e-14, -6240.2941176471
108, 1627.5, 9.9655633280616e-14, -6483.0147058824
109, 1627.5, 9.9655633280616e-14, -6725.7352941176
110, 1627.5, 9.9655633280616e-14, -6968.4558823529
111, 1627.5, 9.9655633280616e-14, -7211.1764705882
112, 1627.5, 9.9655633280616e-14, -7453.8970588235
113, 1627.5, 9.9655633280616e-14, -7696.6176470588
114, 1627.5, 9.9655633280616e-14, -7939.3382352941
115, 1627.5, 9.9655633280616e-14, -8182.0588235294
116, 1627.5, 9.9655633280616e-14, -8424.7794117647
117, 1627.5, 9.9655633280616e-14, -536.36029411765
118, 1627.5, 9.9655633280616e-14, -779.08088235294
119, 1627.5, 9.9655633280616e-14, -1021.8014705882
120, 1627.5, 9.9655633280616e-14, -1264.5220588235
121, 1627.5, 9.9655633280616e-14, -1507.2426470588
122, 1627.5, 9.9655633280616e-14, -1749.9632352941
123, 1627.5, 9.9655633280616e-14, -1992.6838235294
124, 1627.5, 9.9655633280616e-14, -2235.4044117647
125, 1627.5, 9.9655633280616e-14, -2478.125
126, 1627.5, 9.9655633280616e-14, -2720.8455882353
127, 1627.5, 9.9655633280616e-14, -2963.5661764706
128, 1627.5, 9.9655633280616e-14, -3206.2867647059
129, 1627.5, 9.9655633280616e-14, -3449.0073529412
130, 1627.5, 9.9655633280616e-14, -3691.7279411765
131, 1627.5, 9.9655633280616e-14, -3934.4485294118
132, 1627.5, 9.9655633280616e-14, -4177.1691176471
133, 1627.5, 9.9655633280616e-14, -4419.8897058824
134, 1627.5, 9.9655633280616e-14, -4662.6102941176
135, 1627.5, 9.9655633280616e-14, -4905.3308823529
136, 1627.5, 9.9655633280616e-14, -5148.0514705882
137, 1627.5, 9.9655633280616e-14, -5390.7720588235
138, 1627.5, 9.9655633280616e-14, -5633.4926470588
139, 1627.5, 9.9655633280616e-14, -5876.2132352941
140, 1627.5, 9.9655633280616e-14, -6118.9338235294
141, 1627.5, 9.9655633280616e-14, -6361.6544117647
142, 1627.5, 9.9655633280616e-14, -6604.375
143, 1627.5, 9.9655633280616e-14, -6847.0955882353
144, 1627.5, 9.9655633280616e-14, -7089.8161764706
145, 1627.5, 9.9655633280616e-14, -7332.5367647059
146, 1627.5, 9.9655633280616e-14, -7575.2573529412
147, 1627.5, 9.9655633280616e-14, -7817.9779411765
148, 1627.5, 9.9655633280616e-14, -8060.6985294118
149, 1627.5, 9.9655633280616e-14, -8303.4191176471
150, 1627.5, 9.9655633280616e-14, -8546.1397058824
151, 1607.4627743186, 254.59709185298, -8667.5
152, 1547.8444802704, 502.92515834523, -8667.5
153, 1450.1131181166, 738.86953832611, -8667.5
154, 1316.6751583452, 956.620498106, -8667.5
155, 1150.8162863811, 1150.8162863811, -8667.5
156, 956.620498106, 1316.6751583452, -8667.5
157, 738.86953832611, 1450.1131181166, -8667.5
158, 502.92515834523, 1547.8444802704, -8667.5
159, 254.59709185298, 1607.4627743186, -8667.5
160, -2.6172196123487e-13, 1627.5, -8667.5
161, -254.59709185298, 1607.4627743186, -8667.5
162, -502.92515834523, 1547.8444802704, -8667.5
163, -738.86953832611, 1450.1131181166, -8667.5
164, -956.620498106, 1316.6751583452, -8667.5
165, -1150.8162863811, 1150.8162863811, -8667.5
166, -1316.6751583452, 956.620498106, -8667.5
167, -1450.1131181166, 738.86953832611, -8667.5
168, -1547.8444802704, 502.92515834523, -8667.5
169, -1607.4627743186, 254.59709185298, -8667.5
170, -1627.5, 1.9931126656123e-13, -8667.5
171, -1607.4627743186, -254.59709185298, -8667.5
172, -1547.8444802704, -502.92515834523, -8667.5
173, -1450.1131181166, -738.86953832611, -8667.5
174, -1316.6751583452, -956.620498106, -8667.5
175, -1150.8162863811, -1150.8162863811, -8667.5
176, -956.620498106, -1316.6751583452, -8667.5
177, -738.86953832611, -1450.1131181166, -8667.5
178, -502.92515834523, -1547.8444802704, -8667.5
179, -254.59709185298, -1607.4627743186, -8667.5
180, -2.9896689984185e-13, -1627.5, -8667.5
181, 254.59709185298, -1607.4627743186, -8667.5
182, 502.92515834523, -1547.8444802704, -8667.5
183, 738.86953832611, -1450.1131181166, -8667.5
184, 956.620498106, -1316.6751583452, -8667.5
185, 1150.8162863811, -1150.8162863811, -8667.5
186, 1316.6751583452, -956.620498106, -8667.5
187, 1450.1131181166, -738.86953832611, -8667.5
188, 1547.8444802704, -502.92515834523, -8667.5
189, 1607.4627743186, -254.59709185298, -8667.5
190, 1622.4829606507, 127.69217829707, -8667.5
191, 1582.5320454472, 379.93232967549, -8667.5
192, 1503.6139391621, 622.81728617418, -8667.5
193, 1387.6718674863, 850.36641407521, -8667.5
194, 1237.5607090141, 1056.9766986574, -8667.5
195, 1056.9766986574, 1237.5607090141, -8667.5
196, 850.36641407521, 1387.6718674863, -8667.5
197, 622.81728617418, 1503.6139391621, -8667.5
198, 379.93232967549, 1582.5320454472, -8667.5
199, 127.69217829707, 1622.4829606507, -8667.5
200, -127.69217829707, 1622.4829606507, -8667.5
201, -379.93232967549, 1582.5320454472, -8667.5
202, -622.81728617418, 1503.6139391621, -8667.5
203, -850.36641407521, 1387.6718674863, -8667.5
204, -1056.9766986574, 1237.560709014, -8667.5
205, -1237.5607090141, 1056.9766986574, -8667.5
206, -1387.6718674863, 850.36641407521, -8667.5
207, -1503.6139391621, 622.81728617418, -8667.5
208, -1582.5320454472, 379.93232967549, -8667.5
209, -1622.4829606507, 127.69217829707, -8667.5
210, -1622.4829606507, -127.69217829707, -8667.5
211, -1582.5320454472, -379.93232967549, -8667.5
212, -1503.6139391621, -622.81728617418, -8667.5
213, -1387.6718674863, -850.36641407521, -8667.5
214, -1237.5607090141, -1056.9766986574, -8667.5
215, -1056.9766986574, -1237.5607090141, -8667.5
216, -850.36641407521, -1387.6718674863, -8667.5
217, -622.81728617418, -1503.6139391621, -8667.5
218, -379.93232967549, -1582.5320454472, -8667.5
219, -127.69217829707, -1622.4829606507, -8667.5
220, 127.69217829707, -1622.4829606507, -8667.5
221, 379.93232967549, -1582.5320454472, -8667.5
222, 622.81728617418, -1503.6139391621, -8667.5
223, 850.36641407521, -1387.6718674863, -8667.5
224, 1056.9766986574, -1237.5607090141, -8667.5
225, 1237.5607090141, -1056.9766986574, -8667.5
226, 1387.6718674863, -850.36641407521, -8667.5
227, 1503.6139391621, -622.81728617418, -8667.5
228, 1582.5320454472, -379.93232967549, -8667.5
229, 1622.4829606507, -127.69217829707, -8667.5
230, 1607.4627743186, 254.59709185298, 0
231, 1547.8444802704, 502.92515834523, 0
232, 1450.1131181166, 738.86953832611, 0
233, 1316.6751583452, 956.620498106, 0
234, 1150.8162863811, 1150.8162863811, 0
235, 956.620498106, 1316.6751583452, 0
236, 738.86953832611, 1450.1131181166, 0
237, 502.92515834523, 1547.8444802704, 0
238, 254.59709185298, 1607.4627743186, 0
239, -2.6172196123487e-13, 1627.5, 0
240, -254.59709185298, 1607.4627743186, 0
241, -502.92515834523, 1547.8444802704, 0
242, -738.86953832611, 1450.1131181166, 0
243, -956.620498106, 1316.6751583452, 0
244, -1150.8162863811, 1150.8162863811, 0
245, -1316.6751583452, 956.620498106, 0
246, -1450.1131181166, 738.86953832611, 0
247, -1547.8444802704, 502.92515834523, 0
248, -1607.4627743186, 254.59709185298, 0
249, -1627.5, 1.9931126656123e-13, 0
250, -1607.4627743186, -254.59709185298, 0
251, -1547.8444802704, -502.92515834523, 0
252, -1450.1131181166, -738.86953832611, 0
253, -1316.6751583452, -956.620498106, 0
254, -1150.8162863811, -1150.8162863811, 0
255, -956.620498106, -1316.6751583452, 0
256, -738.86953832611, -1450.1131181166, 0
257, -502.92515834523, -1547.8444802704, 0
258, -254.59709185298, -1607.4627743186, 0
259, -2.9896689984185e-13, -1627.5, 0
260, 254.59709185298, -1607.4627743186, 0
261, 502.92515834523, -1547.8444802704, 0
262, 738.86953832611, -1450.1131181166, 0
263, 956.620498106, -1316.6751583452, 0
264, 1150.8162863811, -1150.8162863811, 0
265, 1316.6751583452, -956.620498106, 0
266, 1450.1131181166, -738.86953832611, 0
267, 1547.8444802704, -502.92515834523, 0
268, 1607.4627743186, -254.59709185298, 0
269, 1622.4829606507, 127.69217829707, 0
270, 1582.5320454472, 379.93232967549, 0
271, 1503.6139391621, 622.81728617418, 0
272, 1387.6718674863, 850.36641407521, 0
273, 1237.5607090141, 1056.9766986574, 0
274, 1056.9766986574, 1237.5607090141, 0
275, 850.36641407521, 1387.6718674863, 0
276, 622.81728617418, 1503.6139391621, 0
277, 379.93232967549, 1582.5320454472, 0
278, 127.69217829707, 1622.4829606507, 0
279, -127.69217829707, 1622.4829606507, 0
280, -379.93232967549, 1582.5320454472, 0
281, -622.81728617418, 1503.6139391621, 0
282, -850.36641407521, 1387.6718674863, 0
283, -1056.9766986574, 1237.560709014, 0
284, -1237.5607090141, 1056.9766986574, 0
285, -1387.6718674863, 850.36641407521, 0
286, -1503.6139391621, 622.81728617418, 0
287, -1582.5320454472, 379.93232967549, 0
288, -1622.4829606507, 127.69217829707, 0
289, -1622.4829606507, -127.69217829707, 0
290, -1582.5320454472, -379.93232967549, 0
291, -1503.6139391621, -622.81728617418, 0
292, -1387.6718674863, -850.36641407521, 0
293, -1237.5607090141, -1056.9766986574, 0
294, -1056.9766986574, -1237.5607090141, 0
295, -850.36641407521, -1387.6718674863, 0
296, -622.81728617418, -1503.6139391621, 0
297, -379.93232967549, -1582.5320454472, 0
298, -127.69217829707, -1622.4829606507, 0
299, 127.69217829707, -1622.4829606507, 0
300, 379.93232967549, -1582.5320454472, 0
301, 622.81728617418, -1503.6139391621, 0
302, 850.36641407521, -1387.6718674863, 0
303, 1056.9766986574, -1237.5607090141, 0
304, 1237.5607090141, -1056.9766986574, 0
305, 1387.6718674863, -850.36641407521, 0
306, 1503.6139391621, -622.81728617418, 0
307, 1582.5320454472, -379.93232967549, 0
308, 1622.4829606507, -127.69217829707, 0
309, 1627.5, 9.9655633280616e-14, -207.5
310, 1627.5, 9.9655633280616e-14, -103.75
311, 1627.5, 9.9655633280616e-14, -311.25
312, 1627.5, 9.9655633280616e-14, -8917.5
313, 1627.5, 9.9655633280616e-14, -9167.5
314, 1627.5, 9.9655633280616e-14, -9417.5
315, 1627.5, 9.9655633280616e-14, -9667.5
316, 1627.5, 9.9655633280616e-14, -9917.5
317, 1627.5, 9.9655633280616e-14, -10167.5
318, 1627.5, 9.9655633280616e-14, -10417.5
319, 1627.5, 9.9655633280616e-14, -8792.5
320, 1627.5, 9.9655633280616e-14, -9042.5
321, 1627.5, 9.9655633280616e-14, -9292.5
322, 1627.5, 9.9655633280616e-14, -9542.5
323, 1627.5, 9.9655633280616e-14, -9792.5
324, 1627.5, 9.9655633280616e-14, -10042.5
325, 1627.5, 9.9655633280616e-14, -10292.5
326, 1627.5, 9.9655633280616e-14, -10542.5
327, 1607.4627743186, 254.59709185298, -10667.5
328, 1547.8444802704, 502.92515834523, -10667.5
329, 1450.1131181166, 738.86953832611, -10667.5
330, 1316.6751583452, 956.620498106, -10667.5
331, 1150.8162863811, 1150.8162863811, -10667.5
332, 956.620498106, 1316.6751583452, -10667.5
333, 738.86953832611, 1450.1131181166, -10667.5
334, 502.92515834523, 1547.8444802704, -10667.5
335, 254.59709185298, 1607.4627743186, -10667.5
336, -2.6172196123487e-13, 1627.5, -10667.5
337, -254.59709185298, 1607.4627743186, -10667.5
338, -502.92515834523, 1547.8444802704, -10667.5
339, -738.86953832611, 1450.1131181166, -10667.5
340, -956.620498106, 1316.6751583452, -10667.5
341, -1150.8162863811, 1150.8162863811, -10667.5
342, -1316.6751583452, 956.620498106, -10667.5
343, -1450.1131181166, 738.86953832611, -10667.5
344, -1547.8444802704, 502.92515834523, -10667.5
345, -1607.4627743186, 254.59709185298, -10667.5
346, -1627.5, 1.9931126656123e-13, -10667.5
347, -1607.4627743186, -254.59709185298, -10667.5
348, -1547.8444802704, -502.92515834523, -10667.5
349, -1450.1131181166, -738.86953832611, -10667.5
350, -1316.6751583452, -956.620498106, -10667.5
351, -1150.8162863811, -1150.8162863811, -10667.5
352, -956.620498106, -1316.6751583452, -10667.5
353, -738.86953832611, -1450.1131181166, -10667.5
354, -502.92515834523, -1547.8444802704, -10667.5
355, -254.59709185298, -1607.4627743186, -10667.5
356, -2.9896689984185e-13, -1627.5, -10667.5
357, 254.59709185298, -1607.4627743186, -10667.5
358, 502.92515834523, -1547.8444802704, -10667.5
359, 738.86953832611, -1450.1131181166, -10667.5
360, 956.620498106, -1316.6751583452, -10667.5
361, 1150.8162863811, -1150.8162863811, -10667.5
362, 1316.6751583452, -956.620498106, -10667.5
363, 1450.1131181166, -738.86953832611, -10667.5
364, 1547.8444802704, -502.92515834523, -10667.5
365, 1607.4627743186, -254.59709185298, -10667.5
366, 1622.4829606507, 127.69217829707, -10667.5
367, 1582.5320454472, 379.93232967549, -10667.5
368, 1503.6139391621, 622.81728617418, -10667.5
369, 1387.6718674863, 850.36641407521, -10667.5
370, 1237.5607090141, 1056.9766986574, -10667.5
371, 1056.9766986574, 1237.5607090141, -10667.5
372, 850.36641407521, 1387.6718674863, -10667.5
373, 622.81728617418, 1503.6139391621, -10667.5
374, 379.93232967549, 1582.5320454472, -10667.5
375, 127.69217829707, 1622.4829606507, -10667.5
376, -127.69217829707, 1622.4829606507, -10667.5
377, -379.93232967549, 1582.5320454472, -10667.5
378, -622.81728617418, 1503.6139391621, -10667.5
379, -850.36641407521, 1387.6718674863, -10667.5
380, -1056.9766986574, 1237.560709014, -10667.5
381, -1237.5607090141, 1056.9766986574, -10667.5
382, -1387.6718674863, 850.36641407521, -10667.5
383, -1503.6139391621, 622.81728617418, -10667.5
384, -1582.5320454472, 379.93232967549, -10667.5
385, -1622.4829606507, 127.69217829707, -10667.5
386, -1622.4829606507, -127.69217829707, -10667.5
387, -1582.5320454472, -379.93232967549, -10667.5
388, -1503.6139391621, -622.81728617418, -10667.5
389, -1387.6718674863, -850.36641407521, -10667.5
390, -1237.5607090141, -1056.9766986574, -10667.5
391, -1056.9766986574, -1237.5607090141, -10667.5
392, -850.36641407521, -1387.6718674863, -10667.5
393, -622.81728617418, -1503.6139391621, -10667.5
394, -379.93232967549, -1582.5320454472, -10667.5
395, -127.69217829707, -1622.4829606507, -10667.5
396, 127.69217829707, -1622.4829606507, -10667.5
397, 379.93232967549, -1582.5320454472, -10667.5
398, 622.81728617418, -1503.6139391621, -10667.5
399, 850.36641407521, -1387.6718674863, -10667.5
400, 1056.9766986574, -1237.5607090141, -10667.5
401, 1237.5607090141, -1056.9766986574, -10667.5
402, 1387.6718674863, -850.36641407521, -10667.5
403, 1503.6139391621, -622.81728617418, -10667.5
404, 1582.5320454472, -379.93232967549, -10667.5
405, 1622.4829606507, -127.69217829707, -10667.5
406, -10.314049452594, -1627.4673177621, -571.08568518604
407, -229.89444087772, -1611.1811803933, -639.10659663667
408, -1578.3201918509, 397.06626902306, -6566.4577931923
409, -1627.4383127042, 14.169980329071, -6646.7242692568
410, -1613.0453538993, 216.42766982015, -6772.2324005279
411, -1626.1470243371, 66.348362750107, -6956.1013325177
412, -1567.7168384255, 437.05853671703, -833.50288195101
413, -1607.6485434745, 253.42140924599, -1090.0527258152
414, -1559.2604747742, 466.32930618511, -1054.1814109389
415, -1545.685856693, 509.52083609934, -1264.4947893045
416, -1595.5222161646, -321.03754877764, -4057.3888410096
417, -1564.2683148389, -449.24479873565, -3877.9829938054
418, -1540.7036944092, -524.39334095097, -4193.7012283712
419, 1544.6812609946, 512.55834002779, -5656.4369716826
420, 1429.0949588038, 778.74504731757, -5600.1671750702
421, 1479.9223103991, 677.18993287182, -5776.2687361521
422, 1348.5576681304, 911.12483542409, -5713.2065337139
423, 1618.2462275413, -173.30723311046, -8110.8229308974
424, 1595.4736077578, -321.27903284876, -8253.9195946541
425, 1583.5336082412, -375.73602644741, -8123.9004736338
426, 1471.0050706864, -696.34785273952, -2627.6153491401
427, 1562.4029066102, -455.69003436124, -2614.133930643
428, 1503.9250444918, -622.06568025434, -2772.9763760502
429, 1068.052162262, 1228.0149953024, -6986.5756460397
430, 1221.2619310435, 1075.7674217896, -6995.3943655672
431, 1535.0734251583, 540.65315071018, -3541.9508304068
432, 1436.9018298794, 764.24432041666, -3576.9320328876
433, 1520.7465717371, 579.72934594509, -3725.3939897009
434, 1618.2462275413, 173.30723311045, -971.67706910257
435, 1594.3164437447, 326.97297626156, -825.90893648961
436, 1583.0560786164, 377.74290457356, -961.7639451572
437, 1481.8893462612, 672.87459116651, -3370.6127096721
438, -1576.5858632964, -403.89759302807, -5464.251736875
439, -1533.5114381512, -545.06781143204, -5718.1681591105
440, -1609.6623363586, -240.29859115008, -5751.5970907309
441, 859.21523846487, -1382.2103399952, -672.02554076387
442, 1094.5658514206, -1204.44254612, -562.68171741954
443, 1098.29357398, -1201.0443269731, -796.90141816609
444, -1616.0444926633, -192.76007816088, -4627.874106024
445, -1591.2290559306, -341.68163773042, -4822.7848067332
446, -1595.7098707871, -320.10351180919, -1999.8214792638
447, -1599.0103091031, -303.18687534569, -2360.3987472152
448, -1621.4455089536, -140.25231368606, -2146.8493752201
449, -1623.9342685686, -107.674237255, -2409.0249195118
450, 933.39577107929, 1333.239882591, -8456.8108888229
451, 1073.0404771145, 1223.6586061782, -8485.0976160298
452, 1072.3483482982, 1224.2651959041, -8306.6828951604
453, 1618.6115919008, -169.86101543444, -7574.9435382057
454, 1620.3493195091, -152.39531740261, -7781.7608958606
455, 1616.009008672, 193.05733317025, -8056.7760169901
456, 1612.6916336651, 219.04781374526, -7863.0033926047
457, 1581.4638857382, 384.35430023057, -8050.8441807199
458, 1618.6115919008, 169.86101543443, -1507.5564617943
459, 1620.3493195091, 152.3953174026, -1300.7391041394
460, -1599.1442503183, -302.47961365008, -2596.3759741642
461, -1619.2633644919, -163.53105642126, -1797.041031201
462, -1546.7530011874, -506.27206452448, -1841.6125919415
463, -901.6605621897, 1354.9038639666, -1124.8498053852
464, -859.88857014137, 1381.7915533612, -905.67174916735
465, -1023.0766753383, 1265.729183664, -827.60009251531
466, -1607.3902707765, 255.05444009658, -7087.3211745048
467, -1625.4169630358, -82.316136180138, -7128.588910165
468, -681.31530693094, 1478.0276393023, -985.44261981173
469, -1608.5114077755, -247.88566125519, -917.09316802914
470, -1543.3013264763, -516.69842819245, -666.59299255495
471, -1539.4331765956, -528.11148898383, -983.04854127948
472, -1547.5758882718, -503.75104966629, -4985.7504572723
473, -1588.2832816207, -355.1231720461, -5144.1350413064
474, -1532.36606186, -548.27958420823, -5282.6766260518
475, -1533.0084394819, -546.48090037733, -4720.5611908354
476, -1568.9216003163, -432.71383391434, -4450.9047530242
477, -1605.8051692628, -264.85091725103, -662.18829768352
478, 1607.748184622, 252.78849824427, -2985.4910604074
479, 1614.6039543171, 204.47572155033, -3220.2441502623
480, -1626.5591119419, 55.332678940444, -7629.542323247
481, -1610.9313318251, -231.63871469223, -7686.9346280728
482, -1627.4527527549, 12.40111086244, -7840.0523569812
483, -1604.8147004615, 270.78778994406, -7407.8543123643
484, -1625.1382520667, 87.646515445541, -7258.8747707061
485, -1523.3530420236, -572.84531887547, -3011.4094485123
486, -1538.3075054374, -531.38147193408, -2796.5648521517
487, -1480.3569013612, -676.23937669456, -2779.0698900562
488, -1548.0290261317, -502.35682960794, -2593.462624679
489, 8.0250555803473, -1627.4802144674, -7810.6886923092
490, 164.17496225208, -1619.1982064496, -7750.7371512676
491, 116.73226995993, -1623.3082970126, -8001.9114056629
492, 318.59988423548, -1596.0107655543, -7860.3306998936
493, -60.446723698408, 1626.3770914502, -1138.021281056
494, 263.74805255413, 1605.9866795132, -1280.5211839483
495, 154.82194135698, 1620.1192599542, -1061.405338455
496, 101.92325570174, -1624.3053592066, -8253.2390204847
497, 325.72922716459, -1594.5710145901, -8348.0903266524
498, 143.63800812555, -1621.1490901893, -8407.8396455913
499, 1577.7069003815, 399.49616579959, -7823.7430847201
500, 1616.009008672, -193.05733317025, -1025.7239830099
501, 1612.6916336651, -219.04781374526, -1219.4966073953
502, 1579.9740669827, -390.43334599149, -1028.6107857051
503, 1577.7069003815, -399.49616579959, -1258.7569152799
504, 467.90352359779, 1558.7888062867, -1204.8370330929
505, 1549.9557074697, -496.38045376706, -5366.344159023
506, 1609.0764953474, -244.19066755406, -5421.9584127238
507, 1577.7005581898, -399.52121181186, -5544.5101563698
508, 22.653653535006, 1627.342330913, -868.3151015487
509, 234.20195857042, 1610.5606764732, -678.25815666248
510, 12.854137610717, 1627.4492376558, -585.16972719608
511, -1579.1736964226, -393.65808327393, -3235.4916391083
512, -1609.9000786518, -238.70062160962, -3227.351065264
513, -1585.6022868088, -366.90821477137, -3033.1283993415
514, 1594.8376972756, -324.42097550659, -5669.4743088518
515, 1590.1939997067, -346.46687186043, -3331.690252663
516, 1560.2423867907, -463.0334161395, -3470.3763895012
517, 1580.542341335, -388.12647068623, -3235.7904599468
518, 1541.6448874671, -521.61987207791, -3232.227815639
519, 668.11789257259, 1484.0400033774, -6781.2384676044
520, 610.84136002063, 1508.5188374323, -6582.4912139783
521, 477.79211460092, 1555.7862787752, -6793.6390654856
522, 804.01903175592, 1415.0299101342, -6560.3971072168
523, 1356.5007461147, -899.25634598277, -2684.9318033053
524, 1414.174501562, -805.52264346314, -2395.349156651
525, -1484.5643936894, -666.95188056532, -4282.7251418226
526, 1336.0371661475, -929.38740074987, -2359.2588746392
527, -1370.6819332442, -877.4891953056, -4415.2193130561
528, -1442.6549370522, -753.32793828381, -4672.6814112028
529, -1471.8053761005, -694.65472350047, -4450.3415539276
530, 1618.9261238178, -166.83661354805, -5832.2403194059
531, 1617.5853106701, -179.37115906507, -6076.4588135432
532, 1577.3841031878, -400.76881242235, -5863.4336819477
533, 1574.4712873839, 412.06360577442, -1812.1226305423
534, 1576.0448385657, 406.00359213998, -2013.0775922716
535, 1610.7653639915, 232.79001732327, -1861.9831556601
536, 1510.1833126584, 606.71460520422, -1787.2621088155
537, 1577.674297409, -399.62490074437, -7275.070875715
538, 1575.3315738506, -408.76237893104, -7090.9366848407
539, 1610.7653639912, -232.79001732524, -7220.5168443408
540, -1506.886293253, -614.85766581066, -4875.3000104006
541, 1535.6746535477, -538.9430475025, -7305.7082100083
542, 1496.1601144968, 640.51632437354, -4443.1643664442
543, 1504.4800860774, 620.72209610797, -4271.5694825663
544, 1615.8381501461, 194.48219078445, -1705.9078701516
545, 197.6440585108, -1615.4544487962, -684.43292910705
546, 1615.8381501463, -194.48219078322, -7376.5921298486
547, 961.48219033723, -1313.1291816361, -8424.3119279793
548, 1163.1379459328, -1138.3612645954, -8365.4919801301
549, 1054.7314256511, 1239.474836269, -612.73338315044
550, 1165.6901729886, 1135.7476262787, -765.9114278576
551, -1431.6443258315, -774.04830231346, -7018.0926730196
552, -1490.9001175788, -652.66613931127, -6811.6488162991
553, 345.28257933032, 1590.4515680809, -6800.499293486
554, 466.51935887284, 1559.2036229425, -6989.1650994347
555, 290.33007412449, 1601.3946103503, -6932.4347529599
556, 918.53258095819, 1343.5230357974, -6341.1593275532
557, 1101.6340001572, 1197.9811266033, -6316.6049090108
558, 1013.8179516749, 1273.1572608526, -6094.4719934677
559, 1179.0093532462, 1121.914967793, -6041.1029364189
560, 694.28671635227, -1471.9790098696, -2514.6911237253
561, 955.45825428406, -1317.5187946745, -2332.7423811384
562, 912.0576721474, -1347.9269463428, -2609.540709245
563, 1121.6983051507, -1179.2154859151, -2545.3806333554
564, -1498.9229426293, 634.02386552831, -4282.269539337
565, -1484.6726722088, 666.71081166901, -4626.4658535557
566, -1420.6117421622, 794.11493376644, -4455.193170974
567, 682.33922365166, 1477.5552219347, -7428.0358750063
568, 441.54510315278, 1566.4591191224, -7446.3859678926
569, 536.42813076916, 1536.5549487472, -7594.3103162323
570, 1548.1193358934, 502.07845187087, -8446.3261239036
571, 1533.5594441844, 544.93273085115, -8209.1702531524
572, 1489.7561169638, 655.27319643724, -8300.4787470906
573, 557.86529245339, 1528.9024054778, -7286.769307349
574, 1248.7639600171, 1043.716830449, -5789.2871434299
575, 1397.3679848794, 834.33744062821, -5881.3276276116
576, 1300.6896542369, 978.24468992232, -5965.1143148037
577, 732.1597443083, -1453.5124212797, -1851.845861153
578, 906.58784103048, -1351.6119030608, -1873.5527850227
579, 898.66576466552, -1356.8920713963, -2055.4445160276
580, 589.95029106006, -1516.8107673926, -7974.4698612127
581, 862.51330212412, -1380.1547209132, -7943.8874381225
582, 743.12109373694, -1447.9389800828, -8177.3125610342
583, 711.90473628315, -1463.5395097016, -7809.8517684675
584, 1547.9716447331, -502.53361788273, -635.37335466216
585, 1533.75567067, -544.38019130721, -867.08081326621
586, 1488.5666458619, -657.9708130513, -773.13352527423
587, 1226.8793888022, 1069.356449147, -7238.7841206791
588, -1325.2612199852, -944.68986911227, -619.70312491092
589, -1309.6675583578, -966.19208058493, -824.51433262329
590, -1426.964617308, -782.64182801007, -886.53879200674
591, -940.73100318208, 1328.0743313731, -3670.1859242594
592, -705.15869052615, 1466.8017831921, -3780.4070812712
593, -804.78382352609, 1414.595082485, -3565.5660266637
594, 166.97883539247, -1618.9114609919, -1294.6472799763
595, 60.592930917231, -1626.3716508605, -1508.9479309916
596, -41.211517102771, -1626.9781377935, -1282.9027281489
597, 344.94519117289, -1590.524776634, -1475.2425182406
598, 399.29363277532, 1577.7581705778, -1476.1921012668
599, 522.32845546812, 1541.4049547761, -1369.0933256257
600, 1576.3330410966, 404.88318506332, -8238.6278158196
601, 1068.2274311646, -1227.8625351836, -7273.5340196299
602, 880.12625959064, -1368.9901450263, -7329.8936050556
603, 1002.7771951828, -1281.8713456589, -7098.4099281161
604, 911.02738003866, -1348.6235066985, -7497.6817182113
605, 1013.2910445643, 1273.5766600428, -1775.8905406372
606, 825.81863528697, 1402.4192781094, -1740.9239946243
607, 1008.5769650486, 1277.3131000555, -1994.5990247588
608, 1527.2000240218, 562.50896581984, -8064.5976487543
609, 1530.2289081834, 554.21632830509, -7862.3502998907
610, 1451.1025620021, 736.92442255025, -7878.9837406188
611, 1575.9398408073, -406.41095969019, -841.23216019573
612, 857.97115181907, 1382.9829184217, -1572.4291342149
613, -584.03738656128, 1519.0972915184, -3486.2585372389
614, 1600.1952163187, 296.86953307916, -6041.1414233017
615, 1618.3083495848, 172.72618696734, -6169.0608212408
616, 1522.7678293013, -574.39915393838, -1001.9519366649
617, 1504.8878434589, -619.7328687503, -1198.3635652518
618, 1416.2489009209, -801.86987762383, -1128.6547652074
619, 1621.202847772, -143.02998418454, -2486.8689929074
620, 1615.4409105538, -197.7546826476, -2292.7849636542
621, 1617.6642709513, 178.65765163424, -6593.4450113365
622, 1615.4409105888, 197.7546823618, -6789.7150367163
623, -1549.2477529193, 498.58564968755, -6756.4358426801
624, -1576.9782228537, 402.36293895569, -6902.144349824
625, 558.28002611643, -1528.7510138801, -7690.499599701
626, 496.63575442178, -1549.8739230757, -7843.3943880607
627, 1618.0531512268, 175.10068476462, -5787.6785600104
628, 1362.8265291418, 889.64043380871, -4467.0223716735
629, 526.16357016366, 1540.1000446181, -602.33710157774
630, 1359.8742948499, 894.14660554438, -7680.2910904905
631, 1273.6665773747, 1013.1780197372, -7692.3723452512
632, 1355.2466404594, 901.14526771409, -7882.5197567889
633, 1618.504932709, -170.87431871567, -5613.482836965
634, -1622.3538084674, -129.32273640574, -6839.601174844
635, -1615.1508963715, -200.10954987274, -6529.1850039917
636, 477.38042774762, -1555.9126508913, -2032.5422765809
637, 721.79927023236, -1458.6850460233, -2188.4562032141
638, 1226.6344134329, 1069.6374459517, -7884.1491743415
639, 543.95719308367, -1533.9057409413, -1805.9592984524
640, -450.25228529014, -1563.9786218459, -1115.5301920313
641, -262.30793513065, -1606.2225241751, -982.74822202996
642, -303.69224188106, -1598.9144042822, -1277.3059540927
643, -1326.12879015, 943.47161162126, -5915.300062931
644, -1478.1848548697, 680.97414402744, -5866.535890543
645, -1414.6916261471, 804.61410185832, -6064.4801429997
646, -1395.574722951, 837.33353131246, -5723.6283448101
647, 3.1251893947448, 1627.4969994415, -1414.4055155853
648, 1395.104576527, -838.11662109363, -1352.7836817137
649, 1286.116690348, -997.32648055103, -1295.7266194081
650, 1158.5134322016, -1143.0673109701, -1235.5800996404
651, 220.36047589251, 1612.5127939537, -1624.0015443873
652, 1293.38023849, 987.88856086277, -2453.5884807934
653, 1220.3943834876, 1076.751502786, -2276.7949103301
654, 1103.6953880259, 1196.0822465241, -2391.8613570596
655, 1146.6154633412, 1155.0018308326, -2159.7516779549
656, 1234.276592654, -1060.8098523423, -6656.0742124522
657, 1209.4520335542, -1089.0280200857, -6850.9253151152
658, 1061.8414555776, -1233.3892221099, -6688.1254085373
659, -31.274627833074, 1627.1994799821, -1901.7861558401
660, 1080.8228118716, -1216.7901624101, -6926.8529377859
661, 1391.5183946473, -844.05734838225, -6292.3318850807
662, 1330.5057822445, -937.28897006957, -6467.0619186941
663, 1235.4472399502, -1059.4462550311, -6354.5374637395
664, 1614.4684748552, 205.54268096596, -2463.9587252121
665, 1577.2824579312, 401.16866515519, -2447.8209519836
666, 1567.4392865398, 438.05288837248, -2682.5465207026
667, 1175.1891205344, -1125.9159742084, -6484.2353384102
668, 1614.4684646587, -205.54276105601, -6618.5412517672
669, 1572.1690122987, -420.76222117463, -6664.3010402561
670, 1571.2223270186, -424.28368938507, -6500.8540008015
671, 1052.7523947749, 1241.1561728065, -4250.7837592727
672, 867.29794539407, 1377.1530502872, -4181.8171417727
673, 955.38926529161, 1317.5688224019, -4466.1193487334
674, 1462.0125972932, 715.03525462452, -7664.5384839905
675, 1545.3031857696, 510.68024638747, -7649.7055359281
676, 1614.2583650128, -207.18634362852, -3910.4480651243
677, 1618.1773243371, -173.94940931566, -3729.8771611463
678, -389.9066139809, 1580.10413656, -2087.5528786927
679, -379.89675969918, 1582.5405846202, -1848.6471232997
680, -588.10383666792, 1517.5276364193, -2087.1700825203
681, 1441.9887241694, 754.60239157344, -865.46597962819
682, 1339.0428974761, 925.05154922244, -620.06948576543
683, 1524.9804008181, 568.49892446748, -919.89842447058
684, 1410.7479145099, -811.50882417016, -636.05189630489
685, 1443.67617901, -751.36897737341, -925.33963089801
686, 1562.9944443732, 453.65693740827, -1151.1923460356
687, 1609.5654738614, 240.94654044708, -1154.5496847708
688, 1510.3132194568, -606.39115192585, -2397.5579437392
689, 1592.9595142106, -333.52096798536, -2440.0447969694
690, -637.92188731836, 1497.2681508935, -1818.3838561314
691, 1562.1910804042, -456.41568586698, -7940.4501649072
692, 1609.5654738614, -240.94654044709, -7927.9503152292
693, 1530.7404840993, -552.801791187, -8176.7193051642
694, 40.641784692113, -1626.9924693547, -2098.8530157236
695, 243.2662494944, -1609.2165118022, -1902.7676028676
696, 191.38752828399, -1616.2076178565, -2148.8906616285
697, 302.88040971733, 1599.068387346, -3580.7054999361
698, 236.76561439888, 1610.1857948194, -3339.0863170446
699, 1468.0529203584, -702.55026370166, -8268.3141974412
700, 1508.4550337637, -610.99890434668, -8393.3430374287
701, 1403.5725929417, -823.8569210385, -8460.0175168317
702, 1519.38074352, -583.2995853081, -1624.4383454447
703, 1482.2973906752, -671.97521948181, -1407.8433147813
704, 1540.9974161735, -523.52957256176, -1487.6180233332
705, 1416.9813825115, 800.5748007625, -8437.2205562878
706, 1436.4796719643, 765.037516749, -8113.8778448655
707, -34.780385982272, -1627.128321538, -1910.2769433786
708, 1210.6313801331, -1087.7168342161, -1971.4543980055
709, 1017.2078036462, -1270.450524106, -2125.3708940938
710, 1063.7640833173, -1231.7313932202, -1915.6347743981
711, 1234.9300149953, -1060.0491064397, -1746.0134451837
712, 1571.9713100479, 421.50023770604, -5802.7224289269
713, -896.61735046991, 1358.2465081259, -7181.2286602894
714, -881.59106917744, 1368.0473079344, -6917.1127152088
715, -1054.3188629756, 1239.8257882355, -7094.4823125981
716, 1093.1226394158, -1205.7525223679, -1686.5675697532
717, 236.57139876786, -1610.2143407898, -8174.5415138418
718, 421.01066861371, -1572.1024988573, -8080.4324171478
719, 1452.9495120227, 733.2761863807, -2241.8027356603
720, 1471.0751176221, 696.19986233336, -2385.7515226076
721, 1520.4147209193, 580.59910989596, -2414.3116808787
722, -769.63420882179, 1434.0221178947, -7091.1702240111
723, -1613.4937485074, 213.05908459301, -2089.0636079508
724, -1627.4024717249, 17.816986944103, -1943.0508015186
725, -1627.2675547461, 27.505549815596, -2281.4200782246
726, -1491.8834441711, 650.41528196081, -6531.9954852908
727, -1568.4856328891, 434.29145676645, -6343.7624162888
728, -1495.8377787937, 641.26873425539, -6268.0037491036
729, -1618.9303030318, 166.79605488581, -1683.0038364642
730, 1605.1788816114, 268.62056516348, -4567.8480614542
731, 1568.8990933016, 432.7954309342, -4607.889821916
732, 1575.5853915192, 407.78293739597, -4809.7786133466
733, -1251.3917405942, 1040.5647320434, -2674.0190436314
734, -1140.2251933412, 1161.3107932289, -2976.0023586602
735, -1106.7113953457, 1193.2921425251, -2718.5294469028
736, 1377.5673772467, 866.63970088242, -2323.8777186865
737, -1293.0209824746, 988.35873491387, -2910.8622744525
738, 512.48744429971, -1544.7047839102, -4007.3415258777
739, 617.28203333453, -1505.8947975614, -4194.3639809704
740, 355.80249501322, -1588.1312397099, -4111.7974868829
741, 444.83132715939, -1565.5290927918, -4311.1480236629
742, -741.63081752433, -1448.702861355, -2301.2213865565
743, -879.51795174833, -1369.3810362906, -2217.241421132
744, -791.00947852987, -1422.3432268183, -2044.428547139
745, -1566.5397919012, 441.25880205402, -2518.3379444637
746, -1575.3960025261, 408.51399636336, -2728.7855686354
747, -1509.1594667321, 609.25688668483, -2766.8842760615
748, -1584.3618122906, 372.2282871509, -2917.1281656787
749, 1617.3350707346, 181.61365304341, -4722.0766101368
750, 1539.6893290297, -527.36421955992, -1766.4424307747
751, 1576.9894555769, -402.31891205754, -1628.3409468276
752, 1560.5859746723, -461.87407987033, -1978.6459107069
753, 929.68527073036, -1335.8299096019, -1622.9825310082
754, 432.74630465589, -1568.9126444154, -1594.2777852585
755, 559.74106009859, -1528.2166716928, -1580.5684701155
756, 373.47685784182, -1584.067955189, -1721.7126263771
757, 1464.4024012447, 710.12805692267, -6323.2533511269
758, 1532.4194450334, 548.13036267244, -6194.866771358
759, 1433.5033823592, 770.59996286322, -6068.0620424406
760, 1534.3643806382, 542.66213929913, -5979.7560052266
761, 771.32011065193, 1433.1160235319, -4386.2767001138
762, 1583.4612124026, -376.04100682852, -4934.7357015057
763, 1611.8553072502, -225.11934277047, -4713.936811001
764, 1619.2053979909, -164.10401919827, -4908.0532694752
765, 1231.0799134489, 1064.5179644809, -8407.1864321101
766, 1343.2569768181, 918.92162028632, -8284.190473726
767, 1166.3524410771, 1135.0675016022, -8219.4029253637
768, 1487.6360268157, -660.07219432429, -6256.209866134
769, 1551.0983122906, -492.7984127503, -6223.9487299055
770, 1463.2794649483, -712.43909035126, -6389.1175017579
771, 1196.406664339, -1103.3437105115, -639.4807906894
772, 1302.9579307129, -975.22145218019, -777.11098032024
773, 1197.2236361973, -1102.4571714722, -872.14070846778
774, 1513.5175092529, -598.34855994225, -6015.9279602875
775, -1054.1966095147, -1239.9297393351, -697.45430241021
776, -880.91354434546, -1368.4836781594, -662.07036618188
777, -823.11189991867, -1404.0096332334, -875.16570600629
778, 1617.1435423851, 183.31124712362, -4101.3082613895
779, 1617.9858923732, 175.72109173732, -3821.7357554184
780, 1587.338508224, 359.32257138846, -3922.5934454259
781, 1572.7321332981, -418.65246552671, -4680.8895793162
782, -796.66203105773, -1419.1849274393, -5931.7996579628
783, -745.74105173334, -1446.5913499533, -5613.4608145756
784, -559.70365297301, -1528.2303723093, -5813.9727993101
785, 1572.1980054613, -420.6538738958, -4450.7672270738
786, 26.644089312521, 1627.2818878439, -2034.8622534136
787, 313.87654546368, 1596.9463873931, -2107.6586581502
788, 197.77430009523, 1615.4385089572, -1931.2583874866
789, 1053.2108982116, 1240.7671231494, -7252.6487955238
790, -1626.0531678963, 68.610095279445, -8237.0194122087
791, -1621.6099706707, 138.33782209318, -7989.7796296981
792, -1625.5135303719, -80.386644275916, -8011.3157858241
793, 1084.2182342883, -1213.7656571336, -2380.1457625558
794, 1616.4005183542, 189.75145391907, -4915.2106602784
795, -927.15087588531, -1337.5901851259, -5728.6976261028
796, -1052.2986272307, -1241.5409172187, -5531.3357993236
797, -864.46967929749, -1378.9301735676, -5414.8131008124
798, -958.20674512565, -1315.5212212639, -5195.8168029518
799, -633.66106990707, -1499.0763484507, -664.8251183476
800, -682.68662919977, -1477.3947395032, -841.69427335765
801, -383.00568903321, -1581.7910393501, -8206.9464121383
802, -73.249731898954, -1625.8507701437, -8430.2832999104
803, -319.93475248795, -1595.7437150591, -8439.1477105997
804, -90.213221032086, -1624.9977922296, -8160.1804001682
805, -562.49778588148, -1527.2041418482, -8448.1843130974
806, 1609.594624688, 240.7517272533, -8467.6535434628
807, 1609.2670557808, -242.93166359802, -8466.0506785077
808, 1609.594624688, -240.7517272533, -614.84645653724
809, 1609.2670557808, 242.93166359802, -616.44932149228
810, -257.7573959042, 1606.9590457932, -919.426932636
811, -183.35250004226, 1617.1388656291, -681.00906334885
812, -456.94269820706, 1562.0370099826, -638.25170949496
813, -101.20181643143, 1624.3504678335, -971.81218235728
814, 1472.9747873343, 692.17160146705, -8526.8801488059
815, 1566.4200506092, -441.68368211802, -8381.1557033247
816, 1493.810849522, -645.97631214347, -8480.5434424653
817, 1471.7676310593, -694.73469048709, -552.93273112128
818, 1558.5041650998, 468.85074103231, -688.09973417256
819, 1454.4277605654, 730.33974237794, -646.24208975589
820, -611.74385668289, 1508.1530770485, -621.81223246388
821, -583.4434803288, -1519.3254935207, -955.13844711762
822, -748.18146028446, -1445.3306723676, -1055.5329690756
823, -223.63219585855, 1612.0623098924, -7252.0195245098
824, -285.02499775596, 1602.3473408266, -7090.7553994795
825, -485.63925230171, 1553.3546815276, -7174.5503643351
826, 1257.5463794455, -1033.1182669683, -2450.8623293355
827, 1182.6009039545, -1118.1285042275, -2229.67787413
828, 1328.5660898508, -940.03637956121, -2200.464937756
829, -639.66357072874, 1496.5248966464, -8259.5329991192
830, -535.02170926861, 1537.0452239968, -8165.9697047408
831, -624.49540202692, 1502.9177432073, -8006.7687845473
832, -388.7728303148, 1580.3834776436, -8044.8018962899
833, -56.036349876415, -1626.5350219078, -849.01262605896
834, 74.443500350193, -1625.7965479283, -1049.0114204001
835, 1618.9711093819, 166.39951017622, -8270.9913169805
836, 1618.9711093819, -166.39951017622, -811.50868301948
837, 1622.1406638739, -131.96937753459, -8281.635631907
838, 1622.1406638739, 131.96937753459, -800.86436809299
839, 959.26211321024, 1314.7518580171, -8206.3161584413
840, 1097.7859496231, 1201.5083265671, -8046.1767054193
841, 745.42688377396, 1446.7532654005, -8441.2205160339
842, 1359.3047134207, 895.01226029163, -6987.2524914267
843, 1423.404298183, 789.0985071043, -6758.5078536582
844, 1337.0686721572, 927.90280522032, -6763.7608273366
845, 1044.5540444087, -1248.0637396822, -8068.6429910911
846, 928.7862714581, -1336.4551290451, -8234.6632777581
847, 893.09421820007, -1360.5656792002, -928.1288073514
848, 1048.6323815791, -1244.6390554309, -974.65444138468
849, 717.46948340493, -1460.8195611994, -661.71769340974
850, 1481.5447946987, 673.6328906023, -6929.6778630905
851, -563.87674395428, -1526.6955386152, -5520.4601280119
852, 855.85982477412, 1384.2905079273, -1124.4774255246
853, 1046.7753317432, 1246.2012898621, -1058.1760807214
854, 953.88958959222, 1318.6549589895, -858.05505786927
855, -450.71733699437, 1563.8446636839, -8327.5327914865
856, -181.03219133719, 1617.4002583466, -8410.1114791362
857, -294.63379325314, 1600.6083774219, -8202.9252316494
858, -150.59545607648, 1620.5175897253, -8048.2693229507
859, -604.71013410289, 1510.987062722, -8407.061528206
860, 1528.082268511, -560.10787412983, -5700.3664051167
861, -1627.2752721444, 27.045122803639, -4775.9612493417
862, -1625.0313010414, -89.607592511285, -4967.1180702511
863, -1620.9526068257, 145.83859717176, -5122.2499120148
864, 1586.4121386765, 363.39066617064, -3398.6369492986
865, 1597.3374548021, 311.88027428231, -3619.7174180412
866, 1538.4680052877, 530.91660993613, -3252.3508074545
867, 1515.4726695555, 593.37916868599, -2008.4041810847
868, 1234.3693417538, 1060.7019270928, -4611.6542774807
869, 1218.7513729937, 1078.6108384519, -4328.1154892492
870, 1121.0690830484, 1179.8136975951, -4545.7334145816
871, -1625.1475561193, -87.473829453816, -5218.7262468497
872, 1576.9982563816, -402.28441353031, -2212.9636492625
873, 1500.4072866263, -630.50315164852, -2101.3862679762
874, 1488.9371440283, -657.13197390844, -1851.9245507751
875, 1614.6406032312, -204.18612195079, -4165.5853748355
876, 1611.3116623608, -228.97811410704, -4467.4994853069
877, 1231.0049730356, -1064.6046244318, -4497.4671448332
878, 1174.262813658, -1126.8820233103, -4704.6134530909
879, 1071.6217674048, -1224.9012358652, -4629.1236670453
880, 1377.72360883, -866.39131324847, -4629.2754914379
881, 979.65784955749, -1299.6256183226, -4732.6402633491
882, 864.12745415399, -1379.1446599169, -4566.841954293
883, 699.47451338076, -1469.5208930569, -4703.3815386234
884, 1508.3734197702, 611.20035710958, -4893.0356169394
885, 1527.9462554081, 560.47880475917, -5109.8355232462
886, 1583.404233214, 376.28085818984, -5005.5036784713
887, 1431.4495581666, 774.40842739769, -5242.1953838279
888, 1521.2604475407, -578.37954731144, -3671.394002567
889, 1581.9578268463, -382.31620954339, -3790.3394954515
890, 1486.7798345554, -661.99846945389, -3424.8483404141
891, -1516.3650378252, 591.09501948622, -1455.6482644024
892, -1575.8264201548, 406.85051744094, -1551.081583535
893, -1016.9795565063, -1270.6332404153, -8215.1085549099
894, -835.21801774931, -1396.8418352938, -8006.8583004188
895, -821.10397475381, -1405.184867782, -8227.7976901356
896, -1010.8610583329, -1275.5062409671, -7996.840965584
897, 1558.4147447897, 469.14787990802, -3820.4376498797
898, 1039.6581731033, 1252.1450128078, -2200.6232093551
899, 1161.2838954071, 1140.2525879243, -2011.8784465688
900, 1546.5038840965, -507.03252999638, -2992.4305804635
901, 921.32428761101, 1341.6101546493, -7156.8511385498
902, 897.94072253873, 1357.371986158, -6992.0176286395
903, 816.75291019597, 1407.7183431661, -7267.4086417064
904, 40.881478790322, -1626.9864642006, -6842.3155420829
905, 157.1815180461, -1619.8920397313, -6666.5063717151
906, 293.0475110257, -1600.8995615846, -6868.6728346289
907, 326.41534193644, -1594.4307054709, -6640.4255143845
908, 989.59160981251, 1292.0776663145, -6547.3554445395
909, 1161.5826130748, 1139.9482808454, -6539.0593650263
910, 1290.9136089568, 991.10963279053, -6266.0232659911
911, -129.32146428081, -1622.3539098718, -1153.7968250676
912, 1620.2672846506, 153.26505241264, -7421.6831459731
913, 1615.8423059466, -194.44765957256, -7052.0389729087
914, 1619.2853017181, -163.31369091312, -6861.5192657269
915, 1620.554621932, -150.19642916826, -1634.4605961987
916, 919.91246294892, 1342.5786049656, -7429.3179732008
917, -785.81784171105, -1425.2180779265, -8446.7966958799
918, -1212.901957094, 1085.1843587508, -7149.4218157884
919, -1154.9171553847, 1146.7007518085, -6851.6898364234
920, -1326.081722345, 943.53776589102, -7011.9285180567
921, -1367.5675844912, 882.33505645468, -6721.9785820517
922, 1579.3060731343, 393.1266683414, -2225.0282200002
923, 1354.8499439424, 901.74158127444, -3390.7320382526
924, 1184.6427505921, 1115.9649651622, -3313.3372021918
925, 1240.0085971792, 1054.1038511085, -3516.2129978263
926, 1522.1229322233, 576.10591838647, -2219.4273288962
927, 1029.3031463233, 1260.6709653867, -3496.1713351549
928, 1601.3781078831, -290.42108324428, -3080.0230201701
929, 1619.5157377314, -161.01250026071, -3342.8730842573
930, 1572.5227406498, -419.4382912173, -6882.2095297455
931, 1613.1941310744, 215.31592014336, -2030.8529581461
932, 1619.285301724, 163.31369085505, -2220.9807342875
933, 1608.2711939607, -249.43940481846, -3549.7676800455
934, -1484.8651130234, 666.28210701322, -6757.5004390092
935, -1500.5058779812, 630.26848258803, -7039.0551072122
936, 685.21842652862, 1476.2221912523, -7060.069616363
937, 857.16534957665, 1383.4824948243, -6775.7529917827
938, 407.73062408109, 1575.5989299903, -7203.8373858714
939, -1384.6080381791, 855.34602975044, -2547.9980319169
940, -1415.3864765182, 803.39117003449, -2829.8388186662
941, -1498.2768000498, 635.54927459059, -2544.1484779471
942, 1198.3318901683, 1101.2524374573, -6763.5129822568
943, 1314.1698350753, 960.05931826017, -6541.1711608823
944, -1555.235586595, 479.58160951855, -8426.9472972154
945, -1607.6086670378, 253.67424714568, -8447.168084793
946, 1035.4186088958, 1255.6530390009, -6766.6948913004
947, -610.1763106791, -1508.7879638591, -8226.850353722
948, 1450.3845002809, -738.33667885659, -6145.2282050713
949, 1460.347187803, -718.43047059258, -5858.9047524134
950, 1383.7023896381, 856.81033310172, -2950.437234939
951, 1406.503017013, 818.84401025681, -3243.8841137298
952, 1474.5164907977, 688.88124402225, -3103.58908746
953, -614.34059069555, 1507.0971729201, -7457.3423256831
954, -373.55416336221, 1584.0497268188, -7405.4233986117
955, -678.02179552066, 1479.5413798873, -7270.4029612906
956, -1527.8914985817, -560.62805723728, -7364.3363386331
957, -1539.4526336939, -528.05476857331, -7524.959904353
958, -1597.6715539474, -310.16423989102, -7474.5631577234
959, -1562.6472928828, -454.85128124055, -7741.3054765864
960, -1034.2107620125, -1256.6480612079, -2762.0997847165
961, -1192.5244169999, -1107.538606487, -2611.7345471235
962, -1087.2472506793, -1211.0531226541, -2507.2801473127
963, -1238.926278633, -1055.3757274604, -2856.2466468605
964, 434.19975356686, 1568.5110213201, -2686.7675064207
965, 616.84711862901, 1506.0730003021, -2650.0147050334
966, 418.29724317207, 1572.8266485391, -2529.5759780728
967, 791.67219497393, 1421.9744673183, -2573.7852912551
968, 538.6611567733, 1535.7735536802, -2459.8862193543
969, 262.98878060524, -1606.1111889517, -5423.6402201384
970, 23.165645642602, -1627.335123096, -5351.7957256509
971, 290.2756221572, -1601.4044814416, -5192.760576918
972, 63.075016504912, -1626.2772802609, -5128.7255793511
973, -1228.8509884385, -1067.0902015358, -1236.8017328718
974, -1390.3223570869, -846.02600041858, -1109.527940166
975, -1273.4494990581, -1013.4508490049, -1034.5285577643
976, -646.23312019742, 1493.6997704893, -6494.2774447694
977, -706.1023881815, 1466.3477307257, -6799.0651336471
978, -520.50728327886, 1542.020887684, -6692.3536934179
979, -822.49530264874, 1404.3709364412, -6604.4148083734
980, 1566.6300810977, 440.93813511639, -6988.2440443611
981, 1560.2815445222, 462.90144936426, -7215.6459119712
982, 1603.251715552, 279.89316994101, -7221.9719067032
983, 1557.124207902, 473.41361531495, -7436.0027594005
984, 1217.4646869362, 1080.0629546759, -1001.5998121573
985, -1580.3626159175, 388.85762460099, -1872.0921109453
986, 1302.7420515374, -975.50981397222, -8204.5543500607
987, 1573.365939009, -416.26418530346, -4277.8481654859
988, -35.417761258097, -1627.1145725447, -7585.6296445437
989, -254.3961294066, -1607.4945907663, -7288.8701631244
990, -16.431370264811, -1627.4170516715, -7338.4940791919
991, 212.95582152124, -1613.5073808571, -7354.5865375539
992, 525.48512408253, -1540.3316637556, -2313.6487208821
993, 1276.4803711841, 1009.6306809828, -2779.5688663223
994, 1295.6468505704, 984.91394984896, -3115.4574501985
995, 1038.7180181278, 1252.9250292083, -2702.7479844601
996, 1133.3619102069, 1168.009858902, -2963.6305471782
997, -196.32033617745, 1615.6158502575, -6783.5137387924
998, -395.00221449521, 1578.8380222632, -6889.3650032884
999, -1291.4266524247, 990.44103883433, -7569.0805290316
1000, -1366.0339685898, 884.70754866164, -7866.8999944892
1001, -1157.1451976887, 1144.4523762332, -7907.3181195039
1002, 1362.1567651815, -890.66559216704, -3395.273100441
1003, 1275.2224381938, -1011.2190579331, -3509.7526198416
1004, 1218.3201851142, -1079.0978530899, -3412.3668231228
1005, 1442.1301899936, -754.33199926092, -3544.6169157012
1006, -1588.0465694608, -356.18021172415, -7950.6360718725
1007, -1526.2254726841, -565.14781830073, -8018.9476164895
1008, -1549.9077298966, -496.53023956926, -8222.8416836347
1009, -1132.6041175005, 1168.7446953979, -7608.6849280034
1010, -998.60714103614, 1285.1225730924, -7806.1922703913
1011, -1346.4487873536, -914.23843336077, -8210.2077345301
1012, -1192.735176831, -1107.3116309107, -8205.2226721866
1013, -1177.4469066148, -1123.5546413518, -8437.3224393451
1014, -896.47691507805, 1358.3392031198, -3857.4783889689
1015, -818.95130310506, 1406.4405473188, -4136.9345742296
1016, -605.63553085921, 1510.6163820642, -3990.8138595731
1017, 330.1741787804, 1593.656569549, -7733.3469748535
1018, 499.63394569446, 1548.9099942572, -7929.3894179308
1019, 1096.2985533064, 1202.8656334015, -3181.7232602008
1020, 224.90944752546, 1611.8846082812, -7138.1404792877
1021, -31.390421955271, 1627.1972503079, -7027.5319217584
1022, -56.861699081802, 1626.5063778472, -7307.0395088477
1023, 748.55688955621, -1445.1362680031, -8445.5587665768
1024, 535.56638489427, -1536.8555226082, -8468.0698206705
1025, 13.37648844555, 1627.4450281213, -2844.7427429061
1026, 222.22895412224, 1612.2563511891, -2890.7318371946
1027, 42.727715217779, 1626.9390253947, -2632.97196533
1028, 239.97167069435, 1609.7111067717, -2673.8740927227
1029, 758.46945993744, 1439.9584467415, -942.54681152596
1030, 824.4089240252, 1403.2484370159, -639.45112920099
1031, -1141.2081290605, -1160.3448867325, -975.23559276039
1032, -1088.4864066544, -1209.9394995324, -1192.5220002217
1033, 697.50227700837, 1470.4580318962, -546.43461511095
1034, -589.77073173975, -1516.8805931856, -7369.6306875453
1035, -471.65570583514, -1557.6575827675, -7173.3552961147
1036, -190.43781372177, -1616.3197979066, -7060.9448127213
1037, -991.09780821591, -1290.922687286, -8441.3607686624
1038, 1331.3086206433, 936.14828237885, -5218.6233836416
1039, 1176.9287172738, 1124.0974354816, -5235.0962086908
1040, 1276.7257650617, 1009.320350943, -5358.3297856082
1041, 1074.3987862648, 1222.4661541624, -5431.8112814444
1042, 1206.2409624334, 1092.583630917, -5574.8150528406
1043, -1305.1369503403, 972.30334302443, -5031.6772511306
1044, -1075.4871414518, 1221.5087631989, -4861.488717409
1045, -1252.5643755764, 1039.1528930033, -4797.1620937217
1046, -1134.9928047595, 1166.4251296779, -5098.6837297791
1047, -562.59110906505, 1527.1697659399, -1528.3109144379
1048, -836.54389315655, 1396.0481957377, -1649.3704530527
1049, -1543.5968829285, 515.81480495768, -7518.3760146823
1050, -1471.0542188889, 696.24401978696, -7685.8099664806
1051, -1473.7891032483, 690.43604276327, -7432.3933381253
1052, -760.89974076377, 1438.6757224982, -1433.4410380026
1053, -1531.358093528, 551.08859486133, -7888.2601101375
1054, -1357.920043052, -897.11170245268, -2738.4486643722
1055, -1315.800139751, -957.82370101776, -2594.5944180856
1056, -1285.8065558374, -997.72629060559, -3073.5632132892
1057, 532.32387963297, -1537.9816439647, -903.51796531965
1058, 499.22299807598, -1549.0424939917, -666.3903603725
1059, -1622.9766338414, -121.25632356594, -3373.9449464619
1060, -1625.6503167297, 77.571242845162, -3424.3271608275
1061, -1627.4125370271, 16.872591001826, -3173.2501085763
1062, -1569.8851034617, 429.20509308372, -7229.9990614089
1063, -1624.1722585398, -104.02271189309, -3615.2653617401
1064, 957.81735991969, 1315.8047556672, -2485.821932759
1065, 867.44250266296, 1377.0620009912, -2791.7531930003
1066, 925.56392253166, 1338.6887895653, -3015.0160541918
1067, 681.06056415878, 1478.1450395505, -2867.1855265548
1068, -1496.2274944306, -640.3589110099, -4018.7331046235
1069, 385.18576744113, -1581.2615768938, -2232.6873777143
1070, -518.11569132727, 1542.8261018016, -1289.8024688445
1071, -293.31936287144, 1600.8497747649, -1358.7717925502
1072, -338.70169820936, 1591.8660149743, -1603.026185462
1073, 1260.2312782196, -1029.8414321617, -1521.0103659385
1074, 22.91281314305, -1627.3387026043, -7095.6408996507
1075, 250.52837715626, -1608.1019191082, -7106.7579942038
1076, 531.45198282474, 1538.2831468724, -6402.9326649385
1077, 424.2794988765, 1571.2234585931, -6626.0293189291
1078, -782.84570443216, 1426.8527790393, -8422.8301275095
1079, -1626.7836240124, -48.283440690836, -1642.9658945604
1080, -106.98522608953, 1623.9798063395, -2347.732686892
1081, 65.131140928262, 1626.1962318495, -2478.7708601955
1082, 124.79458417816, 1622.7084031827, -2220.766502002
1083, 253.94631680977, 1607.5657119318, -2440.4461866616
1084, 1083.4383232976, -1214.4618765569, -3438.1541764668
1085, 1048.9713392105, -1244.3533981611, -3663.6719732984
1086, 933.63311655122, -1333.0736865151, -3626.2303273832
1087, 888.38834271448, -1363.643062729, -3477.4827231704
1088, 1195.4503074857, -1104.3798315491, -3563.9566011924
1089, -1627.2531021391, 28.347690886733, -4117.4600419607
1090, -1610.7224195905, 233.0869730994, -4015.5121018491
1091, -1623.9568312536, -107.33340684413, -3874.3560684326
1092, 1545.6772681545, 509.54688960921, -6480.1166341248
1093, 151.90503075711, -1620.3953565814, -1727.1641996912
1094, 1360.802133167, -892.73389336804, -1792.127169689
1095, 1378.6649280144, -864.89263279497, -1572.9215156515
1096, 527.62890238139, -1539.5986461971, -4826.4973516228
1097, 282.08546837546, -1602.8674425951, -4752.5186039497
1098, 399.19775981656, -1577.7824306784, -4644.6867721835
1099, 899.33642366936, -1356.4476573247, -6880.6536136828
1100, 875.13171939854, -1372.188297466, -7106.5422751897
1101, 722.77801158789, -1458.2003277894, -6858.3733484915
1102, 932.76498865135, -1333.6812684994, -6720.7610259492
1103, 984.11213782871, 1296.2559740183, -5618.6509153693
1104, 934.66774569974, 1332.3484736166, -5312.2605914219
1105, -335.04821796012, -1592.6389866011, -7581.0303587127
1106, -1533.8670131773, 544.06638922703, -7333.1410100688
1107, -1474.790794372, 688.2938056059, -7285.5687215961
1108, 1202.7508366815, -1096.4244957415, -6075.1442896908
1109, 1065.772229627, -1229.9942294808, -5987.2235299142
1110, 1288.4542911447, -994.3046764603, -5889.3632447487
1111, 991.70408890632, -1290.4569927148, -6186.034563909
1112, -1515.8272790722, -592.4727082495, -3466.8167503189
1113, -1585.4983715206, -367.35699789929, -3432.8150294605
1114, -1533.6485763579, -544.68182844242, -3689.548004379
1115, 569.18512660803, 1524.724414984, -8197.7050839521
1116, 523.92574768261, 1540.8627651141, -8418.4683754297
1117, -1609.7121869019, 239.96442515424, -6212.9361604888
1118, -1621.8501815082, 135.49257817986, -6446.7316255868
1119, -1627.4762452379, 8.7932466313059, -6202.8481277733
1120, -1612.0480334893, 223.73508380086, -633.5245290111
1121, -1627.4373542306, -14.279637767888, -646.41324096941
1122, -1627.4971106884, -3.0667084715656, -885.06196868345
1123, 1556.1392740973, 476.64117490191, -5316.2384117125
1124, 1586.6406047413, 362.39183405005, -5177.694109385
1125, 898.55042458441, 1356.9684537524, -4986.2062483055
1126, 1057.7982555315, 1236.8585612731, -5099.1864397581
1127, 340.77563300429, -1591.4233308427, -4951.0915556943
1128, -1602.8790237372, 282.0196540371, -5937.4078212259
1129, -1624.4495162539, 99.599292882113, -6016.1454293605
1130, -1626.2831907963, 62.922439030046, -5774.9772520622
1131, 403.08495391118, -1576.7938260694, -1168.0209961312
1132, 549.87277962996, -1531.7950829736, -1088.2802791969
1133, 504.4941489267, -1547.3338048717, -1370.0564798743
1134, 1613.6274846058, 212.04384198738, -4348.7200931512
1135, -1564.9211440144, 446.96539353366, -622.50767641274
1136, -1512.4593964348, 601.01815624501, -620.17329263623
1137, 302.39225238061, -1599.1607723116, -956.79995804824
1138, -1616.0465104491, 192.74316087776, -2473.6381422693
1139, -1611.1323880937, 230.23613538152, -4456.2957602936
1140, -1567.4091386646, 438.16074907599, -4458.1515182543
1141, -1595.0434184219, 323.40801373635, -4213.0315553667
1142, -1620.800768774, 147.51650057408, -4591.9848783488
1143, -1589.6340400606, 349.02703144664, -4709.8620038716
1144, 689.2287740201, -1474.3540779144, -5913.1304634367
1145, 831.96157857044, -1398.7838223909, -6150.1431601896
1146, 638.89853173548, -1496.8516680507, -6140.9900723172
1147, 891.24054883003, -1361.7806483135, -5932.0206161918
1148, 485.42743879504, -1553.4208868381, -5903.5077010968
1149, 367.52188973692, 1585.4601573563, -1806.0312123762
1150, 63.966055897747, 1626.2424769059, -1783.2192953975
1151, -172.93591318882, 1618.2859512242, -1879.590895449
1152, 1299.787631324, 979.442884224, -1214.7566425119
1153, 1474.9694955966, -687.9107769613, -5542.2639145791
1154, 1505.8914805215, -617.29012538091, -5195.2892538894
1155, 1183.6283714799, -1117.0407907628, -1025.7885767104
1156, 1413.7672923175, -806.23711969446, -5372.1340078237
1157, 1220.2048608617, -1076.9662703768, -7982.3827613101
1158, 1344.1561852378, -917.6057975443, -7886.6289885879
1159, 128.76564901519, 1622.3981193387, -6822.085670891
1160, 1500.6783071627, 629.85781602771, -2601.440897621
1161, 1279.2580366905, 1006.1089034308, -8110.6477674824
1162, 1534.6228676637, -541.93071885944, -7732.9738186065
1163, 1505.898222337, -617.27367833268, -7478.5835240103
1164, 1581.1871817889, -385.49104548175, -7455.0197633538
1165, 1449.9022740399, -739.28319724847, -7800.2653310079
1166, 1536.829180768, 535.64196917342, -1356.0325065108
1167, 1516.0873976519, 591.80676971538, -1572.0465264604
1168, 1580.5388837918, 388.14055034501, -1623.5373352487
1169, 1446.4000694613, 746.11198158348, -1309.4718546386
1170, 1434.3116045521, 769.0945787399, -2484.9179092627
1171, -1481.7634029502, -673.1518904953, -1216.4382173623
1172, -1179.507141009, -1121.391615052, -7978.1578506746
1173, -1121.8801885605, -1179.0424472917, -7766.2433370193
1174, -1329.4006462714, -938.85577789837, -6202.3651018125
1175, -1235.9702316057, -1058.8360763521, -5967.5252522284
1176, -1164.742153191, -1136.7198276532, -6199.8146180105
1177, 554.35037143894, -1530.1803539732, -6609.2014689236
1178, 318.50459358203, -1596.0297847682, -6373.3507299913
1179, 589.60388972014, -1516.945451632, -6368.6696861103
1180, -1514.0080321489, -597.10629588749, -3236.152931148
1181, 1363.3426803079, 888.84924821419, -7226.779929401
1182, -1093.7755142223, -1205.1603107005, -5854.4927207384
1183, -982.80827617891, -1297.2448274224, -6053.8272600888
1184, 1337.9999169793, -926.5594811794, -1999.5282135563
1185, 1099.9131864579, 1199.5612665704, -7451.1159738299
1186, 1219.507706687, 1077.7556324748, -7516.3112780953
1187, 1362.9372693336, 889.47076953736, -7463.9069420744
1188, 1110.2587682644, -1189.9923182492, -5502.1663871324
1189, 1083.1990917593, -1214.6752560301, -5337.7226395763
1190, 1236.5476548273, -1058.1616829866, -5279.7922700534
1191, 1323.680931871, -946.90286756404, -5065.4751271591
1192, 1357.9672254154, -897.0402804209, -5194.9117090687
1193, 1264.6985647389, -1024.3504236087, -5527.8190840997
1194, -1625.2482457988, -85.58264735332, -6048.1369504462
1195, -472.49259179569, 1557.4039298455, -7880.3736694907
1196, -694.5170345616, 1471.8703539048, -7881.0455031205
1197, -1532.7834136851, -547.11174062682, -6342.7586889434
1198, -1443.0164584611, -752.63520420603, -6189.0784350865
1199, -1458.7462801668, -721.67550886776, -6449.9631533546
1200, -1530.9851271166, -552.1238905788, -6172.9955813371
1201, -1599.1021602081, -302.70205023743, -6176.897797169
1202, 951.03702289898, -1320.7137581912, -7756.4221615621
1203, 1050.3201289062, -1243.2151369793, -7850.4996461748
1204, 664.66592371033, 1485.5892635107, -1173.24974973
1205, 935.06512153151, 1332.0696184867, -1320.234964718
1206, -1593.4174447373, 331.32626941871, -7760.8993515999
1207, 1109.8342938511, 1190.3882098677, -1253.8016359242
1208, 1349.6092725192, -909.56641402939, -3728.6187938949
1209, 1191.0059340022, -1109.1713642046, -3714.9392528695
1210, -382.63345409375, 1581.8811237916, -8456.0098558688
1211, -1373.1000338737, 873.70049042916, -7284.8898596231
1212, -1593.7756701425, -329.59879135347, -6727.3511369303
1213, -1576.6083081797, -403.8099708757, -6418.3941423555
1214, 19.781628250989, 1627.3797765684, -8188.5878914215
1215, 1382.8338696352, -858.21136032434, -5708.1951810364
1216, -1563.7640803383, 450.99684150093, -5051.0720964757
1217, -1483.5980145096, 669.09878294857, -5229.2421169323
1218, -1528.0134366667, 560.29562497503, -4834.4714292917
1219, -1548.9601230569, 499.47851523315, -5364.1656420757
1220, -1581.9216466503, 382.46588587641, -3963.4718932918
1221, -1552.6074178457, 488.02300770623, -4095.9974539867
1222, -1497.4964357902, 637.38581314275, -3945.3076010785
1223, 1281.7088013126, -1002.9849443725, -7687.2616366827
1224, 1399.8419810118, -830.17990712682, -7598.5036811219
1225, -1616.8966948803, -185.47595015336, -7254.5828080295
1226, -1625.530367478, -80.045452130092, -2570.0571334536
1227, -1626.7182736625, -50.437170148518, -2837.7893513264
1228, -1614.9243944581, 201.92931977339, -2737.2649744572
1229, -1384.4720603148, 855.56610744449, -1464.3418491506
1230, -1454.1289871199, 730.93442853498, -1335.7783849077
1231, 1258.2524068465, 1032.258267424, -1435.907385118
1232, 1394.8199371926, 838.59024130377, -1550.5126866278
1233, -1462.0333002828, 714.99292224752, -1683.8509019861
1234, -1343.9076476826, 917.96976230163, -1331.8951239213
1235, 1304.3322380269, -973.38258811408, -8502.6086295875
1236, -83.007812688653, -1625.3817868528, -5589.6718262602
1237, 231.25416620687, -1610.9865798982, -5710.3370753869
1238, -1611.024264194, 230.9914937356, -2883.6676821781
1239, 1363.2758884262, 888.95168712124, -5461.0038166967
1240, 1231.9354736219, 1063.5277329868, -605.33462913134
1241, -1609.0632654842, 244.27782885328, -4914.5387773283
1242, 1494.0712400426, -645.37382940253, -7998.3479848038
1243, 1409.3015455111, -814.01806111418, -8091.8035521553
1244, -1550.2854047183, 495.34978945944, -6021.0195390552
1245, -1447.2041016813, 744.55123267428, -5509.0221786848
1246, -1541.4873296448, 522.08530198097, -5618.9083747118
1247, -1605.2380106156, -268.26699251811, -7027.4552683483
1248, -1612.2557938107, -222.23299782828, -5329.20023953
1249, -1626.8354167566, 46.505664024299, -5321.2265554075
1250, 1499.5069726282, 632.64135893848, -5460.5797723077
1251, 1491.3508272057, 651.63560384065, -1117.6888399634
1252, 1402.0595868903, 826.42916502809, -1074.6277434383
1253, -623.6613492046, 1503.2640391855, -2482.5702059124
1254, -703.32835494991, 1467.6803041274, -2318.4496853493
1255, -749.71425987906, 1444.5361811094, -2558.7914088618
1256, -890.60888758437, 1362.1938405953, -2454.27409193
1257, -1394.7763865695, 838.66267442176, -6495.9454291632
1258, -93.701731031646, -1624.8003679227, -2242.7990297973
1259, -1240.1084423502, -1053.9863856862, -2368.5720645022
1260, -1361.7570308188, -891.27663439343, -2444.5610726149
1261, -1411.458826217, 810.27170251343, -6336.9620689267
1262, -1286.3939507327, 996.96883277178, -6417.0245193654
1263, -1553.791258719, -484.2406161489, -2441.7266349503
1264, -1460.3583826064, -718.4077145683, -2588.6185593779
1265, 1600.1211077847, 297.26871752994, -7645.8819054647
1266, -1423.6865614638, -788.58913554997, -2242.2639615289
1267, -1279.0163500691, -1006.4161297674, -2102.7529556802
1268, 115.80661880167, -1623.3745954159, -2338.9619237454
1269, 48.197532504895, -1626.7861715236, -2478.1704092005
1270, 493.49667560062, -1550.8762946061, -2481.2846000194
1271, 1600.1211077847, -297.26871752994, -1436.6180945353
1272, 649.14723855111, -1492.435631001, -2685.5497657771
1273, -1063.8972482446, -1231.6163750039, -6688.8908051552
1274, -1154.2169484256, -1147.4055455535, -6508.8590038265
1275, -1217.6853935406, -1079.8141193547, -6381.5602492336
1276, 1456.4361207957, 726.32642526732, -2780.3844101433
1277, 1548.0247975942, 502.36985979787, -2946.9572020932
1278, 598.70926902909, -1513.3748581163, -2941.2082263941
1279, 714.48632611378, -1462.2809373703, -3102.7030966146
1280, 608.04760795246, -1509.6470966631, -3187.1471850087
1281, -1595.3187323004, -322.0471896655, -2815.590222218
1282, 748.01035753468, -1445.4192315798, -2805.2735935359
1283, 455.75829014218, -1562.3829975287, -2741.5431222676
1284, -1614.0521226916, -208.7869613618, -8175.6721061149
1285, 1610.5497649582, -234.27698263638, -2041.5708797247
1286, -778.90754499702, 1429.0063982875, -8170.3271925144
1287, 1256.4446887526, -1034.4578261608, -3261.2442696107
1288, 1605.8518655575, -264.56763952785, -5159.6071438437
1289, -1422.2590540211, -791.16081377615, -2960.716063162
1290, 1097.8336050945, 1201.4647833063, -5685.4619255102
1291, 1313.7850385236, 960.58582258507, -5583.740948057
1292, 1119.9337014959, 1180.8915082486, -5834.4837812308
1293, -1200.5353243797, 1098.8499373966, -8440.5010276059
1294, -1010.5900802939, 1275.7209489585, -8385.7428418489
1295, -1232.9696562763, 1062.3286105071, -8298.1036236394
1296, -943.65623785411, 1325.9974188357, -8205.6277639572
1297, -1148.1724185526, 1153.4540941342, -8220.6607215207
1298, -1284.6142262938, 999.26099673893, -2372.5881924672
1299, -1425.7772561039, 784.80281980685, -2341.7315665894
1300, -1218.2099873465, 1079.2222554827, -2504.6274906604
1301, 1308.237728281, -968.1272108055, -6183.5126017276
1302, 1123.6117963161, -1177.3923650081, -6260.1570729865
1303, 296.96482806643, -1600.1775341791, -2424.5602705144
1304, 161.12244522253, -1619.5048032178, -2645.4643339209
1305, 1169.2842725406, -1132.047057321, -3933.353407964
1306, 1018.6449729602, -1269.2984948636, -3862.4637972258
1307, 1313.7040418488, -960.69659124514, -4008.0863371229
1308, 1191.9784227741, 1108.1262065491, -3639.6791091887
1309, 982.46211256874, 1297.5070124539, -3762.8044862959
1310, 1150.3343966166, 1151.2979744448, -3825.8971821459
1311, 790.07226866683, 1422.864034363, -3721.2863425196
1312, 756.58426346639, 1440.9498611246, -3918.8624728
1313, 935.13490225515, 1332.0206321917, -3975.7336178971
1314, 1471.5785682444, 695.13507139527, -7445.7551753172
1315, -1596.6047872623, 315.60957414385, -1325.556636745
1316, 506.35482967956, -1546.7259086406, -8270.4538579837
1317, 378.77973207679, -1582.8083158007, -8480.0081167455
1318, -1115.5284444062, 1185.0538130063, -1044.1062718251
1319, -1107.1311588305, 1192.9026981052, -1332.4134575647
1320, -937.62253568751, 1330.2707358169, -1361.3911345924
1321, 398.18164862291, 1578.0391708383, -930.06326355069
1322, 623.69594515846, 1503.2496858449, -1020.3048422576
1323, 630.79315195397, 1500.2853893336, -776.9053819767
1324, 1470.0884842947, -698.28081625103, -1610.0376412754
1325, -1442.3218035652, -753.96555953208, -5691.8779068749
1326, -1417.7527391264, -799.20799589318, -5936.4360820107
1327, -1448.1983329776, -742.61553872834, -5450.4659912956
1328, -1477.5921891604, -682.25916815547, -5113.6787855725
1329, 1439.2122131158, 759.88450149893, -4193.2322054934
1330, -918.35975322088, -1343.641177422, -6566.7866336381
1331, 810.0273012406, -1411.5991007524, -6599.5821775878
1332, 1442.3664640952, -753.88011862199, -5054.1593196506
1333, -1515.5014397905, -593.30568511762, -7117.6132609619
1334, -1471.0318410345, -696.29129871243, -7305.8180297502
1335, 1182.3745490953, 1118.3678624011, -2585.9436872104
1336, 1117.2336896072, 1183.4462948553, -7721.2699540061
1337, 1010.6612454145, 1275.6645707305, -7890.5842488429
1338, -113.93744316294, -1623.5068552505, -5980.7024708878
1339, -167.09307448165, -1618.8996739947, -6182.6462267335
1340, -257.37554192924, -1607.0202489131, -6010.5484501386
1341, -363.5013388365, -1586.3867834372, -6271.7253276785
1342, -688.13840759763, 1474.8633095948, -4565.6617564941
1343, -916.32502821913, 1345.0296251976, -4407.3573834487
1344, -851.71091525295, 1386.8470596425, -4704.4231123029
1345, 434.67478771718, -1568.3794435413, -6111.8241528463
1346, -1616.8869032315, -185.56128949301, -4261.4817362639
1347, -1627.2387473489, -29.160060463569, -4448.732674616
1348, 1125.0767922688, -1175.9925431304, -1456.6234957745
1349, -1623.2500626117, 117.53928803277, -3584.582350455
1350, -989.72274531228, -1291.9772201597, -920.42800991778
1351, 1014.2061475006, -1272.8480429227, -1166.9449954057
1352, -1611.2663002087, 229.29709944023, -3298.7597053336
1353, 1587.0429840136, 360.62559101241, -6611.7800540428
1354, 517.85086163999, 1542.9150122734, -3990.7640055529
1355, 395.51990917184, 1578.708412421, -3810.7550504469
1356, -1571.6339348352, 422.7564604762, -8154.8317746549
1357, -1624.2563768077, 102.70088801755, -1385.3332565064
1358, 352.99965154067, 1588.7565880311, -4189.808208081
1359, 189.34507187833, 1616.4481723072, -3935.7423990323
1360, 687.48923669373, -1475.1660243614, -7118.5669928237
1361, 475.43811329156, -1556.5072599991, -7117.382435834
1362, -1114.2523859474, 1186.253712496, -1975.1734303604
1363, -943.06188117542, 1326.4201967227, -2175.6564610569
1364, -959.51065135849, 1314.5704849606, -1888.7723769283
1365, -1494.4036393145, 644.60376418657, -1222.0439808853
1366, -790.86990160715, 1422.420840937, -1954.5746252913
1367, -46.930704698469, -1626.8232107259, -6349.7825327548
1368, -247.64564740098, -1608.5483776758, -6471.5819219247
1369, -112.59488821374, -1623.6005177223, -6653.5289727933
1370, 1271.9212226322, -1015.3682353795, -7248.8414617948
1371, 1188.6007576835, -1111.7483927734, -7102.4716784662
1372, 1285.1626625596, -998.55554715933, -6955.3162488294
1373, 1369.6475422727, -879.10287222044, -7110.4668052555
1374, 1193.8586497506, -1106.1002551377, -7344.8307505879
1375, 1307.036814285, 969.74791368881, -1820.1349215919
1376, 1307.7249035568, 968.81981122256, -2090.2134342696
1377, 1432.665461329, 772.15667187106, -2031.8004408429
1378, 1175.5230470098, 1125.5673307042, -1806.9695611861
1379, 1329.8624744481, 938.20149704358, -814.39211882518
1380, 905.94028462488, 1352.0460238815, -5838.4808905697
1381, 1434.8295745688, 768.12781614963, -6590.169648136
1382, -37.154156640468, 1627.0758490754, -3101.5279803196
1383, -234.24887262808, 1610.5538537014, -2980.4648423962
1384, 208.67298683046, 1614.0668618639, -3112.8782010259
1385, -1425.5410081169, -785.23186650644, -4201.9918773396
1386, -1326.2022606281, -943.36833416484, -4092.8717254749
1387, -1200.6534334031, -1098.7208848735, -3998.9594004743
1388, 1318.8863203388, 953.56967444606, -959.95632742151
1389, 1519.1713826323, 583.84463703207, -6687.0161347841
1390, -1210.2803425014, 1088.1074131513, -1865.5930628228
1391, -1371.2772286602, 876.55861878028, -1934.7013464697
1392, -1294.6570872883, 986.21461981358, -2045.8346849815
1393, -1334.5508542835, 931.52040628812, -1768.5250183762
1394, -1413.5842488326, 806.55800873369, -3399.5157849516
1395, -1279.9901716239, 1005.1773030397, -3590.3516827233
1396, -1195.1741015995, 1104.6787392115, -3257.0227750711
1397, -409.9364091972, 1575.026472925, -7614.5151626685
1398, -269.71393615945, 1604.9955272964, -7763.4240298327
1399, -139.08574315225, 1621.5459925799, -7528.2157127679
1400, -1553.6814243153, -484.59290310278, -8442.6820870521
1401, -1610.9400890098, -231.57780468135, -8440.3585360541
1402, -569.93501293767, -1524.444269571, -6360.4282687034
1403, -1166.1141183543, 1135.3123415936, -6299.4558310531
1404, -1030.1884614805, 1259.9476115428, -6178.4314625043
1405, -1083.7964987838, 1214.1422483482, -6513.6580392679
1406, -479.66978989654, -1555.2083920365, -6624.8649523126
1407, -1007.2891933779, 1278.3288821364, -4630.7354482354
1408, -632.91197146478, -1499.3927725505, -1235.7107832584
1409, 265.74076649349, 1605.6581501127, -6698.0214889856
1410, 338.20982256205, 1591.9705920407, -6457.9105292694
1411, -660.45652714009, -1487.465436828, -1878.378544208
1412, -497.84510936195, -1549.4858815376, -1735.6949238368
1413, -341.01044120025, -1591.3730326333, -1896.235508521
1414, -669.4764024138, -1483.4276512898, -1548.6723411608
1415, -1573.1702054277, 417.00330304983, -3287.5872577124
1416, -1594.1582886155, 327.74319342839, -3516.7524392456
1417, -1546.4999610522, 507.04449554811, -3410.5655680585
1418, 93.083764625104, -1624.8358879478, -5920.3885275046
1419, -94.521714741263, -1624.7528721139, -5840.0355431914
1420, -17.469525099349, -1627.4062386795, -6071.7216872369
1421, 144.78598261612, 1621.0469670055, -5697.6869382479
1422, 141.75002793962, 1621.3152622421, -5387.0017463519
1423, -11.655678917996, 1627.4582621834, -5522.7849306641
1424, 4.7439266437579, 1627.493086056, -5272.415886352
1425, 1454.8706922781, -729.45700267408, -3234.0991847752
1426, 1365.7722933741, -885.11145775633, -3063.7041797178
1427, 1214.2617944521, -1083.6625602714, -3000.1187068087
1428, 1309.02960507, -967.0562253821, -2935.0359645949
1429, -880.66456058375, 1368.6439207229, -7385.3668396888
1430, -759.97643852974, 1439.163667857, -7509.9761084612
1431, -720.74409949744, -1459.2066999023, -7551.7787673182
1432, 1349.5430766287, 909.66462738937, -6096.5855295397
1433, -1472.6898034417, 692.77773696828, -8176.354996579
1434, -1466.0698141004, 706.67924137022, -8424.6091132451
1435, -1346.1222654539, 914.71913528097, -8196.2942896189
1436, -1091.3267075627, 1207.3782619214, -4281.703692616
1437, 736.94575885633, -1451.0917264266, -1231.9784194905
1438, -847.1888030297, -1389.6141126302, -7759.264670725
1439, -681.94065081008, -1477.7392187977, -7846.9796562905
1440, 1207.0116275962, -1091.7321928237, -5034.2800143314
1441, 1042.1979539467, -1250.0318695094, -5127.9013331881
1442, 1007.3704955508, -1278.2648139935, -4976.2530510188
1443, 1088.9858935088, -1209.4899642986, -4866.8784397136
1444, 1578.0265560414, 398.23163916027, -6766.9218447415
1445, -1568.094641183, 435.70109742016, -3766.9273920279
1446, -1618.722043913, 168.80519704724, -3806.7768951125
1447, 1609.863411431, 238.94779039704, -7029.0511174761
1448, 1354.9382604643, 901.60887325378, -8031.591702851
1449, 1305.2352476523, -972.17138318608, -1068.3735510114
1450, 1556.2537929165, -476.26713305986, -3999.0619422914
1451, 1476.475131043, -684.67323404058, -3875.838604044
1452, -1623.7597639371, -110.27456197643, -1452.1963825291
1453, 879.16331350023, 1369.6087463927, -2269.9481459248
1454, -1341.6549807117, 921.2590095796, -8438.5258622284
1455, 373.15516866858, 1584.1437656021, -8113.2673478415
1456, 233.41451252044, 1610.6749874959, -8375.6174493472
1457, 14.62032481973, 1627.4343292748, -8490.9899443118
1458, 719.60197815461, -1459.7702706371, -912.56420169019
1459, 1608.3967556275, 248.62849089969, -6394.4357725507
1460, -221.22840670718, -1612.3939475407, -1811.6778202007
1461, -213.39596663639, -1613.4492280277, -2045.6426694877
1462, -266.72937873222, -1605.4942193982, -1618.0116242062
1463, 1617.4982667294, -180.15439802421, -2916.5895074147
1464, 1582.0534730379, -381.92022524167, -2844.9986996391
1465, 1612.9684905394, -216.99976619151, -2701.4353931529
1466, -1013.8471470602, 1273.1340119555, -4119.7674655191
1467, -1120.9069286239, 1179.9677569167, -5917.1980472203
1468, -1245.819001303, 1047.2302831719, -5810.9261358425
1469, -1074.4657874958, 1222.4072649903, -5637.1186773366
1470, -30.774254275733, 1627.209020155, -7855.9455994608
1471, -292.34843908642, 1601.0273702107, -5505.9889439582
1472, -195.21178449774, 1615.7501691763, -5331.1993907548
1473, -184.51210173729, 1617.0069679233, -5640.7027139182
1474, -914.55354604342, -1346.2347720288, -7389.6111389503
1475, -1590.015120214, 347.28686628034, -5265.2721532367
1476, -1625.7969932211, -74.433774814832, -5498.0238893799
1477, -1609.8143648906, 239.27799855389, -5517.8741649192
1478, -1142.2379129826, 1159.3311865662, -613.53961831465
1479, -1281.3499732065, 1003.443319856, -633.51546456468
1480, -1225.925274699, 1070.4501253465, -828.91751950552
1481, -819.14593883385, -1406.3271955317, -1344.2489926542
1482, 1434.0684124909, 769.54794411775, -3809.9462488404
1483, 1262.1929557871, 1027.4362230141, -3859.3206169234
1484, 1304.5768013836, 973.05478740492, -4049.7552930025
1485, -16.080652671057, 1627.4205549303, -6658.2843908332
1486, 157.24588713414, 1619.8857925729, -6542.3236658647
1487, 1606.2795623741, -261.95842704353, -1832.27981844
1488, -1288.849454813, 993.79239926062, -1124.2717041786
1489, -1256.9774302787, 1033.8104225485, -1333.0368091064
1490, -850.90360294082, -1387.3425346692, -1688.7735693249
1491, -930.92832370051, 1334.9639343938, -6396.0577624291
1492, -768.48437750484, 1434.6386344759, -6282.2552303278
1493, -882.96518616693, 1367.1608281461, -6064.1115918756
1494, -1089.2613428646, -1209.241901747, -2357.2880700866
1495, -1492.9402691953, 647.98580433135, -3587.3331889613
1496, 1617.7574056288, 177.81233515429, -3421.0219921908
1497, -1024.155007366, -1264.8568183344, -6382.9049638123
1498, -1495.653847176, 641.69760746606, -3258.6702938796
1499, -962.69857161593, 1312.2376729117, -5896.3907486262
1500, 713.77799875821, -1462.6268213351, -5674.7821979371
1501, 967.66570180861, -1308.5791300274, -5651.8549788665
1502, -1247.9418370653, 1044.699679957, -6100.212048088
1503, 1614.9500632935, 201.72392785286, -2744.7342787404
1504, 1607.2715091347, -255.80177076012, -6352.7545532353
1505, -612.96800778667, -1507.6559526066, -7057.5864931183
1506, -794.41533841774, -1420.4437757569, -7135.9451053675
1507, -460.77831582426, 1560.9098608396, -3921.4416950932
1508, -328.56326549362, -1593.9894700305, -5638.3604867639
1509, -483.12205952172, -1554.1394163985, -5650.0578334003
1510, -379.41583192193, -1582.6559564501, -5462.5362307562
1511, 431.64024982799, -1569.2173032211, -7379.0713114185
1512, -1428.2772940365, -780.24369355972, -7539.9123844093
1513, -1588.4803145889, -354.24079404212, -1573.2085900894
1514, -1248.846337301, 1043.6182615353, -3837.0371026867
1515, -1417.7995561239, 799.12493932731, -3778.6147651314
1516, -1330.3491094472, 937.51133166115, -3962.9856653756
1517, -1226.266593808, 1070.0591062696, -4131.4470607939
1518, -1103.3032472889, 1196.443978848, -3919.6827711223
1519, 1156.8161885579, -1144.7849387069, -5776.7124426166
1520, 380.63322422069, 1582.3636113799, -4999.9028903876
1521, 52.396902012985, 1626.6563296097, -5114.7306309167
1522, 263.10969266397, 1606.0913858266, -5207.1247604902
1523, 521.50457284197, 1541.6838944819, -4791.3923877907
1524, 139.25987350724, 1621.5310473842, -4854.0774118781
1525, 344.74628416753, 1590.5679015851, -4659.4856090822
1526, -80.296162266089, 1625.5180024612, -4859.3454238628
1527, 1153.4689855171, -1148.1574584743, -7777.6698638095
1528, 1144.195943062, 1157.3987618277, -1396.7020372645
1529, -1621.7949967283, 136.15152803732, -2999.2995741193
1530, -1598.1934753039, 307.46360027804, -3088.4421108498
1531, -595.12155137862, 1514.7892886751, -7703.127957816
1532, 1430.1256218116, 776.85066508185, -3446.2178379195
1533, -115.36694857189, 1623.4059003149, -1674.6570998024
1534, 1435.793560725, -766.3244097512, -7287.3630651817
1535, 1341.6892459381, -921.20910619365, -7407.8232597642
1536, -162.08839668842, 1619.4084110128, -2596.7042023906
1537, 1513.5045753511, -598.38127510071, -7164.9615427447
1538, -184.72318578751, 1616.982867761, -2803.1739248412
1539, 334.23754075456, -1592.8093157533, -5893.8410009099
1540, 254.46475761801, -1607.4837284186, -6030.6803252753
1541, 124.81821285993, -1622.7065858431, -6202.6235008344
1542, 1285.5148589686, -998.10209766885, -4823.7206142681
1543, 1417.7087386663, -799.28604536122, -4824.241462854
1544, 1370.539893287, -877.71102927376, -4940.3388441959
1545, 1418.9223220323, 797.12965948996, -1804.8494541669
1546, 1302.0587657467, 976.42164075878, -1664.5389144825
1547, -1444.8109628275, -749.18457785348, -650.23579113049
1548, -674.74429326173, -1481.0389558383, -6147.2952790004
1549, -464.44770636219, -1559.8219699872, -6065.2298529604
1550, 870.66255637883, -1375.0283498604, -5176.6072217329
1551, -1028.4188277318, 1261.3924705526, -8085.7209169888
1552, 1590.8229101235, -343.56763326352, -7664.4729992328
1553, 1591.4895929197, 340.4660418137, -1416.322318037
1554, 647.37669076045, 1493.2044971336, -7763.2384539231
1555, 330.48787959891, 1593.591544731, -7529.4147661985
1556, 1436.4657578818, -765.06364208026, -4101.0804227083
1557, -1620.5550520891, -150.1917878865, -7877.9782321977
1558, -364.11033525318, 1586.2471162344, -2799.0667577886
1559, -539.18235620864, 1535.5906475208, -2858.4883673893
1560, -355.65227955142, 1588.1648862917, -2932.9107671563
1561, -573.33409132083, 1523.1691533541, -2662.3131169643
1562, -316.47336286082, 1596.4337946184, -3137.0350802544
1563, -185.42665283994, 1616.9023490664, -3204.9132257397
1564, -376.31510646915, 1583.3960940469, -2605.894865978
1565, -426.1597012734, 1570.7145377218, -2351.9915032265
1566, -580.39313207962, 1520.493361457, -2246.18501198
1567, 760.35439187595, 1438.9640192704, -8214.8067891935
1568, 772.36026052871, 1432.5557154806, -7961.4086417773
1569, 609.21760730429, 1509.1753234633, -8033.7434676864
1570, -223.72105136223, 1612.0499809799, -5946.0325656514
1571, -83.116194880549, 1625.3762481803, -6151.8315143235
1572, -36.098941539881, 1627.099602489, -5821.1323550383
1573, 165.5346530054, 1619.0597668568, -6017.9587619735
1574, -716.1669111265, -1461.4585883314, -2920.6537364085
1575, -862.02784483849, -1380.4579836863, -2859.9280580806
1576, -805.33727707247, -1414.2800713287, -2658.8495506409
1577, -494.16938650092, -1550.6620739043, -3972.6643126489
1578, -258.31746218832, -1606.8691106399, -3845.6002153815
1579, -342.68030613089, -1591.0142858535, -4111.205129851
1580, 919.96113264549, 1342.545256005, -8014.2238237534
1581, -717.8373723298, 1460.6388180815, -1208.6336164195
1582, -423.49231593506, -1571.4358110798, -822.34266590224
1583, 378.76704651647, -1582.8113515114, -7618.8291495659
1584, 1406.0865981998, -819.55886204887, -4344.2798947339
1585, 1527.1372765591, -562.67929457518, -4200.5068848591
1586, -652.70926941093, -1490.8812359222, -8011.2462350658
1587, -1555.3298443309, 479.27583428914, -3159.5175377546
1588, -1626.3934870695, 60.003960018828, -5603.4196883983
1589, 845.05716492502, -1390.9114414688, -4921.6475226701
1590, -476.42958452498, -1556.2040679131, -1415.0794110328
1591, 175.15696228122, -1618.0470600586, -3940.0053928418
1592, 168.29562635929, -1618.7751023994, -4155.2141181321
1593, 308.43965739026, -1598.0053904005, -3967.9643211538
1594, -458.59941429245, 1561.5514167682, -3025.8264440052
1595, -385.19421886966, 1581.259518153, -3297.8265671905
1596, 1275.270006596, -1011.1590677419, -4259.2189072927
1597, -413.36888486371, 1574.1290973191, -3439.5128295374
1598, -261.78648481019, 1606.3075939467, -3537.0059082401
1599, 215.45272717449, 1613.1758652897, -4490.9282497014
1600, -72.210682645285, 1625.8972499245, -4399.3851617297
1601, 32.299819010848, 1627.1794528238, -4602.6990962717
1602, 114.09617266867, 1623.4957078423, -4288.1910589977
1603, 937.91167025783, -1330.0668963605, -6330.7482609733
1604, 800.76610834521, -1416.8732793463, -6355.3809949177
1605, 492.29689266432, -1551.2575606498, -5230.302305927
1606, 682.3394704652, -1477.5551079555, -5216.8504806785
1607, 706.82004805888, -1466.001933717, -5437.7388759923
1608, 906.62375862604, -1351.5878107969, -5395.1040619276
1609, -276.30332305439, 1603.8742854941, -1126.0058329726
1610, -486.79701849466, 1552.992244921, -1064.0498913275
1611, 182.58589029284, -1617.2256004238, -7585.1632886568
1612, 249.95942575302, 1608.1904537328, -6269.2650985733
1613, 45.1708657699, 1626.8730260489, -6356.6990052717
1614, -278.15942995814, 1603.5534233462, -6270.638402335
1615, -413.09582207526, 1574.2007787395, -6061.2103419032
1616, 1422.6031488274, -790.54192232053, -2172.3592835734
1617, 1477.6528391226, 682.12780109953, -7211.202220243
1618, 1569.2792886282, 431.41484012784, -4393.8281100865
1619, 1570.8319906088, 425.72656398192, -4156.2441763209
1620, -169.53580252547, 1618.6456874999, -2086.1723925336
1621, 1172.6653982913, -1128.5442453224, -2773.3370467279
1622, 904.71824774961, 1352.8640516286, -7748.2089621736
1623, 965.8900967904, -1309.8902896511, -1379.0247572667
1624, 896.36760903152, -1358.4113366279, -1101.2336982858
1625, -815.66797071173, 1408.3472624161, -690.25736608806
1626, -644.63661823961, 1494.3894674497, -775.80320000775
1627, -1228.1231424325, -1067.9278051544, -4340.776583475
1628, -1155.2318648196, -1146.3837003837, -4161.6559614052
1629, -1236.2088921879, -1058.5574263476, -3749.2416193618
1630, -1412.1248793614, -809.11036026525, -3803.539322089
1631, -138.44601277582, -1621.6007374032, -4863.2570243173
1632, 90.198615227512, -1624.9986030182, -4910.2265449733
1633, -175.07151257285, -1618.0563078847, -5075.2715052376
1634, -107.68933306889, -1623.933267577, -4646.7494493299
1635, 123.11484141619, -1622.8367095377, -4696.5597225666
1636, -269.00554144142, 1605.1144098393, -7959.9204742196
1637, 78.599423799664, 1625.6009290654, -7635.5517152498
1638, -1385.969007984, 853.13900327428, -4730.0478118343
1639, -1389.2607368129, 847.76816120338, -1214.6545416874
1640, -32.016484591287, -1627.1850523878, -3893.6013366998
1641, 240.11257033427, -1609.6900955052, -3747.2756704523
1642, 859.68803292309, -1381.9163274413, -2990.932487746
1643, 1013.7830749059, -1273.1850325206, -2876.2573009029
1644, 1088.4617451786, -1209.9616850474, -3111.8018211111
1645, 433.67920211255, -1568.6550288878, -3107.178655048
1646, 334.27884841305, -1592.8006471319, -2916.3926170935
1647, 173.57227814511, -1618.2178203998, -3137.4923948242
1648, 1370.5299055271, 877.72662489864, -2624.2045925294
1649, 1529.5319800883, -556.13682838601, -6452.756015803
1650, 1420.9668995056, -793.47925020722, -6577.0410215696
1651, 970.49089862085, -1306.4852336303, -4059.1503805773
1652, 1122.5413503599, -1178.4129864917, -4163.8233492138
1653, 1499.3195721098, -633.08535813792, -4645.2664988669
1654, 1486.781911116, -661.99380569489, -4864.8543187654
1655, -560.85586298549, -1527.8078907228, -7748.5228802206
1656, -450.644628074, -1563.8656173687, -7965.5855333276
1657, -1415.8316909135, -802.60630012795, -3238.4281957373
1658, -1409.0733831569, -814.41294861922, -3485.5434701744
1659, 785.46406502478, 1425.4130813749, -2008.0898872528
1660, 615.0038356736, 1506.8266430173, -1894.0650189905
1661, -1193.7080312499, -1106.2628015663, -5304.8211445319
1662, -1333.3923405177, -933.17796601119, -5067.9066542259
1663, -1215.9198634345, -1081.8018005649, -5031.0296198329
1664, -1375.7450312159, -869.52967694313, -5219.2226625925
1665, 517.20075120289, -1543.1330574371, -6862.2596557726
1666, -1076.6996883605, -1220.4400972946, -3733.5130221824
1667, -955.67571646823, -1317.3610647628, -3738.3296241198
1668, -1059.1970488217, -1235.6609008007, -3941.0345880104
1669, -906.18365756269, -1351.8829197702, -3883.643201457
1670, -1244.2569568582, -1049.08573306, -3436.0174522752
1671, -1514.9768903169, -594.64381927819, -1498.2878972841
1672, -1470.4532945234, -697.51226413966, -1706.7638183696
1673, -1375.5310139283, -869.86819675247, -1589.7314426751
1674, -1398.0904319887, -833.12627733238, -1901.0185093796
1675, -1227.7388211398, -1068.3696163156, -612.11512412471
1676, -1230.0096864872, 1065.7543906302, -6628.915617381
1677, -991.46070461639, 1290.6439947567, -6724.5116705219
1678, 705.33374423479, 1466.7176140088, -2364.1343027366
1679, -130.05140865634, -1622.2955591095, -1410.6181280243
1680, -3.4458350866957, -1627.4963521374, -1688.2559306838
1681, 466.72998066063, 1559.1405886425, -5316.2926978251
1682, 1592.6692117517, 334.9045116719, -5556.1000161984
1683, 1610.1352166616, 237.10932935306, -5321.1505076522
1684, -1323.8223438235, -946.70515578697, -4624.447171406
1685, -1222.7915287331, -1074.0284573783, -4556.6972639869
1686, -302.33690948306, -1599.1712363485, -5824.7520000861
1687, 1111.8979485864, 1188.4608541847, -4029.8378829402
1688, 1496.2395029076, 640.33085193426, -4668.5862267907
1689, 361.263935358, 1586.8977972792, -7351.3643367947
1690, -963.0877598671, 1311.9520634513, -7633.8062358241
1691, -800.1349566541, 1417.2297982826, -7668.962458889
1692, 1061.0294379302, -1234.0878339266, -7561.1290714959
1693, -1252.9781328848, -1038.6539599465, -7142.1275258389
1694, -1338.6002550976, -925.69196121201, -7386.1552344773
1695, -1377.9564410441, -866.02095620426, -7224.3216433303
1696, 1034.6421241731, 1256.2929295696, -1532.8290244261
1697, -955.88579349852, 1317.2086394295, -1545.6043981566
1698, 1505.6159420173, -617.96188000824, -6650.7914348564
1699, 1475.5935830755, -686.57106521197, -6918.1683558027
1700, 1363.2836895273, -888.93972341713, -6775.7248423928
1701, -362.72781195219, 1586.5638292979, -5751.7413249634
1702, -514.5544545116, 1544.0174750767, -5540.2199603164
1703, -477.95340425851, 1555.7367365199, -5282.237854449
1704, -547.17211557081, 1532.7618621109, -5853.7841681055
1705, -1308.4464707245, -967.84507192459, -5533.2160200903
1706, -1363.3500135527, -888.83800016976, -7948.5102343987
1707, -1461.4635441765, -716.15679780556, -8070.6667329943
1708, -1482.2441515574, -672.09264627276, -7810.2917618222
1709, 1415.4230166539, -803.32679149054, -2016.9447433018
1710, -1282.3733528981, -1002.1351374824, -7673.4786934758
1711, -1244.7073552783, 1048.5513100063, -7327.4980180434
1712, -1089.478028457, 1209.0466804509, -7362.7994475983
1713, 436.3875280878, 1567.9037519342, -6039.1614563034
1714, 461.59866111486, 1560.6674617153, -6223.4001829572
1715, 651.49183401381, 1491.4136382015, -6189.91211256
1716, -1576.0591893506, -405.94788047659, -1264.4759178744
1717, 729.41607632396, 1454.8912116032, -6371.2231528365
1718, -933.77948542508, 1332.9711634538, -2728.3194342642
1719, -1102.5887914104, 1197.1024212891, -2477.627273295
1720, 74.582459562478, -1625.7901791823, -6522.7913280463
1721, -486.95932380263, 1552.9413597949, -5056.8850639137
1722, -212.94333190681, 1613.5090292268, -5020.048524209
1723, -355.18960734033, 1588.2684259398, -4770.9781015289
1724, -156.72247464846, 1619.9365160216, -4694.1173079421
1725, -434.52455815216, 1568.421071767, -4552.3282116538
1726, -250.15747138906, 1608.1596592093, -4492.6518444364
1727, -334.17429293498, 1592.8225864613, -6584.0929558139
1728, -465.66631551249, 1559.4586023993, -6381.6404858434
1729, -595.75183942629, 1514.5415134027, -6170.6190599261
1730, 739.4264914296, -1449.8292015862, -4379.6645136442
1731, 880.11797555332, -1368.9954708135, -4232.8515235113
1732, 1041.2816201952, -1250.7952819881, -4421.6880510065
1733, 568.7044609796, -1524.9037628854, -4509.8051199386
1734, 1571.9307248618, 421.65156970584, -3148.4262900066
1735, 600.83369130056, 1512.5326857289, -2168.173840257
1736, 486.01483940115, 1553.2372085042, -1987.2959834902
1737, 1480.9827353042, -674.86768164644, -3039.2368987791
1738, 1439.1589107875, -759.98544690077, -2909.4473011443
1739, -1333.6381284173, -932.82666794624, -8439.9208591663
1740, -1459.0097575818, -721.14268857209, -8443.9619112499
1741, 319.7277706558, -1595.7851994148, -3603.0688272191
1742, 398.51262565208, -1577.9556195267, -3851.9504276761
1743, 185.7256525407, -1616.868031717, -3416.6868943445
1744, 461.37014095947, -1560.7350329351, -3369.6345480974
1745, -708.64584067098, -1465.1202416524, -3769.8620327055
1746, -885.39134385304, -1365.5908678042, -3607.4029875754
1747, -982.03734972984, -1297.8285301748, -3294.8932375612
1748, -787.90108418976, -1424.0674603166, -3403.4751872299
1749, -914.75351098855, -1346.098905777, -3068.8735097731
1750, -334.29645825401, -1592.7969512775, -2491.0197042034
1751, -334.17246351725, -1592.8229702722, -2270.2948485877
1752, -113.18358852925, -1623.5595847666, -2482.6195320112
1753, -327.46169364636, -1594.2161362859, -2715.4682881782
1754, -560.69803862272, -1527.8658185471, -2488.4658402558
1755, -581.61262420098, -1520.0273041528, -2759.1081296765
1756, -1365.5814310845, 885.40589848792, -5446.6484454542
1757, 792.04298894503, 1421.7679675893, -7595.043678705
1758, 681.89358884204, 1477.7609358405, -4101.8254356012
1759, 583.71034953188, 1519.2229849003, -4294.7157243148
1760, -1467.859679045, 702.95391928203, -7987.2139609709
1761, 798.30985899184, 1418.2586573106, -3502.3254517428
1762, -1037.0391822082, -1254.3149463213, -1452.3615643076
1763, -1193.0671741954, -1106.9539140621, -1386.2331550877
1764, -1169.7036823576, -1131.6136909207, -1641.6310108475
1765, -723.66563289674, 1457.7600288676, -5954.2199538564
1766, -883.13933329341, 1367.0483414971, -5677.3397432898
1767, -1053.3644258505, -1240.6367866353, -7282.7556002903
1768, -1024.8348474473, -1264.3060489682, -7581.2332343437
1769, -1198.1519811281, -1101.4481740503, -7406.8898708833
1770, -1609.7039746433, 240.01950757693, -8282.2674067469
1771, -758.12799183874, -1440.1382565541, -6457.6108818655
1772, -685.5010224845, -1476.0909857366, -6616.4253269126
1773, -1324.1276175391, -946.27813166644, -3238.1696035989
1774, -1151.6514623568, -1149.9805038571, -3186.9802694178
1775, -1049.915899841, -1243.5565340028, -3518.5187289081
1776, -327.99758646785, -1594.1059667636, -4382.1325340729
1777, -501.57090423015, -1548.2838493086, -4374.3512442532
1778, 830.09933680929, 1399.8897603129, -6142.3891573006
1779, -573.68692308794, -1523.0362977546, -4229.589483152
1780, 261.64713237289, 1606.3302985753, -5835.7603188498
1781, 490.94728850175, 1551.6852161159, -5822.6972715075
1782, 596.30946037549, 1514.3220520968, -6058.0850111381
1783, -1625.551397345, -79.617238018572, -6336.2297784977
1784, -592.23349389063, 1515.92075608, -6987.7767826836
1785, -718.69940578142, 1460.2148520438, -5240.4532972034
1786, -789.97100213213, 1422.9202598144, -5457.2556155732
1787, -1010.5279231647, 1275.7701856151, -5399.8901836077
1788, -243.131742659, -1609.2368395334, -3554.5685759444
1789, -448.26034867217, -1564.550705413, -3638.1139905552
1790, -451.61100893941, -1563.586820936, -3338.2758752348
1791, -91.821040278102, -1624.9077347844, -3297.5228810862
1792, -290.81189206543, -1601.3071827208, -3153.3223464435
1793, -592.38124407397, -1515.8630253652, -3533.5161013202
1794, 628.85211389391, -1501.1000196027, -5013.438388539
1795, 493.7218411613, -1550.8046277853, -5071.7438626123
1796, 1034.4875401211, -1256.4202240231, -6464.7451668365
1797, -753.86298796728, 1442.3754176264, -2715.3566086858
1798, -733.47430308345, 1452.8495093148, -2942.396174876
1799, 155.88958944217, -1620.0168782774, -2914.6984751783
1800, -4.0939778838778, -1627.4948507891, -3138.4779287862
1801, -111.85593662122, -1623.6515942291, -2955.5928292499
1802, -1433.7330488012, 770.17257467091, -4949.3833169089
1803, -1344.2825794064, 917.42062147334, -5268.9029031545
1804, -1198.6167363286, -1100.9424005792, -6810.5866324819
1805, -1277.3394326976, -1008.5436151579, -6609.4594235703
1806, 1209.0452290887, 1089.479639102, -4849.2695776068
1807, 1291.5367462843, 990.29747197357, -5080.4501852654
1808, 1018.0115825881, 1269.8065473592, -4764.7713541636
1809, -149.09414429215, -1620.6564059472, -6904.5618539697
1810, 745.34702554758, 1446.7944088596, -3082.0810819992
1811, -1151.6114235515, 1150.0205994441, -2201.6131080778
1812, -219.62765179866, -1612.6127695654, -7884.7740296307
1813, -1488.5162800257, -658.08474689688, -2042.9243185665
1814, 957.65237611777, -1315.9248369554, -3204.3185236826
1815, 1141.6337996428, -1159.9260827799, -3267.9219249442
1816, 586.2763679872, 1518.2345900222, -1681.0995165443
1817, -1132.5168679323, 1168.8292406715, -760.94586293445
1818, -984.86099646951, 1295.6871025186, -632.19675616388
1819, 676.43574824767, -1480.267181455, -7429.4142010426
1820, 1616.8750650567, 185.66441230892, -5110.5401780496
1821, -1508.2416529854, -611.52544198913, -2361.9160805349
1822, 197.28074277639, 1615.4988574832, -7392.8369312247
1823, 172.26974520561, 1618.35700168, -7981.6157495366
1824, 456.84669244475, 1562.0650913462, -2952.0834526946
1825, 359.84751447476, 1587.2195866755, -3121.3657457592
1826, -467.6391225044, 1558.8681474401, -4396.9991253245
1827, -605.75105915702, 1510.5700593915, -4314.4639852888
1828, -576.72210652844, 1521.8895695291, -4832.9424811879
1829, -13.59747678167, 1627.443196743, -4074.3839653438
1830, -337.35633888345, 1592.1516732445, -4034.6265683141
1831, -194.9742636318, 1615.7788482714, -4205.1445414644
1832, -190.15287582441, 1616.3533443575, -3882.5184946748
1833, -353.41532712376, 1588.6641736232, -4317.1041737343
1834, -481.50482207617, 1554.6412307402, -4163.34713743
1835, -316.60908687543, -1596.4068830057, -4837.058483528
1836, -451.94714726581, -1563.4896949063, -5010.1589922954
1837, 227.19277405102, -1611.5643621708, -1612.1940239773
1838, -380.19964366063, -1582.4678451584, -6975.9246062141
1839, -569.61113698811, -1524.565315957, -6885.0372950979
1840, -825.09888176764, 1402.8428583793, -4925.4790863027
1841, -760.31303297869, -1438.9858727183, -2456.3761743545
1842, -585.23136784698, -1518.6377106104, -2229.6435677235
1843, -974.28458307889, -1303.6586214093, -2577.0321010092
1844, -806.34651173525, -1413.7049030871, -4883.266642186
1845, -598.5524802406, -1513.4368762515, -4789.7232360694
1846, -730.21167402969, -1454.4920629246, -5105.9001120053
1847, -675.60995987614, -1480.6442625142, -4647.0884417401
1848, -1189.1079507121, -1111.2058907121, -765.3940122851
1849, 1572.9501785934, 417.83248516975, -6275.3290698735
1850, -83.147587143204, -1625.3746425831, -4403.1912708029
1851, 211.07836147217, -1613.7540628355, -4439.7516412639
1852, -384.86160726471, -1581.3405051581, -4641.3522193457
1853, 580.39582671944, 1520.4923328734, -5558.2952940431
1854, 826.64857774405, 1401.9302332548, -5509.1612173694
1855, 657.65441576365, 1488.7064584486, -5406.9653666776
1856, 698.32180244122, 1470.0690154667, -5670.0191555816
1857, -270.65101817874, -1604.8377725985, -6798.3453409897
1858, -1227.578477156, 1068.5538509702, -8131.9095070779
1859, 665.88402984355, -1485.0436723542, -3876.9531550508
1860, 846.2683459944, -1390.1748582707, -3777.0691530063
1861, 859.64433606901, -1381.9435102292, -3977.0998143241
1862, -1461.0406528682, -717.01914944206, -8228.8160876371
1863, 654.59175870326, -1490.0556632011, -3338.508306022
1864, 813.14222725473, -1409.807067742, -3282.7010181228
1865, 734.91530544998, -1452.1211188518, -3547.9227210954
1866, 565.94311133005, -1525.9307470321, -3624.7938078092
1867, 1506.1639651863, -616.62497514628, -4413.888096293
1868, 1505.8300385976, 617.43999292012, -3993.8080856549
1869, -590.99981557699, -1516.4021458663, -4512.1058779129
1870, -838.88433071899, -1394.6430832561, -4656.8927038406
1871, -790.86961638576, -1422.4209995208, -4380.0836804992
1872, 479.72081129032, 1555.1926546943, -4483.2977500905
1873, 349.58690584828, 1589.5110082222, -4398.816867289
1874, -1627.384774134, 19.366128076562, -8448.7761982779
1875, -471.99386332222, -1557.5551492599, -3807.0720977332
1876, -651.99096642501, -1491.1955035139, -4027.546067714
1877, 431.76620186611, 1569.1826525061, -2287.7180932906
1878, -1214.2056880108, -1083.7254251896, -1905.6566344061
1879, -1035.0483545377, -1255.9582611571, -1881.5417655989
1880, -1070.9430323472, -1225.4947047894, -2149.2273577557
1881, 1383.0671720324, -857.83532664862, -6018.1072050454
1882, -645.33458609284, 1494.0881908349, -5699.5254983291
1883, 1409.7071798787, 813.31538593489, -4978.9902449011
1884, 1207.1833719217, 1091.5422834484, -1616.4184412902
1885, -981.38412012922, -1298.3225557458, -6840.477225521
1886, -1068.1413402929, -1227.9374280301, -7041.8542091972
1887, 1226.5970128248, -1069.680334553, -7491.7074577808
1888, -1217.3747091283, 1080.1643706283, -4520.0431713645
1889, -1352.5516262008, 905.18525643188, -4573.172210627
1890, 656.90092575935, 1489.0390940927, -4585.8126473869
1891, 714.35844656645, 1462.3434137778, -4891.9709056176
1892, 840.74052293778, 1393.5248914498, -4677.9522687377
1893, 586.28200831462, 1518.2324119602, -5103.1922164628
1894, -1330.6534032243, 937.07938323681, -4299.8792517445
1895, -1003.5429785041, -1281.2719228544, -7842.8305003666
1896, -866.72945294119, -1377.5109093594, -6258.7367562378
1897, 823.93099690062, -1403.5291099034, -7626.2233197351
1898, 719.94201054736, 1459.6026005215, -1420.2324867427
1899, -1280.4719299375, 1004.5635304161, -1549.4329658761
1900, -1108.0604964453, 1192.0395069869, -1629.1296729209
1901, -1088.0148254186, -1210.3635774714, -4675.3545379767
1902, -669.61458468716, -1483.3652813701, -3136.3056067277
1903, -446.63081078896, -1565.0166672767, -2982.7451485332
1904, -1291.5086059376, -990.33417127212, -1769.7517779026
1905, -1271.5341978553, -1015.8528602532, -1476.7431265057
1906, -1072.0428310037, 1224.5327347579, -3627.8770399151
1907, 1305.6763915308, 971.57882366754, -3726.1983658776
1908, 1333.160729136, 933.50882175242, -3552.9840145144
1909, -950.78942447114, 1320.8920169014, -3330.8707116453
1910, -865.72765827961, 1378.1407300017, -7911.72740655
1911, -1594.4954960727, -326.09870132212, -3636.6685958737
1912, -457.89430358387, 1561.758322131, -851.1559230584
1913, 742.18675809237, -1448.4181254432, -1582.6334507687
1914, -1530.316580683, -553.9741987553, -1324.4294013982
1915, -1433.3298219299, -770.92274033551, -1404.3476398705
1916, -462.98193193452, -1560.2576648433, -565.90708269111
1917, 788.24169433416, 1423.8789559907, -3286.7155846912
1918, 648.89877842129, 1492.5436761996, -3307.4698078661
1919, 581.04490871856, 1520.2444093146, -3167.7121658626
1920, 1018.5659795557, 1269.3618850791, -7578.6278328862
1921, 9.3145594053895, 1627.4733450914, -3662.1834928938
1922, 967.52259030999, 1308.6849457527, -3234.504230034
1923, 772.75698461087, 1432.3417513761, -5203.5767045984
1924, 425.77774202734, 1570.8181194505, -3267.1594702197
1925, 558.70430219027, 1528.596007032, -3476.0785964355
1926, -1347.9476468121, 912.02707824588, -6235.2672835247
1927, -1583.5457309814, -375.68493167892, -5964.3168318116
1928, -649.83534241248, -1492.1361458499, -5325.3212762089
1929, -426.01296154151, -1570.7543431736, -5272.6455269264
1930, 703.16374063405, 1467.759177746, -5941.030081995
1931, -205.31933742896, -1614.4968936724, -5285.201779457
1932, -229.62630307691, -1611.2194173778, -5435.4864198218
1933, -627.83104917713, 1501.5273636165, -3210.6756911258
1934, -1599.00560338, -303.21169231945, -3792.0526250938
1935, 1588.5379163073, -353.98239850887, -6061.2246891717
1936, -1451.9481144863, 735.25704542001, -3060.7882292959
1937, -1345.590377241, 915.50138540387, -3161.8261300985
1938, -64.109016417279, -1626.236847453, -4144.9798438412
1939, 359.09776791902, 1587.3893797917, -5581.8368687888
1940, -763.35660722596, 1437.3736258205, -2124.4713037076
1941, -1571.3526278841, 423.80085988778, -5803.9763999197
1942, -1325.016720065, -945.03277273759, -6919.706757977
1943, -1531.2790323606, 551.30823960185, -2976.4905382593
1944, -1374.8038982451, 871.01692943949, -2213.1069563643
1945, -1038.1776147075, -1253.3728456929, -4385.575064072
1946, -441.23400752647, 1566.5467757466, -3726.2266266217
1947, -943.77045289985, 1325.9161294114, -2988.8703010434
1948, 11.9508240138, 1627.4561216221, -3363.9161240115
1949, -1090.8021896471, -1207.8521569551, -2966.6419245481
1950, 491.28358324197, -1551.5787736486, -5681.1810651645
1951, -147.50204319485, 1620.8020845413, -6467.7182044118
1952, -799.33667056837, -1417.6801956311, -6796.501418514
1953, -103.14982682379, -1624.2279283482, -2696.7959034919
1954, 623.55424191205, 1503.3084704722, -3879.342657024
1955, -1194.669459145, 1105.2244719451, -5333.758682278
1956, -1489.5250956066, 655.7981698344, -2041.9161475662
1957, 37.173556491072, -1627.0754059655, -3657.7711572287
1958, -1349.4094265571, 909.86287401946, -919.33011579706
1959, -1531.6317562732, -550.32755080527, -5552.2503019851
1960, -1540.6429174858, -524.5718738178, -6610.3706036799
1961, -1394.6439135063, -838.88295042858, -6702.8429065084
1962, -1421.9018896839, 791.80254237624, -4121.9440148183
1963, -1605.1833386297, 268.59393028451, -5777.77746025
1964, -1616.5083436013, -188.8306783002, -1191.7610467971
1965, -1611.4929495085, 227.69875644039, -859.94902857909
1966, -1495.4331704254, 642.21171181422, -782.13007670574
1967, 1385.2153480628, 854.36215359247, -4745.470721416
1968, 595.06246618211, 1514.8125003911, -3731.1682272962
1969, -307.77915668224, -1598.1327356362, -2879.7985679896
1970, -1338.9238525599, -925.22384699385, -1306.8425631401
1971, -930.44715051606, -1335.299348497, -2400.7425396918
1972, -1034.7034753792, -1256.2424001912, -4150.5595452383
1973, -1326.8722964073, -942.42567825104, -6043.9694802656
1974, -1307.1977815261, -969.53092264936, -5799.3415947542
1975, -1581.085182548, -385.90918041313, -7249.6425826615
1976, -1268.6555867573, -1019.4455611701, -4817.1693081661
1977, -1560.4148895714, -462.45175143349, -6924.0051096602
1978, -1624.6282183456, -96.640582340848, -7392.5985287565
1979, -1495.019318442, 643.17453889697, -2335.0796671654
1980, -1581.07566471, 385.94817328482, -2240.4689269965
1981, -1551.1556689104, 492.61784458851, -2357.7407282467
1982, -918.83291301653, -1343.3176571301, -1132.1710081134
1983, -1265.012041999, 1023.9632725824, -5593.7165748697
1984, -1411.5178314219, 810.16890928863, -7494.7558648402
1985, 489.95290803475, -1551.9994838621, -5447.1508243302
1986, -1319.4100379881, -952.84489905561, -6408.0554770037
1987, 762.34201953213, -1437.9119914848, -4066.9159473329
1988, -1399.8395464073, 830.18401232149, -699.52500118347
1989, -1621.0404343308, 144.85910487351, -4315.8842777978
1990, -1549.7583287017, 496.99635071055, -1712.1899650528
1991, -1618.8414144923, -167.6565677943, -3081.0668530251
1992, -474.25328161054, -1556.8686761836, -2028.9241479609
1993, -339.50203973516, -1591.6955157993, -2118.1114726442
1994, -1414.6428721797, -804.69981619935, -4913.7000793863
1995, -197.52809462983, 1615.4686322649, -3347.5490339813
1996, -673.90451950874, 1481.4212596644, -5080.5482299668
1997, -934.91353154455, 1332.1760163488, -5171.5598830342
1998, -1359.0855140343, -895.34508182163, -5676.0903518923
1999, -1195.6698205395, -1104.1421694016, -5674.3169713984
2000, -1555.5965394795, -478.40950697018, -2184.3716434104
2001, -1466.7160455031, 705.33700587989, -1041.9777586457
2002, -1024.7672730496, -1264.3608211608, -4956.392372217
2003, -1626.9871531103, 40.854052600433, -1135.5308852298
2004, -852.13140335365, -1386.5887355011, -4101.1054025119
2005, -1530.7569652414, -552.75615181115, -5948.3286251175
2006, -242.25290082447, -1609.3693740227, -527.05329831833
2007, -5.1570506163706, -1627.49182942, -493.04284259302
2008, -120.3799787103, -1623.0418696773, -605.09614091135
2009, -1605.3645416552, -267.50876321397, -4725.3294563786
2010, -1596.9961504595, -313.62325394884, -4539.3894295241
2011, -1552.0078058127, -489.92654622547, -4585.7329719298
2012, -1565.471387931, -445.03436223444, -4771.6729987843
2013, -1580.1963185628, -389.53285458419, -950.07085465431
2014, -1607.1806741414, -256.37186012955, -789.64073285633
2015, -1579.5805527318, -392.02235578033, -664.39064511923
2016, -1541.3778150073, -522.40853879254, -824.82076691721
2017, 1611.3571478506, 228.65780561927, -3102.8676053348
2018, 1624.2727889199, 102.44099362289, -3273.9456045429
2019, 1622.5545322843, 126.77949267855, -3035.2087654978
2020, 86.199532768884, -1625.2156443224, -7780.7129217884
2021, 241.66568323634, -1609.4576563383, -7805.5339255806
2022, 218.09358065985, -1612.8209572283, -7931.1210527782
2023, 62.413530526667, -1626.302801205, -7906.300048986
2024, 1614.4026250373, 206.05924942306, -7959.8897047974
2025, 1597.7487610546, 309.76627729391, -7843.3732386624
2026, 1579.6035366481, 391.92973478504, -7937.29363272
2027, 1601.5950986513, 289.22204268741, -8053.810098855
2028, 1614.4026250373, -206.05924942307, -1122.6102952026
2029, 1597.7487610546, -309.76627729391, -1239.1267613376
2030, 1578.8469864396, -394.96638263366, -1143.6838504925
2031, 1601.036001337, -292.30116733054, -1027.1673843575
2032, 1576.2960686854, -405.02710260804, -3401.0333210821
2033, 1551.2202483063, -492.41445068622, -3351.3021025701
2034, 1562.5198862662, -455.28876004414, -3234.0091377929
2035, 1585.5050036642, -367.32837265286, -3283.7403563049
2036, -1520.3318197158, -580.81615676546, -4797.930600618
2037, -1528.2411375922, -559.67425827078, -4930.5252338364
2038, -1571.4931571625, -423.27946677269, -4904.2676320028
2039, 1156.9938760438, -1144.6053559184, -8516.495990065
2040, 959.05298307288, -1314.9044169289, -8545.9059639897
2041, 1065.8980425293, -1229.885203152, -8394.9019540547
2042, 93.857393574694, -1624.7913834309, -627.75930714654
2043, 226.15587818102, -1611.7101999938, -549.71646455352
2044, 411.90218319179, 1574.513525341, -6797.0691794858
2045, 317.85342353275, 1596.1595945107, -6866.4670232229
2046, 379.01225034517, 1582.7526541088, -6960.7999261973
2047, 472.15882846118, 1557.5051494959, -6891.4020824602
2048, 610.09729387325, 1508.8199170241, -7511.1730956193
2049, 620.63350196094, 1504.5166354161, -7357.4025911777
2050, 500.05790804303, 1548.7731720958, -7366.5776376208
2051, 489.21516372491, 1552.2321906151, -7520.3481420624
2052, 1300.3519021007, 978.69360920724, -5751.2468385719
2053, 1275.1470829298, 1011.3140792531, -5877.2007291168
2054, 1350.9463646268, 907.57929124773, -5923.2209712077
2055, 1373.499544581, 873.07230573172, -5797.2670806628
2056, 667.42464744191, -1484.3519090792, -8075.8912111235
2057, 651.47224405856, -1491.4221954971, -7892.1608148401
2058, 788.31230845768, -1423.8398626019, -7876.869603295
2059, 803.53228294874, -1415.3063697515, -8060.5999995783
2060, 1520.8678358781, 579.41114572584, -8373.4024354971
2061, 1562.9818917672, 453.70018294895, -8342.4769698616
2062, 1556.5221766235, 475.38927594059, -8223.899034486
2063, 1512.6642060142, 600.50249778286, -8254.8245001215
2064, 461.16939128625, 1560.7943626694, -1422.6427134463
2065, 495.1922784783, 1550.3357240725, -1286.9651793593
2066, 366.58616590192, 1585.6767744308, -1242.6791085206
2067, 331.82115860853, 1593.3144600799, -1378.3566426076
2068, 1520.2570104995, -581.01193793854, -704.2534399682
2069, 1562.6949906259, -454.68738301465, -738.30275742895
2070, 1556.3773388044, -475.86324638102, -854.15648673097
2071, 1512.228075916, -601.59994715031, -820.10716927022
2072, 1624.4824301887, 99.061011545214, -6757.725165417
2073, 1625.0392073691, 89.46409622494, -6538.2298586094
2074, 1616.5807907034, 188.20945015836, -6691.5800240264
2075, -1598.2368684056, 307.23795740299, -6669.3450968601
2076, -1597.7188695566, 309.92041536943, -6837.1883751759
2077, -1563.8532269413, 450.68762417583, -6829.2900962521
2078, -1564.6075733075, 448.06181666022, -6661.4468179362
2079, 1620.6594282203, 149.06128847098, -6019.3574763567
2080, 1625.1365717412, 87.677666421931, -5771.2657505934
2081, 1610.2756136473, 236.15397115584, -5914.409991656
2082, 1473.4899496945, 691.07424937496, -4232.4008440298
2083, 1402.5207409413, 825.64630516309, -4330.1272885835
2084, 1434.9100538366, 767.9774654237, -4455.0933690589
2085, 1500.3527439218, 630.63293111481, -4357.3669245052
2086, 1595.2801922335, -322.23804596498, -5483.2342845468
2087, 1614.2070159789, -207.58602930964, -5517.7206248444
2088, 1608.5045409858, -247.93021523797, -5641.4785729084
2089, 1586.713508158, -362.07249692412, -5606.9922326108
2090, 1318.1147525199, 954.63592494176, -7686.3317178708
2091, 1250.4691830911, 1041.6732079397, -7788.2607597963
2092, 1293.6865337646, 987.48741883438, -7883.3344655652
2093, 1357.5649776923, 897.64891875569, -7781.4054236397
2094, 601.55738612283, -1512.2450070015, -2110.4992398975
2095, 510.78734317984, -1545.2677891056, -1919.2507875166
2096, 639.32337743603, -1496.6702606332, -1828.9025798027
2097, 726.98410780614, -1456.1079482639, -2020.1510321836
2098, 244.40443362006, 1609.044040052, -546.62907833124
2099, 6.4271189216246, 1627.4873093645, -500.08486359804
2100, 123.81633389731, 1622.7833390383, -631.71394192928
2101, -1372.1678070127, 875.16384717253, -5989.8901029654
2102, -1361.8861282536, 891.07935879496, -5819.4642038705
2103, -1439.005070275, 760.27669813228, -5795.0821176765
2104, -1447.7587138049, 743.47222987943, -5965.5080167714
2105, 47.29123111935, 1626.8127702533, -1099.7133097555
2106, -28.666236624447, 1627.2475216997, -1276.2133983206
2107, 133.86935901442, 1621.9849705583, -1347.4633497668
2108, 209.40425594569, 1613.9721520497, -1170.9632612016
2109, 1221.9457704354, -1074.9905972217, -6753.4997637837
2110, 1146.917829729, -1154.7015812969, -6888.8891264505
2111, 1071.3642811606, -1225.126453495, -6807.4891731616
2112, 1151.2972824476, -1150.3350891931, -6672.0998104947
2113, 111.99371522879, 1623.6420965685, -1519.2035299863
2114, 310.31399349486, 1597.642474223, -1550.096822827
2115, 1625.1676598675, -87.099525375837, -3771.4826982202
2116, 1624.1862176269, -103.80453010742, -3983.1284443269
2117, 1616.3032806056, -190.57795020314, -3820.1626131353
2118, -384.90361469086, 1581.3302809337, -1968.1000009962
2119, -510.69222291178, 1545.2992278059, -1833.5154897156
2120, -613.09655084454, 1507.6036844418, -1952.7769693259
2121, -490.00516832687, 1551.9829847692, -2087.3614806065
2122, 1528.3354543419, -559.4166506295, -934.51637496555
2123, 1485.859042175, -664.06261511016, -963.64578378145
2124, 1466.8649563876, -705.02726877912, -849.23657808612
2125, 1530.4049665244, 553.72997791124, -8136.8839509533
2126, 1485.2958589404, 665.32132192993, -8089.2377468099
2127, 1464.1468589606, 710.6547863737, -8207.1782959781
2128, 116.13991034739, -1623.3507850198, -2123.871838676
2129, 2.9314864254937, -1627.4973598711, -2004.5649795511
2130, 104.6269422907, -1624.1334467792, -1906.5222731231
2131, 217.35499885032, -1612.9206596962, -2025.829132248
2132, 1139.4751990904, -1162.0466946977, -1943.5445862018
2133, 1078.5215849061, -1218.8303577166, -1801.1011720757
2134, 1166.3038462515, -1135.1174336689, -1716.2905074685
2135, 1222.8589493992, -1073.9516934548, -1858.7339215946
2136, -977.26347212925, 1301.4270459929, -7137.8554864437
2137, -833.98684070521, 1397.577260666, -7136.1994421502
2138, -826.27138312012, 1402.152577802, -7004.1414696099
2139, -970.07577326757, 1306.7934971216, -7005.7975139035
2140, -1540.3194546099, 525.52091085917, -6549.2266392416
2141, -1493.8676117288, 645.84503453048, -6399.9996171972
2142, -1535.6527573628, 539.00543485563, -6305.8830826962
2143, -1573.5129975011, 415.70794639382, -6455.1101047405
2144, -1181.5219064455, 1119.2686159227, -2696.2742452671
2145, -1272.4741226692, 1014.6752471295, -2792.440659042
2146, -1219.6925193053, 1077.5464761905, -2943.4323165564
2147, -1123.5820887103, 1177.4207149228, -2847.2659027815
2148, 565.21794195565, -1526.1995046819, -4100.852753424
2149, 531.89309069288, -1538.1306804278, -4252.7560023167
2150, 400.4763957626, -1577.4583691613, -4211.4727552729
2151, 434.68761075494, -1568.3758895928, -4059.5695063803
2152, 986.99772573455, -1294.0601761104, -1894.5937797104
2153, 1040.6660325759, -1251.307499635, -2020.502834246
2154, 958.91131900368, -1315.0077308847, -2090.4077050607
2155, 902.63066381772, -1354.2577800168, -1964.4986505252
2156, 1572.2919814805, 420.30248033067, -4708.8342176313
2157, 1600.4603731008, 295.43670072291, -4765.9276117417
2158, 1611.8441593266, 225.1991475219, -4644.9623357955
2159, 1589.1604998692, 351.17681537279, -4587.8689416851
2160, 496.66068180226, -1549.8659352188, -1587.423127687
2161, 551.85645769223, -1531.0815458699, -1693.2638842839
2162, 459.40218913709, -1561.3154321328, -1763.8359624147
2163, 403.1827970017, -1576.7688106384, -1657.9952058178
2164, 1500.5985831721, 630.04773008236, -6259.0600612425
2165, 1533.3943503603, 545.39711796358, -6087.3113882923
2166, 1488.303960054, 658.56478230121, -6023.9090238336
2167, 1449.2683310944, 740.52518828652, -6195.6576967838
2168, 962.43031688892, 1312.4344307938, -4216.3004505227
2169, 819.78670823184, 1405.9537698681, -4284.0469209433
2170, 865.28556336338, 1378.4183486282, -4426.1980244236
2171, 1004.7974696317, 1280.2883640109, -4358.451554003
2172, -969.68776195743, -1307.0814413456, -679.76233429605
2173, -852.19786554877, -1386.5478888066, -768.61803609409
2174, -908.14656203291, -1350.5650935323, -897.79685796203
2175, -1022.2909650995, -1266.3638626697, -808.941156164
2176, 1624.6247122972, -96.699504616762, -1084.4428738579
2177, 1623.7936882175, -109.77389537145, -1302.6894801683
2178, 1604.835716207, -270.66321136463, -4921.3944854904
2179, 1578.2404895846, -397.38294759037, -4807.8126404109
2180, 1595.2313496874, -322.47975281337, -4697.4131951586
2181, 1615.818380161, -194.64637765454, -4810.9950402381
2182, 1147.1855060809, 1154.4356476816, -6990.9850058034
2183, 1060.6506951507, 1234.4133638601, -7119.6122207817
2184, 1143.2621458022, 1158.3211627074, -7245.7164581014
2185, 1224.0748570355, 1072.5656130855, -7117.0892431231
2186, 1625.2763789304, -85.046705349114, -7635.7805926322
2187, 1625.7113469957, -76.281493492399, -7860.5495655774
2188, 1619.5040009405, -161.13050902205, -7678.3522170331
2189, 1624.6247122972, 96.69950461676, -7998.0571261421
2190, 1623.7936882175, 109.77389537145, -7779.8105198317
2191, 1625.2763789304, 85.046705349109, -1446.7194073678
2192, 1625.7113469957, 76.281493492396, -1221.9504344226
2193, 1619.5040009405, 161.13050902204, -1404.1477829669
2194, -351.53945066145, -1589.080320383, -8323.047061369
2195, -237.59364487385, -1610.0638216902, -8183.5634061532
2196, -81.732589204455, -1625.4464106398, -8295.2318500393
2197, -197.16774173814, -1615.5126528808, -8434.715505255
2198, 1623.0174832206, 120.70832266305, -8446.2164776137
2199, 1608.5435961316, 247.67670327262, -8567.5767717314
2200, 1608.3754911453, -248.76601352085, -8566.7753392539
2201, 1622.935362743, -121.80746429653, -8445.4150451362
2202, 1623.0174832206, -120.70832266305, -636.28352238627
2203, 1608.5435961316, -247.67670327262, -514.92322826862
2204, 1608.3754911453, 248.76601352085, -515.72466074614
2205, 1622.935362743, 121.80746429653, -637.08495486378
2206, -479.98638781269, 1555.1107090862, -526.62585474748
2207, -675.92994822144, 1480.4982117846, -518.40611623194
2208, -535.02206282334, 1537.0451009298, -630.03197097942
2209, -760.09714965785, -1439.0999176854, -663.44774226474
2210, -919.13212868082, -1343.1129438832, -538.53518309094
2211, -686.7018400408, -1475.5327285034, -539.9125591738
2212, 1578.9318277114, 394.62708148319, -8144.7359982698
2213, 1556.882332477, 474.20844870269, -8057.7209147371
2214, 1220.8138172059, -1076.2759282448, -2340.2701017327
2215, 1258.7371127091, -1031.6671610014, -2215.071405943
2216, 1332.3122675096, -934.71935458907, -2279.8619061976
2217, 1297.8285422752, -982.03733373828, -2405.0606019873
2218, 1577.9771764447, -398.42725888114, -934.92147295042
2219, 1554.0954518183, -483.26346503501, -1015.281361185
2220, 1602.0957428672, 286.43582298101, -8254.8095664001
2221, 1617.5449764791, 179.73452386035, -8163.8836669853
2222, 1625.3663787773, 83.30897154878, -8226.525070255
2223, 1601.9567312771, -287.21225794859, -826.37042160761
2224, 1617.5449764791, -179.73452386035, -918.61633301468
2225, 1625.3663787773, -83.308971548781, -855.97492974504
2226, 1584.2544866474, 372.68481527627, -8456.9898336832
2227, 1614.7108836719, 203.62959547031, -8369.3224302216
2228, 1582.0926637201, -381.75784655082, -8317.5376489894
2229, 1611.5892580465, -227.01610812723, -8267.7776132805
2230, 1616.6561538846, -187.56100369457, -8373.8431552074
2231, 1590.9502634085, -342.97741814953, -8423.6031909162
2232, 1584.1996799684, -372.91771745001, -625.1099055997
2233, 1614.7108836719, -203.62959547031, -713.17756977836
2234, 1578.005631461, 398.31454540011, -757.00433533109
2235, 1611.1814553819, 229.89251365244, -813.3866522913
2236, 1616.6561538846, 187.56100369457, -708.65684479263
2237, 1587.9085251824, 356.79513120684, -652.27452783242
2238, 1603.9116558571, 276.08630934136, -966.72050712989
2239, 1620.3252778654, 152.65072522042, -886.27071859778
2240, 1588.8890561864, 352.40291873225, -893.83644082341
2241, 1604.0863079332, -275.06974879319, -8117.3617022656
2242, 1620.3252778654, -152.65072522042, -8196.2292814022
2243, 1589.7368055378, -348.55865950873, -8188.9100341439
2244, 1513.5343658903, 598.30591946674, -8486.6031363547
2245, 1461.7304471328, 715.61187100619, -8597.190074403
2246, 1547.9819659727, 502.50182390042, -8556.9130619518
2247, 1522.5086845284, -575.08569408023, -8574.0217212327
2248, 1501.2348128289, -628.5302592164, -8436.943239947
2249, 1539.7665755705, -527.13863713067, -8387.2493703767
2250, 1557.4333121121, -472.39573275347, -8524.3278516623
2251, 1512.9248614912, -599.84549134063, -594.15304289172
2252, 1461.1070286942, -716.88388229927, -483.96636556064
2253, 1547.9080748817, -502.72939213473, -525.18667733108
2254, 1553.2677628558, 485.91718108431, -551.54986708628
2255, 1452.276701713, 734.60780805924, -530.62104487794
2256, 1512.1289037742, 601.8491741048, -667.17091196422
2257, 1626.159614007, 66.039077618069, -850.65277228179
2258, 1626.159614007, -66.039077618069, -8231.8472277182
2259, 1072.6944555833, 1223.9619499645, -8395.8902555951
2260, 1016.8122864289, 1270.7671006787, -8256.4995268009
2261, 946.37409014828, 1324.0590362578, -8331.5635236321
2262, 1004.7132021386, 1280.3544944461, -8470.9542524264
2263, 1625.1849102984, 86.777055367647, -1057.4194169042
2264, 1625.1849102984, -86.777055367648, -8025.0805830958
2265, 982.93716420144, -1297.1471702284, -734.46347946498
2266, 1073.6842598039, -1223.093765927, -885.77792977538
2267, 972.5920483929, -1304.921820418, -951.39162436804
2268, 876.22156491071, -1371.4926245465, -800.07717405763
2269, 1348.2869893311, 911.5253394176, -6875.5066593816
2270, 1424.7310933213, 786.70042692468, -6958.4651772586
2271, 1453.6214724635, 731.94321145356, -6844.0928583743
2272, 1381.9802506869, 859.58527018059, -6761.1343404974
2273, 1609.1025099323, 244.01918475723, -3720.7265867298
2274, 1625.119732487, 87.989232757893, -3817.4119953563
2275, 1619.9418134134, 156.66770935584, -3595.04253255
2276, 1179.224086731, 1121.6892632424, -4578.6938460311
2277, 1301.4115823099, 977.28406486019, -4539.3383245771
2278, 1294.2424694223, 986.75867381223, -4397.5689304614
2279, 1171.0040334273, 1130.2680229472, -4436.9244519154
2280, 1579.5733466799, 392.05139007338, -4907.641145909
2281, 1602.6184563719, 283.49661954969, -4960.3571693748
2282, 1616.8729142965, 185.68314143818, -4818.6436352076
2283, -921.50084214784, -1341.4888922093, -8221.4531225228
2284, -1013.9232349303, -1273.0734164488, -8105.9747602469
2285, -925.03111861159, -1339.057011333, -8001.8496330014
2286, -828.17150232313, -1401.0311248291, -8117.3279952772
2287, 1024.1948805984, 1264.8245319237, -2097.611117057
2288, 1094.2153822736, 1204.7609502286, -2180.187443655
2289, 1153.9732438706, 1147.6506447655, -2085.8150622618
2290, 1087.0926521832, 1211.1918987383, -2003.2387356638
2291, 99.095006905466, -1624.480356793, -6754.410956899
2292, 242.13333234362, -1609.3873677173, -6653.4659430498
2293, 309.74831407912, -1597.7522435988, -6754.5491745067
2294, 167.47320436987, -1618.8603941718, -6855.4941883559
2295, 1617.6387082627, -178.88895865957, -6956.7791193178
2296, 1625.4450280687, -81.760080276883, -6793.6272799223
2297, 1624.5829623211, -97.398401095562, -7010.2474276308
2298, -762.44530457448, -1437.8572277985, -8557.1483479399
2299, -676.08360963058, -1480.4280471502, -8447.4905044886
2300, -532.81142856898, -1537.8128077195, -8557.8421565487
2301, 1620.9563721118, -145.79674108202, -3082.4747453792
2302, 1625.5027088808, -80.605169939929, -3335.2600715404
2303, 1611.7462382512, -225.89890102249, -3211.4480522137
2304, 1616.4488481943, 189.33930170773, -2125.9168462168
2305, 1625.4450280701, 81.760080247737, -2288.8727200849
2306, 1623.9195944263, 107.89532352342, -2072.4485378966
2307, 793.80700779953, 1420.7838274588, -7026.0436225012
2308, 877.65014143437, 1370.57888472, -6883.8853102111
2309, 764.29719044815, 1436.8737086721, -6778.4957296935
2310, 676.67944973688, 1480.1557932541, -6920.6540419837
2311, 577.36163804127, 1521.6470645055, -7024.6173578989
2312, 437.20185234859, 1567.6768768796, -7096.5012426531
2313, 483.36219324374, 1554.0647477318, -7245.3033466102
2314, 622.09973825927, 1503.9109566918, -7173.419461856
2315, -1400.238246673, 829.51136372821, -2688.9184252915
2316, -1445.6257818043, 747.611094743, -2546.073254932
2317, -1503.775597323, 622.42686549975, -2655.5163770043
2318, -1465.4911373114, 707.87850402568, -2798.3615473639
2319, -1585.4508750756, 367.5619304578, -8437.0576910042
2320, -1607.5357869009, 254.13567996848, -8557.3340423965
2321, -1551.5839344561, 491.26728400913, -8547.2236486077
2322, 1624.2819693266, -102.29532795118, -4232.0573933001
2323, 1623.4478711206, -114.774821951, -4504.3747426534
2324, 1613.0237647624, -216.58851380376, -4316.5424300712
2325, -429.87076875663, 1569.7029566668, -7289.9868814734
2326, -582.99987944212, 1519.4957685267, -7222.4766628128
2327, -646.32806279708, 1493.6586910138, -7363.8726434868
2328, -495.44367506468, 1550.2554030992, -7431.3828621474
2329, 143.47021558654, -1621.1639482913, -5387.7179728946
2330, 43.12357487241, -1626.9285808818, -5240.260652501
2331, 177.11248541819, -1617.8341749107, -5160.7430781346
2332, 276.64221137584, -1603.8158675126, -5308.2003985282
2333, -583.87029798384, 1519.1615204225, -6593.3155690936
2334, -735.72121429734, 1451.7129691619, -6549.3461265714
2335, -764.92679771356, 1436.5386330133, -6701.7399710102
2336, -614.47085219807, 1507.0440676367, -6745.7094135325
2337, 526.44991072783, 1540.0021887954, -2668.391105727
2338, 577.94495788833, 1521.425606348, -2554.9504621939
2339, 478.83773636395, 1555.4647769184, -2494.7310987136
2340, 426.25396012447, 1570.6889607679, -2608.1717422468
2341, 1000.9882194152, 1283.2688083921, -958.11556929536
2342, 1135.1635133988, 1166.2589968991, -1029.8879464394
2343, 1191.9026668561, 1108.2076893531, -883.75562000745
2344, 1063.7285206177, 1231.7621054508, -811.98324286344
2345, -1623.3859512613, 115.64732269918, -2016.0572047347
2346, -1599.3454601216, 301.41391671322, -1980.5778594481
2347, -1603.4951295516, 278.49527734621, -1777.5479737047
2348, -1624.8747064885, 92.403669916375, -1813.0273189914
2349, 805.56365498476, -1414.1511403551, -2562.1159164851
2350, 708.07419294805, -1465.3965972668, -2351.5736634697
2351, 841.59383227107, -1393.0097169379, -2260.5992921762
2352, 933.88173651205, -1332.899528175, -2471.1415451917
2353, 1332.2843521281, 934.75914281409, -2865.0030506307
2354, 1207.5205780004, 1091.1692369681, -2871.5997067502
2355, 1217.9498831894, 1079.5157859146, -3039.5439986883
2356, 1341.2049514922, 921.91405678224, -3032.9473425687
2357, -1268.2567248582, 1019.9417286551, -7887.1090569965
2358, -1144.9390860631, 1156.6636240519, -7758.0015237536
2359, -1215.2898180566, 1082.5095418184, -7588.8827285175
2360, -1329.7816101889, 938.31610835761, -7717.9902617604
2361, 1353.6241291175, 903.58063672858, -3179.6707819641
2362, 1241.874679089, 1051.9047159499, -3214.3973261952
2363, 1274.2561363202, 1012.4364419806, -3352.0346202222
2364, 1381.2984998053, 860.68037298154, -3317.3080759912
2365, 1114.9664465322, 1185.5825880585, -3072.6769036895
2366, 1141.2980502448, 1160.2564417004, -3247.5302311963
2367, 118.04725798861, 1623.213200686, -2867.7372900504
2368, 231.10381641699, 1611.0081551741, -2782.3029649587
2369, 141.61192038029, 1621.3273309256, -2653.4230290264
2370, 28.053242715662, 1627.2582049488, -2738.8573541181
2371, 743.71737699879, -1447.6327963783, -8556.5293832884
2372, 857.56333958692, -1383.2358326029, -8434.9353472781
2373, 837.81007496264, -1395.288689946, -8205.9879193962
2374, 945.20618881287, -1324.8930185603, -8329.4876028687
2375, 745.84030814855, -1446.5401773684, -8311.4356638055
2376, -1626.3455279675, -61.290077989566, -2044.9500883694
2377, -1625.8633218147, -72.970602145901, -1870.0459163598
2378, -1609.3917979587, -242.10388403181, -1898.4312552324
2379, -1611.0893202164, -230.53731213149, -2073.3354272419
2380, 761.69725506191, 1438.2536430099, -592.94287215597
2381, 891.56614099527, 1361.5675033691, -527.2255646005
2382, 718.25794590174, 1460.432050165, -480.71730755547
2383, 943.13178375069, 1326.3704944243, -626.09225617572
2384, 1103.6644699045, 1196.1107757521, -513.86669157522
2385, 909.66664395365, 1349.5417173537, -7074.4343835946
2386, 751.76636555928, 1443.4692866888, -7163.7391290347
2387, 869.66698197148, 1375.6582389782, -7212.1298901281
2388, 750.35898332065, 1444.2013869783, -7347.7222583563
2389, -973.94427337337, -1303.9128814316, -8554.4303843312
2390, -890.99164963858, -1361.9435121452, -8444.0787322712
2391, 1126.7377615271, 1174.4012375457, -5333.4537450676
2392, 1142.1675810916, 1159.400477274, -5503.3131671425
2393, 1242.1812009163, 1051.5427305108, -5466.5724192244
2394, 1228.1687687183, 1067.8753323984, -5296.7129971495
2395, -1279.2873929387, 1006.0715761157, -4914.4196724261
2396, -1223.9195735195, 1072.7428058746, -5065.1804904549
2397, -1105.5830813743, 1194.3375989137, -4980.0862235941
2398, -1167.5912736626, 1133.79313266, -4829.3254055653
2399, -600.44266193115, 1512.6879584809, -1673.3473852847
2400, -663.22304417618, 1486.2339801235, -1480.8759762203
2401, -799.0061435293, 1417.866507328, -1541.4057455276
2402, -738.96799949545, 1450.0629454343, -1733.877154592
2403, -1337.2046928853, -927.70677443119, -2666.5215412289
2404, -1256.3943086188, -1034.5190144556, -2603.1644826045
2405, -1216.0050833819, -1081.706007744, -2733.990596992
2406, -1300.8322643659, -978.05504445545, -2797.3476556163
2407, 501.07443625057, -1548.4445935635, -540.69518018625
2408, 728.18918801023, -1455.5056703651, -538.35884670487
2409, 609.94341548267, -1508.8821292299, -664.05402689112
2410, -1581.1952202971, -385.45807205151, -3967.6859174075
2411, -1533.2285545921, -545.86303170601, -3948.3580492144
2412, -1519.5722308587, -582.80055353707, -4106.2171664974
2413, -1571.4059421713, -423.60313373332, -4125.5450346904
2414, 624.97690567104, -1502.7175773837, -2251.0524620481
2415, 455.7951103451, -1562.3722563415, -2273.1680492982
2416, 431.46929471629, -1569.2643173529, -2132.6148271476
2417, -540.41010104985, 1535.1590056679, -1409.0566916412
2418, -451.80591216907, 1563.5305138465, -1565.66854995
2419, -316.04245347329, 1596.5191566663, -1480.8989890061
2420, -406.75348609649, 1575.8514687458, -1324.2871306973
2421, 137.05850793692, -1621.7185993267, -7101.1994469273
2422, 31.897632181611, -1627.187386585, -6968.9782208668
2423, 271.81180077708, -1604.6415783465, -6987.7154144164
2424, 639.5967446584, 1496.5534585247, -6681.8648407913
2425, 518.5091759166, 1542.693904989, -6604.2602664537
2426, 451.10184613967, 1563.7337926928, -6709.8341922073
2427, 574.07692702587, 1522.8893367072, -6787.438766545
2428, -554.12417613405, 1530.2622805989, -8537.280764103
2429, -695.05211724437, 1471.6177507472, -8414.9458278578
2430, -760.9465032801, 1438.6509893458, -8545.1650637548
2431, -1626.4161587388, 59.386266033806, -1662.9848655123
2432, -1624.0461096063, -105.97397733654, -1720.0034628807
2433, -20.956365302267, 1627.3650729794, -2413.2517735438
2434, 159.81045046317, 1619.6347952309, -2459.6085234286
2435, 189.52174755122, 1616.4274673505, -2330.6063443318
2436, 8.927341450793, 1627.4755151997, -2284.249594447
2437, 1605.2892275532, 267.9603438973, -3872.1646004222
2438, 1579.8342511959, 390.99870683695, -3720.0775339604
2439, 1573.834896617, 414.48759714936, -3871.5155476528
2440, 992.29427560222, -1290.0032250375, -3644.9511503408
2441, 911.13894176284, -1348.5481373697, -3551.8565252768
2442, 988.73093244625, -1292.7363974237, -3457.8184498186
2443, 1066.3095788538, -1229.5284185592, -3550.9130748826
2444, 783.00521464664, -1426.7652518323, -7112.5546340067
2445, 705.18464717335, -1466.7893043621, -6988.4701706576
2446, 812.65134698354, -1410.0900816068, -6869.5134810872
2447, 887.26897817332, -1364.3716540486, -6993.5979444363
2448, -363.88012958397, -1586.2999405201, -7231.1127296195
2449, -294.81575925385, -1600.5748711309, -7434.9502609185
2450, -463.95835586205, -1559.9675939024, -7475.330523129
2451, -531.10470842911, -1538.4030806926, -7271.49299183
2452, -25.925006910809, -1627.2935027267, -7462.0618618678
2453, -186.03333557744, -1616.8326592613, -7583.3300016282
2454, -135.77963675271, -1621.8261744846, -7313.6821211581
2455, -1506.0563859434, 616.88768212637, -7309.3548658325
2456, -1487.931217045, 659.40650841727, -7162.3119144042
2457, -1538.4836093964, 530.87139084597, -7134.5270843106
2458, -1552.938369583, 486.96885965817, -7281.5700357389
2459, 1555.8922937374, 477.44677220465, -7843.0466923054
2460, 1528.7200891041, 558.36470086264, -7963.4739743225
2461, 1545.2260805526, -510.91350538046, -1228.5602402658
2462, 1513.9975246426, -597.13293777522, -1100.1577509584
2463, 513.43732031201, 1544.3893188283, -8542.9841877149
2464, 742.15011238788, 1448.4369025548, -8554.360258017
2465, 636.41823923464, 1497.9078992947, -8429.8444457318
2466, -1627.4843384823, -7.139887591456, -530.7066204847
2467, -1624.1087236492, 105.01001745756, -639.96888499025
2468, -1609.8293624739, 239.17707606886, -524.26226450555
2469, 463.80644216049, -1560.0127673229, -4735.5920619031
2470, 434.97477944619, -1568.2962702391, -4888.7944536585
2471, 311.48311322839, -1597.414949277, -4851.805079822
2472, 340.87244492574, -1591.4025971734, -4698.6026880666
2473, 1300.5594724511, -978.41775771795, -1769.0703074364
2474, 1247.6720705722, -1045.0218439411, -1633.5119055611
2475, 1322.023193224, -949.21595360473, -1546.965940795
2476, 1369.8042665914, -878.8586468983, -1682.5243426702
2477, 1594.6373727283, -325.40420940447, -4459.1333561903
2478, 1572.7835037059, -418.45943706727, -4364.3076962798
2479, 1597.5264331398, -310.91083194323, -4221.7167701607
2480, -1608.3763673212, 248.76034861403, -4650.9234411102
2481, -1579.1505985777, 393.7507295378, -4584.006761063
2482, -1592.6674858792, 334.91271911244, -4457.2236392739
2483, -1616.4957832023, 188.93817213336, -4524.1403193212
2484, 664.15891958468, -1485.8159978733, -6027.060267877
2485, 792.23671612758, -1421.6600281429, -5922.5755398143
2486, 861.79968768405, -1380.6004303591, -6041.0818881907
2487, 737.06288172067, -1451.0322389215, -6145.5666162534
2488, 1078.6658631273, 1218.7026732242, -1155.9888583228
2489, 1209.4188431532, 1089.0648795302, -1234.2791392181
2490, 1259.6312587782, 1030.5752480576, -1108.1782273346
2491, 130.98162054155, 1622.2207202105, -1857.2388414421
2492, 16.352716317141, 1627.4178439077, -1842.5027256188
2493, -2.3156358762775, 1627.4983526353, -1968.3242046268
2494, 112.36534066141, 1623.6164202847, -1983.0603204501
2495, 1515.4913682407, -593.33141058585, -5454.304036801
2496, 1445.5795856017, -747.70041573598, -5457.1989612014
2497, 1462.8831392558, -713.25252953006, -5283.7116308565
2498, 1529.1191242872, -557.27098770623, -5280.8167064562
2499, 1105.207962021, -1194.6847327582, -8217.0674856106
2500, 1135.6063625883, -1165.8277914207, -8025.5128762006
2501, 1262.4930232808, -1027.0674837455, -8093.4685556854
2502, 1235.6258289723, -1059.2379622996, -8285.0231650954
2503, 257.67314796397, 1606.9725569587, -7035.2876161238
2504, 209.81085085369, 1613.9193464557, -6877.2602119255
2505, 48.746708871037, 1626.7698080473, -6924.8087963247
2506, 97.061952205113, 1624.6030984318, -7082.8362005231
2507, 1496.8612985227, 638.87596838889, -2400.0316017431
2508, 1453.1505122549, 732.87777885086, -2435.3347159351
2509, 1469.1453857565, 700.26286886452, -2543.1794034418
2510, 1510.7472906194, 605.30890781991, -2507.8762892498
2511, 908.50898210224, -1350.3213245149, -543.51277038193
2512, 1123.0112110407, -1177.965224392, -488.84085870977
2513, 980.9258299858, -1298.6688438808, -617.3536290917
2514, -1582.3906790606, -380.52068120149, -3334.1533342844
2515, -1549.9326099209, -496.45257044741, -3235.8222851281
2516, -1514.9194271691, -594.79019762075, -3351.4848407335
2517, -1554.7425730705, -481.17749477938, -3449.8158898897
2518, 572.0154093781, -1523.6648651964, -6488.9355775169
2519, 441.5530402809, -1566.4568818256, -6624.813491654
2520, 322.46095898719, -1595.2351487881, -6506.8881221879
2521, 455.77279130971, -1562.3787673614, -6371.0102080508
2522, -1039.3122481691, -1252.4321541727, -5954.1599904136
2523, -1076.7707650932, -1220.3773881224, -6126.8209390496
2524, -1200.9877011478, -1098.3554942239, -6083.6699351194
2525, -1167.168156454, -1134.2287002892, -5911.0089864834
2526, 1162.5103727329, -1139.0021436716, -5308.7574548149
2527, 1250.7373677311, -1041.3511833004, -5403.8056770766
2528, 1190.3633448286, -1109.8609630438, -5514.9927356161
2529, 1096.798366966, -1202.4099102306, -5419.9445133544
2530, -462.40527559525, 1560.4286626122, -8105.3858005154
2531, -430.78596394851, 1569.4520391732, -7962.5877828903
2532, -549.17014738725, 1532.0471269575, -7943.571227019
2533, -580.00961550913, 1520.6396995728, -8086.3692446441
2534, -1498.3092486517, -635.4727731421, -6396.360921149
2535, -1531.8863202971, -549.61855107579, -6257.8771351403
2536, -1490.3766485281, -653.8606086332, -6181.0370082118
2537, -1450.9639463151, -737.19731177871, -6319.5207942205
2538, 945.04442856863, 1325.0084067776, -8562.1554444115
2539, 1112.5247085007, 1187.8741612542, -8576.2988080149
2540, 1274.2220924688, -1012.4792882151, -3721.7790233822
2541, 1193.2305258542, -1106.7778287306, -3639.4479270309
2542, 1236.2142559023, -1058.5511624404, -3536.854610517
2543, 1313.39966971, -961.11266644748, -3619.1857068682
2544, 71.02028274578, -1625.9496823207, -766.722777583
2545, -143.17136371368, -1621.190368406, -744.05961134781
2546, -373.12862326852, 1584.1500183056, -8265.2290115679
2547, -416.77297624138, 1573.2312405603, -8391.7713236776
2548, -282.39182387182, 1602.8134975132, -8433.0606675025
2549, -237.98114219475, 1610.0065918994, -8306.5183553928
2550, -80.77953775486, 1625.4940529821, -8299.3496852788
2551, -65.496845646615, 1626.181543743, -8118.4286071861
2552, -222.83708241289, 1612.172411593, -8125.5972773
2553, -340.21673146004, 1591.5429072553, -6990.0602013839
2554, -158.69486115834, 1619.7444832571, -7059.143660619
2555, -114.0025418538, 1623.5022853236, -6905.5228302754
2556, -296.23258073936, 1600.3132531191, -6836.4393710404
2557, -44.127412603446, 1626.9016631182, -7167.2857153031
2558, -254.37497972468, 1607.4979376939, -7171.3874619946
2559, -140.43277412867, 1621.4298893108, -7279.5295166787
2560, 1501.2650072222, -628.45813551122, -8222.5167513027
2561, 1549.5766044245, -497.56265637632, -8278.9375042444
2562, 1488.9577942601, -657.08518238659, -8330.828617435
2563, 1559.6518367304, -465.01870734787, -8150.309889399
2564, 1423.3075232104, -789.27304804649, -5783.5499667249
2565, 1431.4365479322, -774.43247558712, -5625.2295478077
2566, 1502.8850155519, -624.57415895112, -5621.3151598479
2567, 1496.3101834108, -640.16566998005, -5779.635578765
2568, 1298.2520187635, 981.47743009027, -7232.7820250401
2569, 1223.2007569545, 1073.5623680932, -7377.5476993872
2570, 1294.6498796765, 986.22408156242, -7490.1091100848
2571, 1363.1400102435, 889.16003198158, -7345.3434357377
2572, 1486.4000377672, 662.85079597564, -892.68220204939
2573, 1542.5471490943, 518.94560680387, -803.99907932157
2574, 1448.2590522063, 742.49711629247, -755.85403469204
2575, 1556.9424055357, 474.01117691956, -940.83118481389
2576, -1627.4803760124, -7.9922271272869, -7042.3451213413
2577, -1627.4978117786, 2.6688304047532, -7193.7318404355
2578, -1618.4302629578, 171.58010940182, -7173.0979726055
2579, -1619.5194829423, 160.97482526923, -7021.7112535113
2580, -1486.8918767481, 661.74677699303, -1395.7133246551
2581, -1490.4871142309, 653.60876088962, -1569.7495831943
2582, -1424.9871568112, 786.23651207707, -1574.0963755684
2583, -1420.6678853522, 794.01448949548, -1400.0601170291
2584, 1427.475480763, -781.70966593771, -8563.7587584158
2585, 1451.4193332462, -736.30032532874, -8470.2804796485
2586, -1613.0397823841, 216.46919052452, -2810.4663283176
2587, -1599.2529513499, 301.9043682999, -2900.3979239284
2588, -1579.9830775192, 390.39688107482, -2822.956867157
2589, -1598.5009746646, 305.86088994213, -2733.0252715463
2590, 1356.0149795169, -899.98868066529, -8481.3130732096
2591, 1310.5304974989, -965.02127703241, -8585.0543147938
2592, 1327.9528408935, 940.90249354689, -517.53474288272
2593, 1400.1241913723, 829.70386207015, -633.15578776066
2594, 1621.910120787, 134.7731801536, -4554.5490307271
2595, 1624.0281680433, 106.24857364705, -4323.6247524579
2596, 1609.6517751369, 240.36932582707, -4458.2840773027
2597, 1321.3721415303, 950.12205194267, -5409.6668011525
2598, 1398.5358844325, 832.37829738321, -5351.5996002623
2599, 1383.7442443666, 856.74273628808, -5230.4093837348
2600, 1304.5303281869, 973.11709102279, -5288.4765846249
2601, 1445.9942874409, 746.89809926671, -8482.0503525468
2602, 1369.0533538752, 880.02793378563, -8552.3602781439
2603, 1442.4399527143, -753.73949930576, -594.49231371309
2604, 1365.6403274888, -885.3150546197, -525.52594815244
2605, -1517.0768367338, 589.26574772816, -5943.7777147991
2606, -1524.8080852668, 568.96094163407, -6144.5116440794
2607, -1457.5547267721, 724.07904849153, -6166.2419460517
2608, -1624.8307985663, -93.172560502296, -6587.9546366243
2609, -1605.7690659727, -265.06972057412, -6628.268070461
2610, -1611.1796393768, -229.90524060521, -6783.4761558871
2611, -1626.4792490672, -57.632476554864, -6743.1627220504
2612, -1556.3460634781, -475.96552469279, -6380.5764156495
2613, -1588.6597960737, -353.43500440549, -6297.6459697623
2614, -1570.0045924065, -428.76780408793, -6174.9466892531
2615, 1514.5403861775, 595.75470509049, -5716.3528539174
2616, 1523.2778746143, 573.04516986924, -5558.5083719952
2617, 1466.1220584031, 706.57084560842, -5530.373473689
2618, 1455.3946985089, 728.41095650211, -5688.2179556112
2619, -663.73335706682, 1486.0061509687, -2400.5099456309
2620, -798.71198299611, 1418.0322345484, -2386.3618886397
2621, -821.19429630656, 1405.1320855043, -2506.5327503959
2622, -687.31534337234, 1475.2470534676, -2520.6808073871
2623, 1622.8875879398, -122.4423411694, -5345.6850887149
2624, 1625.2496774317, -85.555455746717, -5562.8075949531
2625, -1421.9471778321, 791.7212094262, -7025.4918126344
2626, -1347.1722569758, 913.17203200419, -6866.9535500542
2627, -1430.301643956, 776.52653354331, -6739.7395105304
2628, -1492.7941029389, 648.32246315468, -6898.2777731107
2629, -1543.2365029347, -516.89200613851, -2695.0137384154
2630, -1508.0677028856, -611.95429037919, -2591.0405920285
2631, -1470.5088022586, -697.39523405318, -2683.8442247171
2632, -1511.0690432145, -604.5052494717, -2787.817371104
2633, -1303.4740507231, -974.53150235967, -2406.5665685586
2634, -1216.6111199498, -1081.0243442284, -2490.1533058129
2635, -1339.1920058141, -924.83567273521, -2519.5777453502
2636, 1576.3278899971, 404.90323932678, -7647.7937206964
2637, 1537.9201093818, 532.50163113288, -7756.0279179094
2638, 1589.7359293815, 348.5626555351, -7734.8124950924
2639, -1393.6678880033, -840.50346099725, -2343.4125170719
2640, -1355.7333465156, -900.41287371155, -2172.5084586045
2641, -1259.7869511379, -1030.384922125, -2235.6625100912
2642, 153.63887005818, -1620.2318808144, -2243.9262926869
2643, 11.075410721124, -1627.4623145491, -2290.8804767714
2644, -26.552604459085, -1627.283383187, -2170.8260227604
2645, 595.2004216518, -1514.7583002134, -2497.9878618723
2646, 509.51817860732, -1545.6867327077, -2397.4666604508
2647, 1614.2601599192, 207.17235843079, -1063.1133769367
2648, 1615.5642119347, 196.74482741841, -1227.6443944551
2649, 1431.5739019903, 774.1785408679, -3027.0131611995
2650, 1514.1451661316, 596.75846527736, -3025.2731447766
2651, 1506.3981838602, 616.05256404196, -2863.6708061183
2652, 1421.5671641407, 792.40333658866, -2865.4108225412
2653, -1530.9706527627, -552.16402488698, -2903.987150332
2654, -1557.8842485501, -470.90648553563, -3022.2689239269
2655, -1590.6186721984, -344.51195865157, -2924.3593107797
2656, -1570.305244178, -427.66539503099, -2806.0775371849
2657, 1589.8413559034, 348.08147474275, -1152.8710154032
2658, 1573.4831452532, 415.82092492319, -1056.4781455964
2659, 1614.2601599192, -207.1723584308, -8019.3866230633
2660, 1615.5642119347, -196.74482741841, -7854.8556055449
2661, 1589.5334686752, -349.48476642235, -7934.2002400682
2662, 1573.3795651557, -416.21267874797, -8032.1753192705
2663, 671.79484676043, -1482.3791464622, -2600.1204447512
2664, 553.55868284698, -1530.4669335352, -2713.5464440223
2665, 474.66235215138, -1556.7440063961, -2611.4138611435
2666, -1627.2408720908, 29.041249924672, -8000.5477077611
2667, -1621.0546152071, -144.70032659218, -8093.4939459695
2668, -1625.9790451547, -70.344827227515, -8206.3457591618
2669, -1624.205791879, 103.49780493621, -8113.3995209534
2670, 1624.5819215052, 97.415760113977, -1667.255405664
2671, 1613.4154554097, 213.65116017741, -1783.9455129059
2672, 1623.3109498639, 116.69537288139, -1866.6533425359
2673, 1612.0034250815, 224.05625973312, -1946.4180569031
2674, 1624.5819215052, -97.415760113357, -7415.2445943361
2675, 1613.4154554096, -213.65116017779, -7298.5544870947
2676, 1623.3109498638, -116.69537288238, -7215.8466574645
2677, 1613.4177382268, -213.63392046948, -7136.2779086247
2678, -622.22887097996, 1503.8575338505, -8333.2972636626
2679, -710.0885082143, 1464.421578816, -8214.9300958168
2680, -780.87736716121, 1427.930946319, -8296.578660012
2681, 1247.2331723745, -1045.5456296731, -3461.0597214822
2682, 1237.5837257464, -1056.9497489321, -3336.8055463667
2683, 1311.2732153429, -964.01182810395, -3328.2586850258
2684, 1320.0664945851, -951.93523932768, -3452.5128601413
2685, -1262.695464376, -1026.8185887703, -2964.9049300748
2686, -1357.9661854697, -897.04185472082, -3017.1396382256
2687, -1391.0986128429, -844.7490155937, -2849.5823637671
2688, -1452.4450352028, -734.27492788107, -2869.8929766091
2689, -1476.8456483058, -683.87365871217, -2986.0627558371
2690, 1153.3228860638, 1148.3042151283, -5630.1384891754
2691, 1108.9313646286, 1191.2293979511, -5759.9728533705
2692, 1186.3331639854, 1114.1677943776, -5811.8854623303
2693, 1227.7456101982, 1068.36181448, -5682.0510981352
2694, -1109.0941021757, 1191.077882642, -8413.1219347274
2695, -1081.1110847427, 1216.5340408087, -8303.2017816848
2696, -1191.442553618, 1108.7023457305, -8259.3821725801
2697, -1216.8895079459, 1080.7109583284, -8369.3023256226
2698, 1272.6618153936, -1014.4398225814, -6269.0250327336
2699, 1181.0028388459, -1119.8162995054, -6307.347268363
2700, 1163.8856146612, -1137.5968204881, -6167.6506813386
2701, 1257.1320303268, -1033.6224205803, -6129.3284457092
2702, 309.7598837605, -1597.7500005986, -2693.5037280943
2703, 229.24740635273, -1611.2733711821, -2535.0123022177
2704, 395.99873768833, -1578.5883724864, -2452.9224352669
2705, 1180.2005291938, -1120.6618405615, -3824.1463304168
2706, 1096.1149962966, -1203.0329026646, -3897.9086025949
2707, 1033.8833919021, -1256.9174125411, -3763.0678852621
2708, 1122.0263328922, -1178.9033710599, -3689.305613084
2709, -1623.3947892058, 115.52319411865, -6709.4783348923
2710, -1627.1942754152, -31.544255514887, -6897.8512536809
2711, -1621.333637907, 141.53969263464, -6864.1668665228
2712, -1587.0288672897, 360.68771033823, -1072.1170683771
2713, -1602.4283740148, 284.5690709691, -1207.8046812801
2714, -1574.1340531068, 413.35001251918, -1295.0257130247
2715, -1552.6233630172, 487.97227648009, -1159.3381001217
2716, 773.38113590907, 1432.0048423871, -3820.0744076598
2717, 847.61124824201, 1389.3564776016, -3947.2980453486
2718, 958.9537920579, 1314.9767582348, -3869.2690520965
2719, 888.48079827367, 1363.5828251701, -3742.0454144077
2720, 329.34278792669, -1593.8285911731, -8127.4869654948
2721, 463.8563190137, -1559.9979375983, -8175.4431375657
2722, 416.72923818036, -1573.2428267898, -8309.2720923181
2723, 281.2590921102, -1603.0126553167, -8261.3159202471
2724, 381.81161517444, 1582.0796884221, -640.29762912011
2725, 316.60964726916, 1596.4067718649, -804.16071010658
2726, 515.95416239248, 1543.5503076706, -853.48432276369
2727, 578.82079774931, 1521.0926119382, -689.62124177722
2728, -1185.1188699953, -1115.4593286988, -8321.2725557659
2729, -1107.871060961, -1192.2155687145, -8210.1656135482
2730, -1004.0899317746, -1280.8433389408, -8328.2346617862
2731, -1087.4969244807, -1210.8289264983, -8439.3416040038
2732, -1569.6896969947, -429.91918443916, -5064.9427492893
2733, -1515.2150874613, -594.03660554694, -5049.7146214224
2734, -1506.469316133, -615.8785996849, -5198.1777058122
2735, -1563.3107276327, -452.56581716743, -5213.4058336791
2736, 1564.5778527187, -448.16558634297, -5455.4271576964
2737, 1582.1550665802, -381.49914193158, -5262.9756514333
2738, 1607.4964686383, -254.38426310511, -5290.7827782838
2739, 766.75677391801, -1435.5627118489, -6728.9777630396
2740, 872.26660980027, -1374.0113578233, -6660.1716017685
2741, 916.12142938145, -1345.1683079184, -6800.707319816
2742, 350.01222917809, -1589.4174056634, -675.41164473977
2743, 515.80308823096, -1543.6007981895, -784.95416284608
2744, 418.47757012443, -1572.7786790591, -930.15896168394
2745, 250.15085253866, -1608.1606887914, -820.61644357764
2746, 1620.6408227796, 149.26343671579, -7671.2497762617
2747, 352.91584297162, -1588.7752068117, -1062.4104770897
2748, 541.10717119087, -1534.913443581, -995.89912225825
2749, 477.00978207896, -1556.0263229782, -1128.150637664
2750, 1598.8701903714, 303.92493208308, -2455.8898385979
2751, 1617.0147475476, 184.44391075205, -2342.4697297498
2752, 1603.4182850974, 278.93736396425, -2223.0044771438
2753, 1578.2993876454, 397.1489556303, -2336.4245859919
2754, 1596.9484826978, -313.86588474891, -6641.4211460117
2755, 1617.0147429694, -184.44395088923, -6740.0302587471
2756, 1601.0339151784, -292.31259372229, -6871.8643977362
2757, 1572.3460158194, -420.10029342628, -6773.2552850008
2758, 1230.6290356567, 1065.0391666971, -2682.7562767664
2759, 1112.5823366512, 1187.8201859591, -2644.3458358352
2760, 1086.8695645318, 1211.3920916427, -2833.1892658191
2761, 1247.0052404434, 1045.8174698802, -7604.3418116732
2762, 1169.5651830135, 1131.7568346083, -7618.7906160507
2763, 1173.3147636651, 1127.8691038262, -7802.7095641738
2764, 537.97674087902, -1536.0134362281, -6126.4071125818
2765, 460.11190640196, -1561.1064292953, -6007.6659269716
2766, 588.65711126652, -1517.3131039292, -5908.3190822668
2767, -1519.3718262064, 583.32281262631, -6756.9681408447
2768, -1488.3954219979, 658.358046792, -6644.74796215
2769, -1623.5973120408, -112.64110410478, -3494.605154101
2770, -1627.4859025291, 6.7739994809107, -3599.9238560975
2771, -1624.5731069669, 97.562647154659, -3504.4547556412
2772, -1627.3528708567, -21.883411855605, -3399.1360536447
2773, -1627.1475298144, 33.869842319398, -7734.7973401141
2774, -1625.7512598787, 75.426063153068, -7914.9159933396
2775, -1610.4072328627, 235.25474350913, -7875.339490649
2776, -1615.8915099372, 194.0383418627, -7695.2208374235
2777, 1620.6408227796, -149.26343671579, -1411.2502237383
2778, 1589.7359293815, -348.5626555351, -1347.6875049076
2779, -1620.2353162868, 153.60263623085, -3361.5434330805
2780, -1622.8189041406, 123.34931845751, -3236.004906955
2781, -1626.6614090783, -52.238972188131, -3273.5975275191
2782, 1224.485282244, -1072.0970308549, -1265.6533595242
2783, 1273.2777779325, -1013.6665873073, -1408.3684926733
2784, 1194.8906580075, -1104.9853236158, -1488.8169308565
2785, 1141.913786611, -1159.6504447236, -1346.1017977074
2786, 293.04066933409, 1600.9008139533, -3873.2487247396
2787, 271.52560784397, 1604.6900305931, -4062.7753035566
2788, 436.02811445335, 1568.0037415154, -4090.2861068169
2789, 457.03592103562, 1562.0097364879, -3900.7595279999
2790, 1625.9249497977, -71.584269399798, -2421.8168493949
2791, 1609.9011230581, -238.6935775763, -2463.4568949384
2792, 1605.6358374382, -265.875548959, -2366.4148803118
2793, 1624.4824301799, -99.061011688911, -2324.7748347683
2794, 1238.1758840762, -1056.2559964763, -7028.8939636478
2795, 1328.7481105567, -939.7790744063, -7032.8915270424
2796, 1322.5405276322, -948.49501989751, -7179.6541335251
2797, 1231.2044458939, -1064.3739297874, -7175.6565701305
2798, 1307.3809412777, 969.28392351453, -1955.1741779308
2799, 1243.7225530269, 1049.7192296477, -1813.552241389
2800, 1168.4265427176, 1132.932329962, -1909.4240038774
2801, 1237.4766307176, 1057.0751337667, -2051.0459404192
2802, -1597.6905364848, -310.06644389071, -4356.193244644
2803, -1623.7034166324, -111.10114678196, -4538.30339032
2804, -1623.9467803161, -107.48536970654, -4355.1072054399
2805, 1269.7516471783, 1018.0800579954, -980.7780697894
2806, 1324.3966889457, 945.90150666419, -887.17422312334
2807, 1251.6796204804, 1040.2184278669, -790.15177334139
2808, 1449.9060333044, 739.27582443063, -6456.7114996315
2809, 1479.8717803623, 677.30034968793, -6638.59289146
2810, 1532.8745388568, 546.85637796826, -6583.5663844544
2811, 1508.3776401163, 611.18994166886, -6401.6849926259
2812, -1253.5044543694, 1038.0187054558, -1955.7138739022
2813, -1274.8220768844, 1011.7237381262, -1817.0590405995
2814, -1353.1931137621, 904.2259932488, -1851.613182423
2815, -1334.09428223, 932.1741769226, -1990.2680157256
2816, -1551.4817679419, -491.58984300318, -7633.1326904697
2817, -1590.7093651157, -344.09296088861, -7714.1200523296
2818, -1604.7818182463, -270.98259321611, -7580.7488928981
2819, -1572.3409658192, -420.11919404688, -7499.7615310382
2820, -1538.449207167, -530.97107921931, -8120.8946500621
2821, -1588.5085884993, -354.11398484678, -8199.2568948748
2822, -1602.744583873, -282.78268841266, -8063.1540889937
2823, -1560.6375150146, -461.69989899181, -7984.791844181
2824, -305.77433470059, -1598.5175339165, -6371.6536248016
2825, -364.63437145971, -1586.1267367869, -6548.2234371186
2826, -525.02777863741, -1540.4876116539, -6492.646610508
2827, -467.74466801812, -1558.8364813349, -6316.076798191
2828, -804.8539778241, 1414.5551683765, -4486.5095699714
2829, -962.38514414128, 1312.4675555366, -4519.0464158421
2830, -931.08238071865, 1334.856490532, -4667.5792802691
2831, -771.18136604483, 1433.1906888705, -4635.0424343985
2832, 1343.5564910976, -918.48364450847, -7642.8826589023
2833, 1425.5967637332, -785.13063704924, -7699.3845060649
2834, 1399.8715676481, -830.1300163773, -7843.4471597979
2835, 1313.6263287465, -960.80285096572, -7786.9453126353
2836, 1469.5313833991, -699.45247387156, -6200.7190356026
2837, 1475.690053105, -686.36369161468, -6322.6636839459
2838, 1428.9151641192, -779.07490252877, -6340.7246934193
2839, 1421.9343272604, -791.74428887009, -6218.780045076
2840, -1560.4846493935, 462.216301105, -3349.0764128854
2841, -1594.9819338556, 323.71110681299, -3293.173481523
2842, -1603.4679937607, 278.65147224617, -3407.7560722896
2843, -1572.8861368633, 418.07349887695, -3463.659003652
2844, -0.7201722303112, -1627.4998406611, -5880.212035348
2845, 37.828956904539, -1627.0603000564, -5996.0551073707
2846, -65.732405438663, -1626.1720391383, -6026.2120790624
2847, -104.23144088056, -1624.1588766903, -5910.3690070396
2848, 1284.4295732327, -999.49833486864, -6410.7996912168
2849, 1351.3027468013, -907.04858551636, -6237.9222434042
2850, 1361.8101698535, -891.19543944273, -6379.6969018874
2851, 1330.0658035457, 937.91321999341, -1493.2100358729
2852, 1421.3623178778, 792.77071799932, -1429.9922706332
2853, 1378.0412002251, 865.88607823553, -1262.1142485753
2854, 1279.2926074188, 1006.0649455197, -1325.332013815
2855, 1235.5981984457, -1059.2701931036, -3130.6814882097
2856, 1262.9921342034, -1026.4536613702, -2967.5773357018
2857, 1338.0284134559, -926.51832943801, -2999.3700721564
2858, 1313.2332465245, -961.34004921392, -3162.4742246643
2859, -781.31322194674, 1427.6925086345, -7327.8849004897
2860, -724.18573413888, 1457.5017229732, -7180.7865926508
2861, -888.65616207103, 1363.4685458833, -7283.2977499891
2862, 1441.9746638718, 754.62925914106, -3173.7366005949
2863, 1149.8497077087, 1151.7820538983, -5937.7933588249
2864, 1241.9287737684, 1051.8408486487, -6003.1086256113
2865, 644.67336356289, -1494.3736160387, -1160.1293493437
2866, 622.58244078591, -1503.7111938218, -1301.0174496824
2867, 454.02855657904, -1562.8865345286, -1269.0387380027
2868, -641.71734182938, -1495.6453801605, -7650.1508237694
2869, -621.90233288893, -1503.9925991664, -7797.7512682555
2870, -765.83335669997, -1436.0555420198, -7803.1221635077
2871, -784.73828679223, -1425.8127756625, -7655.5217190216
2872, 1299.7564743218, -979.48423032665, -5237.3519895611
2873, 1221.8949367528, -1075.0483773011, -5157.0361421924
2874, 1267.4166998266, -1020.9853862816, -5049.8775707452
2875, 1341.0558449478, -922.13094012261, -5130.1934181139
2876, -1599.0773188129, -302.83325190305, -2478.3873606897
2877, -1578.9979562305, -394.36240213765, -2401.0626910828
2878, -1550.9365941828, -493.30713640143, -2517.5946298146
2879, -1576.7569988318, -403.22898784061, -2594.9192994216
2880, 1024.8814478184, -1264.2682737131, -5052.0771921035
2881, 1048.7421143805, -1244.5465951601, -4921.5657453662
2882, 1149.5076674019, -1152.1234189896, -4950.5792270225
2883, 1127.3866383525, -1173.7783511653, -5081.0906737598
2884, -1616.625320516, 187.82657710351, -6329.8338930378
2885, -1605.4213788182, 267.16745017576, -6506.5947093896
2886, -1592.0666111174, 337.75753990859, -6278.3492883888
2887, -1625.7763446559, 74.883423782741, -6546.7279474218
2888, -179.69013445457, 1617.5499082191, -945.61955749664
2889, -39.302560791538, 1627.0253712574, -920.06364195299
2890, -80.511225882735, 1625.5073646425, -774.66208244877
2891, -220.61367196629, 1612.4781727954, -800.21799799242
2892, 1528.0349147238, 560.23704749429, -3633.6724100539
2893, 1540.5731623186, 524.77669683744, -3772.9158197903
2894, 1570.3769412058, 427.40205021646, -3580.834124224
2895, 1591.4546025128, 340.62956146046, -7008.6475809186
2896, 1612.7836837119, 218.36904440107, -6909.3830770962
2897, 1599.8769851642, 298.57977550715, -6778.3184407289
2898, 1572.4733074284, 419.62357825219, -6877.5829445513
2899, 1493.4623850989, 646.78153521481, -7870.6670202547
2900, 1443.8595416438, 751.01656040606, -7996.4307927422
2901, -1622.220981633, 130.97838275749, -4066.4860719049
2902, -1615.042080689, 200.98588906592, -3911.1444984808
2903, -1627.2076401009, 30.847139208026, -3840.5664817725
2904, -1627.0199285252, -39.52723341904, -3995.9080551966
2905, 1604.9346498368, 270.07595182338, -6602.6125326897
2906, 1582.6464709657, 379.45539650884, -6689.3509493921
2907, -1597.2614561612, -312.26925987346, -2705.9830981911
2908, 1463.4047431732, -712.18172376029, -1163.5091652296
2909, 1430.1854603288, -776.74049660368, -1026.9971980527
2910, -1614.4346489094, -205.80819808921, -2384.7118333635
2911, -1627.0054448862, -40.118976938905, -2345.2224988682
2912, -1626.5207707727, -56.448491964959, -2214.1347267223
2913, -1612.2874547858, -222.00318272576, -2253.6240612177
2914, 1595.630300294, -320.49991385929, -5047.1714226747
2915, 1549.3790045111, -498.17762934534, -5065.0124776975
2916, 1519.9406097893, -581.83914676945, -3937.4502731677
2917, 1499.8097335116, -631.92326532873, -3773.6163033055
2918, 1554.7029049714, -481.30564849518, -3730.8667490093
2919, 1569.8088216757, -429.48400830416, -3894.7007188715
2920, -1458.180296583, 722.81842301996, -8546.0545566226
2921, -1329.282660224, 939.02282146269, -8553.0129311142
2922, -1407.9562315931, 816.3427588447, -8431.5674877368
2923, 1622.7171610887, 124.68065250131, -6438.7252392165
2924, 1598.700916378, 304.81409083599, -6503.1079132967
2925, -1602.9426535212, 281.65777021497, -8072.3057021765
2926, -1552.8223228046, 487.33877723775, -8021.5459423962
2927, -1566.2469189295, 442.29722918385, -7824.5797308687
2928, 1625.2004628582, 86.485290803743, -6204.6774694439
2929, 1613.7988564057, 210.73561887778, -6281.7482968958
2930, -1469.3962485933, 699.73631792255, -8300.482054912
2931, -1528.1376339514, 559.95680342445, -8165.5933856169
2932, -1563.692912756, 451.24353136274, -8290.8895359351
2933, -1514.9141608243, 594.80361072708, -8425.7782052302
2934, 1602.9535851422, -281.59555017761, -2880.7941035269
2935, 1572.6607952962, -418.92036586713, -2729.5663151411
2936, 1592.1649218873, -337.29380591919, -2657.784661898
2937, 1615.3384359766, -198.58999787641, -2809.0124502838
2938, 987.65948584755, -1293.5551747086, -8151.6531344246
2939, 955.81822167373, -1317.2576730148, -8006.2652146068
2940, 858.32512060508, 1382.7632614943, -900.30093469762
2941, 807.64440796819, 1412.9638212912, -1033.5121185253
2942, 953.81984291603, 1318.7054095815, -1091.326753123
2943, 789.32156340682, -1423.2806186908, -666.8716170868
2944, -243.89123212552, 1609.1219086484, -5418.5941673565
2945, -238.56410193999, 1609.9203145701, -5573.3458289382
2946, -98.222995931365, 1624.5333154695, -5581.7438222911
2947, -103.59926020721, 1624.1993237545, -5426.9921607094
2948, 841.32793762679, 1393.1703238903, -8449.0157024284
2949, 1613.0987041163, -216.02967568906, -2167.1779216895
2950, 1585.3517495166, -367.98923938714, -2326.5042231159
2951, 1595.9862848081, -318.72249482012, -2127.2672644936
2952, -1624.6533536213, 96.217101218729, -5221.7382337112
2953, -1621.1926922791, 143.14504707047, -5419.5503601634
2954, -1600.825931297, 293.44946359968, -5391.573159078
2955, -1608.640353623, 247.04749076984, -5193.7610326257
2956, 381.38576561472, 1582.1824002897, -6541.9699240993
2957, 248.12074615563, 1608.4751615512, -6500.1170975671
2958, 211.61293377123, 1613.6840509408, -6620.1725774252
2959, 345.43947176073, 1590.4174990705, -6662.0254039574
2960, 1621.4265967137, 140.47078511055, -7216.5741886457
2961, 1613.0025902657, 216.74615059115, -7321.8275263382
2962, 1625.6908155871, 76.717808334142, -7437.7901023983
2963, 1623.0848640943, 119.79888959417, -6998.7534999145
2964, 1606.688002021, 259.44154286029, -7125.5115120897
2965, 1622.1862158464, -131.40826122447, -1851.8016739259
2966, 1614.3845264663, -206.20099589014, -1733.3702073194
2967, 1625.7627282593, -75.178463690415, -1631.5317686876
2968, 1623.2569101146, -117.44468385285, -2077.8074986859
2969, 1608.4742136222, -248.12689115163, -1936.9253490824
2970, -579.98043430044, -1520.6508296873, -1807.0367340224
2971, -757.33645731849, -1440.5546641542, -1783.5760567664
2972, -761.70658890384, -1438.2486997806, -1618.7229552429
2973, -584.59456070808, -1518.8829611232, -1642.1836324988
2974, -655.89164517836, -1489.4839374042, -7460.7047274317
2975, -449.12336647289, -1564.3031840689, -7664.7766194666
2976, -1623.0344989351, 120.47931468353, -2185.2418430877
2977, -287.32567606799, -1601.93639258, -8553.3238552999
2978, -36.634147944191, -1627.0876402961, -8548.8916499552
2979, -1625.567225314, -79.293417033808, -1547.5811385447
2980, -1621.9099875381, 134.77478370983, -1534.1685464853
2981, -1627.4955754808, -3.794969090084, -1418.7648195177
2982, -442.54515528617, -1566.1768851355, -8443.6660118486
2983, -851.16663686592, 1387.1811728417, -6339.1564963784
2984, -826.41377585607, 1402.0686577608, -6173.1834111017
2985, -958.07770474544, 1315.6152027359, -6121.27152719
2986, -981.27550843442, 1298.4046466902, -6287.2446124667
2987, -1088.254673582, -1210.1479312163, -2432.2841086997
2988, -1141.0602648206, -1160.4902938187, -2559.5073472181
2989, -1167.2690212135, -1134.1248970529, -2362.9300672944
2990, 1490.1870627313, 654.29257069617, -3559.4414316472
2991, 1435.4875705662, 766.8974408289, -3693.439140864
2992, 1480.4528607178, 676.02927243753, -3767.6701192707
2993, -1109.8560777491, -1190.3678997198, -6598.8749044908
2994, -1090.7679839518, -1207.8830469816, -6445.8819838194
2995, -972.0558844962, -1305.3212659787, -6474.8457987252
2996, -992.70997479319, -1289.6833549155, -6627.8387193967
2997, -1455.4234708416, 728.35346537475, -3493.4244869564
2998, -1456.9527489913, 725.28955404486, -3329.0930394156
2999, -1522.5661934269, 574.93341930473, -3334.617930969
3000, -1521.3531284492, 578.13571811285, -3498.9493785099
3001, -1617.570462296, 179.5050124857, -7333.3645415352
3002, -1589.3249264203, 350.43191672424, -7318.9266868866
3003, -1591.0222542187, 342.64330809292, -7158.6601179569
3004, 199.23510615415, -1615.258995479, -8537.6698227957
3005, 235.0595646142, -1610.4357332981, -8377.9649861219
3006, 352.3035746108, -1588.9110866617, -8414.049221699
3007, 316.92824243674, -1596.3435529816, -8573.7540583728
3008, -1555.4882357003, -478.76152581229, -4322.3029906977
3009, -1607.6322781664, -253.52457119116, -4159.4352886367
3010, -693.77069997475, -1472.2222881945, -7252.7878964564
3011, -705.04146100856, -1466.8581350147, -7096.7657992429
3012, -542.88782523868, -1534.2845431039, -7115.4708946165
3013, 35.272564496164, -1627.1177265932, -8419.0614727508
3014, -1601.8814457801, 287.63185439955, -1617.0427099996
3015, -1586.8715035824, 361.37941435296, -1438.31911014
3016, -1613.9452241977, 209.61169645208, -1355.4449466257
3017, -406.33148217303, -1575.960334715, -5644.2091600821
3018, -523.67921022988, -1540.9465710313, -5585.2589807061
3019, -472.47551578559, -1557.4091103442, -5491.4981793841
3020, -354.03490326076, -1588.5262154819, -5550.4483587601
3021, -1280.0246840085, 1005.1333535053, -4047.2163630847
3022, -1166.4978333204, 1134.9180828847, -4025.5649159581
3023, -1178.5545562424, 1122.3927155681, -3878.3599369045
3024, -1290.6885597515, 991.40268898493, -3900.0113840311
3025, 1337.3763334062, -927.4593213964, -5798.7792128925
3026, 1224.9481650493, -1071.5681233325, -5833.0378436826
3027, 1212.2539103733, -1085.9082404995, -5652.2657633582
3028, 1326.370063313, -943.13239004236, -5618.007132568
3029, -1621.1887099372, 143.19014202196, -3695.6796227837
3030, -1624.065388513, -105.67811426282, -3744.8107150864
3031, -1625.5923094624, -78.777493084204, -4189.4708891123
3032, -1613.2819652067, -214.65682085341, -3965.8724547211
3033, 1136.2259652183, -1165.2239295362, -6031.1839098025
3034, 1112.1105947571, -1188.2618714025, -5881.9679862654
3035, 1246.6486520265, -1046.2425093642, -5982.2537672197
3036, -1593.8869546694, 329.06021597073, -6994.7327621644
3037, 451.52725395483, 1563.6110094701, -4895.6476390892
3038, 433.81453220822, 1568.6176084836, -4725.4389984364
3039, 242.49777167268, 1609.3324953948, -4756.7815104801
3040, 260.68319906943, 1606.4870119995, -4926.9901511329
3041, 322.09003023975, 1595.3100834697, -5103.5138254389
3042, 95.862646688765, 1624.6743067365, -4984.4040213974
3043, 158.08805157052, 1619.8038208223, -5160.9276957034
3044, 1284.6539743307, -999.20989598605, -7934.505874949
3045, 1187.3705944487, -1113.0621372765, -7880.0263125598
3046, 1219.7505802744, -1077.4807524592, -7732.4657502461
3047, 1127.1358184133, 1174.0192063377, -1325.2518365944
3048, 1202.8526735762, 1096.312772739, -1416.3047111913
3049, -1625.6980856107, 76.563597366361, -3086.2748413478
3050, -1605.2057541392, 268.45993533163, -3193.6009080917
3051, -1612.2711919925, 222.12125848498, -3043.8708424845
3052, -534.23215139766, 1537.3198295778, -7791.7508136534
3053, -371.86539577082, 1584.4470257564, -7821.8988496617
3054, -340.15538220177, 1591.5560203647, -7688.9695962506
3055, -503.43073567353, 1547.6801169425, -7658.8215602423
3056, 1393.8872482014, 840.13962488477, -3418.474938086
3057, 1456.9353278566, 725.32454835289, -3408.4152737958
3058, 1446.0392037848, 746.81113483763, -3307.2484117009
3059, -227.58135927457, 1611.5095329879, -1638.8416426322
3060, -56.158146326343, 1626.5308212884, -1544.5313076938
3061, -145.70752631796, 1620.9643940489, -1386.5886540677
3062, 1456.7648396032, -725.66690161251, -7538.5436025661
3063, 1371.5210336907, -876.17709633615, -7503.1634704431
3064, 1390.8989908061, -845.07765759999, -7347.593162473
3065, 1472.73272075, -692.68649707662, -7382.973294596
3066, -1542.955712886, 517.72958006321, -6970.5997285181
3067, 1477.0379473746, -683.45822989802, -7226.1623039632
3068, 1524.879247092, -568.77019242223, -7235.3348763765
3069, 1521.2906730013, -578.30004170773, -7392.1458670093
3070, 173.99071293729, -1618.1728837833, -5975.53442639
3071, 162.31674028718, -1619.3855395867, -5815.3628014457
3072, 282.89188905567, -1602.7253130548, -5802.0890381484
3073, 294.44258120057, -1600.6435631882, -5962.2606630926
3074, 345.12405669576, -1590.4859746285, -6071.2522390608
3075, 376.84337654529, -1583.2704505403, -6242.5874414188
3076, 222.06235747373, -1612.2793056394, -6287.9871154129
3077, 189.79416948548, -1616.3955033436, -6116.6519130549
3078, 1329.3909184594, -938.86955213052, -4882.029729232
3079, 1333.2466826412, -933.38605797723, -4726.498052853
3080, 1398.1188367237, -833.07860877486, -4726.758477146
3081, 1394.6756712307, -838.83015091088, -4882.290153525
3082, -1371.3903857135, -876.38157213197, -855.52656231501
3083, -1435.9852341033, -765.96518030346, -768.38729156862
3084, -1388.4813841841, -849.04398930462, -634.9694580207
3085, -1317.5082553858, -955.47278715324, -722.1087287671
3086, 1407.0238520715, 817.94873293007, -1677.6810703974
3087, 1467.644176229, 703.40374038045, -1796.0557814912
3088, 1513.1537145678, 599.26795850412, -1679.654317638
3089, 1460.6748092835, 717.76413362935, -1561.2796065441
3090, -570.95647279927, -1524.0619922328, -6106.2625659804
3091, -414.18755134572, -1573.9138865612, -6168.4775903195
3092, -622.71795311787, -1503.6550804173, -6253.8617738519
3093, -977.44646853654, 1301.2896107883, -8295.685302903
3094, -986.56650354251, 1294.388961668, -8145.674340473
3095, -1089.6329825342, 1208.9070325602, -8153.1908192548
3096, 1614.4989775355, -205.3029506289, -3446.3203821514
3097, 1622.6856778457, -125.08973145095, -3560.0676635521
3098, 1558.7117381736, 468.16019403612, -7325.8243356859
3099, 1596.7397877608, 314.92586458011, -7428.8429526868
3100, 1584.4111459729, 372.01823949478, -7218.8089093372
3101, 1551.3256053127, 492.08242836049, -7542.8541476643
3102, 1611.8032179595, 225.49198782938, -7533.7825257189
3103, 1612.0160059681, -223.96572617817, -1535.539345367
3104, 1593.1809930451, -332.46138632907, -1730.3103826338
3105, 1589.423407654, -349.9849728223, -1532.4795206815
3106, 1560.1709967683, -463.2739047724, -1557.9794850804
3107, 1560.5848983708, -461.877716476, -1373.1874693065
3108, 1547.887227906, -502.79357562074, -7466.801643682
3109, 1586.1435618888, -364.561176044, -7559.7463812933
3110, 1565.8671099119, -443.63999379704, -7698.7234089196
3111, 1520.7272158643, -579.78011774264, -7605.7786713084
3112, 1551.6583270682, 491.0322657828, -1597.7919308545
3113, 1586.1933611506, 364.34444011386, -1519.9298266428
3114, 1567.200688523, 438.90574374585, -1386.1774122739
3115, 1526.7165846688, 563.81975851968, -1464.0395164856
3116, 574.18126548819, 1522.8500006115, -7846.3139359269
3117, 592.29914678561, 1515.8951054466, -7678.7743850777
3118, 434.24076213974, 1568.4996686312, -7663.8286455429
3119, 415.5068529654, 1573.5661108256, -7831.3681963922
3120, 1457.0249860653, -725.14442698082, -3988.4595133761
3121, 1378.559590492, -865.06052127159, -4054.5833799156
3122, 1331.902033326, -935.30381353975, -3868.3525655089
3123, 1417.5092590935, -799.63976288346, -3802.2286989694
3124, -1623.4095293636, -115.31587042268, -7944.6470090109
3125, -1607.6034645216, -253.70721483261, -7914.3071520351
3126, -1626.0374496803, -68.981607964052, -7859.0152945894
3127, -370.21546532972, 1584.8333537728, -2702.4808118833
3128, -274.84673922016, 1604.1245338003, -2801.1203413149
3129, -173.4100321489, 1618.2352149024, -2699.9390636159
3130, -269.8032705443, 1604.9805124062, -2601.2995341843
3131, -1625.0920707952, -88.498652184495, -7658.2384756599
3132, -1616.2563109938, -190.97588112851, -7782.4564301352
3133, -153.56324843476, 1620.239049872, -6048.9320399874
3134, 41.330074328473, 1626.9751304049, -6084.8951381485
3135, 64.842583152544, 1626.2077632978, -5919.5455585059
3136, -130.12774475416, 1622.2894378147, -5883.5824603448
3137, 1377.8705366588, -866.15762665203, -851.22530560912
3138, 1359.3197967151, -894.98935203638, -706.58143831256
3139, 1451.6885720466, -735.76935230372, -704.59271078956
3140, 890.15471408886, 1362.4906733572, -748.75309353513
3141, 1111.4215457915, 1188.9063872107, -689.32240550402
3142, 1391.9964218619, 843.26876588888, -8199.0341592958
3143, 1381.3871443232, 860.53809183478, -8360.7055150069
3144, 1455.1834460881, 728.83289458646, -8368.8496516892
3145, -880.87716133654, 1368.5070977659, -1015.2607772763
3146, -811.47295710248, 1410.7685458258, -1166.7417109024
3147, -699.63036508323, 1469.4466993578, -1097.0381181156
3148, -772.10277407545, 1432.694509051, -945.55718448954
3149, 1192.1750334317, 1107.9146806782, -510.16731456567
3150, 1287.3524612673, 995.73083233828, -612.70205744839
3151, 1275.0193889803, 1011.4750653003, -8537.343216055
3152, 1289.225418617, 993.30462094562, -8345.688452918
3153, 1154.8048014762, 1146.8138996749, -8446.1420240699
3154, 1258.6806533593, -1031.7360432101, -527.2403953447
3155, 1251.3231688975, -1040.6471914056, -708.29588550482
3156, 1146.6010686511, -1155.0161208261, -601.08125405447
3157, 1617.2717254766, -182.17688100863, -7475.7678340272
3158, 1601.0166221058, -292.4072942678, -7796.211657231
3159, 1548.9972118936, -499.3634823913, -7836.7119917568
3160, 1617.2717254765, 182.17688100924, -1606.732165973
3161, 1601.3008517856, 290.84675014643, -1285.4360014039
3162, 1550.4538087619, 494.8224296612, -1253.6124262732
3163, 1563.4943797156, 451.9309400757, -7101.9449781662
3164, 1405.5750008575, 820.43596152556, -7880.7517487039
3165, 1355.092470288, 901.37708367184, -7957.05572982
3166, 1397.378421268, 834.31996127066, -8072.7347738583
3167, 1253.3487989483, 1038.2066452181, -7997.3984709119
3168, 1318.1341347006, 954.60916239957, -8071.1197351667
3169, -418.91100160629, -1572.6632896883, -4041.9347212499
3170, -483.09391938749, -1554.1481638025, -3889.868205191
3171, -365.98719204227, -1585.8151295977, -3826.3361565573
3172, -300.60343186401, -1599.4979921061, -3978.4026726162
3173, 1171.1432030613, -1130.123819731, -1130.6843381754
3174, 1246.5381321776, -1046.3741849965, -1047.0810638609
3175, 1295.7370147431, -984.79532829142, -1182.0500852097
3176, 1148.3895891854, -1153.2378772181, -718.19110442774
3177, -717.51251852941, -1460.798424066, -8227.3240219288
3178, -745.44802312881, -1446.7423733386, -8009.0522677423
3179, -631.50626269752, -1499.9853633199, -8119.0482943939
3180, 1437.0932810494, -763.88425272585, -8364.1658571365
3181, -1403.1894131557, 824.5093818798, -6416.453749045
3182, -1456.1022931775, 726.99543451334, -6302.4829090152
3183, -1446.3956978624, 746.12045623018, -6513.970457227
3184, -1381.3445887438, 860.60640082915, -6608.9620056074
3185, 1597.4672918187, 311.21455873637, -2021.9652752089
3186, 1577.6885934122, 399.56845748506, -2119.0529061359
3187, 1599.181160003, -302.2844149003, -7071.4878288747
3188, 1573.9362090331, -414.10271659882, -6986.5731072931
3189, -1626.3389935874, 61.46322426539, -5689.1984702303
3190, -1627.4839803083, -7.2210691721894, -5550.7217888891
3191, -1619.8540220234, -157.5728318413, -5624.8104900554
3192, -1625.0604948629, -89.076585227473, -5763.2871713965
3193, 1355.2801882689, -901.09481259507, -8332.2859334462
3194, 1236.4896959158, -1058.2294089157, -8434.0503048588
3195, 958.47006370348, -1315.3293834566, -5152.2542774605
3196, 857.89661886937, -1383.0291541875, -5049.1273722015
3197, 927.92476796039, -1337.0534301237, -4948.9502868445
3198, 1334.4688836213, 931.63783126633, -717.2308022953
3199, 1199.3565414704, 1100.136417192, -685.62302849447
3200, 171.72668014138, -1618.4147173477, -4047.609755487
3201, 242.00586722246, -1609.4065397624, -3953.9848569978
3202, 332.15776969742, -1593.2443208842, -4039.8809040183
3203, 262.49661290516, -1606.1917003314, -4133.5058025075
3204, -727.51862115115, -1455.8409617394, -1289.9798879563
3205, -555.39765284132, -1529.8005416453, -1325.3950971456
3206, -574.10733702825, -1522.877872835, -1481.8758760968
3207, -745.30882108354, -1446.8140900665, -1446.4606669075
3208, 1454.1332821292, -730.92588393368, -8045.0757684796
3209, 1377.702788536, -866.42442051231, -7989.2162703716
3210, 1472.735466826, -692.68065856709, -7899.3066579058
3211, 124.0739946616, 1622.7636592704, -4546.8136729866
3212, 164.85522173876, 1619.1290886972, -4389.5596543496
3213, 20.977140408496, 1627.3648053157, -4343.7881103637
3214, -19.96572738671, 1627.3775283351, -4501.0421290007
3215, 980.72252386095, -1298.8223824649, -5959.622073053
3216, 1029.1822660568, -1260.7696511394, -6086.6290469116
3217, 913.44008680935, -1346.990518827, -6168.0888620493
3218, 1449.3426625053, 740.37969761604, -1096.1582917009
3219, 1353.0882813803, 904.38285741787, -1144.6921929751
3220, 1469.634828522, 699.23509694179, -1213.580347301
3221, 965.01112979093, -1310.5379694536, -6258.3914124411
3222, 870.42170324721, -1375.18082757, -6343.0646279455
3223, 816.413946487, -1407.9149541011, -6252.7620775536
3224, 1607.315750857, 255.52363304999, -1461.9393899157
3225, 1607.0659454314, -257.09005627345, -7619.7082687192
3226, -284.81535772607, 1602.384617376, -1242.3888127614
3227, -382.3974088972, 1581.9382009638, -1095.0278621501
3228, -502.48206555746, 1547.9883797345, -1176.926180086
3229, 1622.0789378441, -132.72591835261, -5093.1491601571
3230, 405.2606519628, -1576.2360400558, -7498.9502304922
3231, 281.20342289553, -1603.0224218494, -7601.9962191114
3232, 197.77959382957, -1615.4378608491, -7469.8749131054
3233, 323.05793063159, -1595.11436062, -7366.8289244862
3234, 1311.9819566614, 963.04703695875, -8197.4191206042
3235, 1224.5040760456, 1072.0755653161, -8165.0253464231
3236, 1199.2350824292, 1100.2688158223, -8313.2946787369
3237, 101.26865666121, 1624.3463021099, -6449.5113355682
3238, 294.19642612412, 1600.6888244927, -6363.5878139214
3239, 147.86051491419, 1620.7694216419, -6312.9820519225
3240, 1251.7085119728, -1040.1836621745, -824.62584439401
3241, 1304.097480884, -973.69708346697, -922.7422656658
3242, 1190.4483361755, -1109.7697999572, -948.96464258908
3243, 1363.4036978947, -888.75565065265, -1098.5141581094
3244, 1538.2047342785, -531.67889317066, -2505.8459371911
3245, 1547.0255096072, -505.43874270231, -2305.2607965009
3246, 1578.8633005668, -394.90116247391, -2527.0893638062
3247, 1569.0750249186, -432.1571660598, -2095.8047799847
3248, 1505.4085287954, -618.46698491511, -2249.4721058577
3249, 1532.8173007215, -547.01679371746, -2040.0160893416
3250, 1350.1992661311, 908.69037176536, -1607.5258005551
3251, 1304.5520576403, 973.08796051873, -1742.3369180372
3252, 1365.7095476852, 885.20827004807, -1812.4921878794
3253, 1376.0286812855, 869.08073173884, -4121.493749248
3254, 1262.7675118088, 1026.7299845238, -4188.9353911259
3255, 1601.1191166895, 291.84554848685, -1664.7226027002
3256, 1577.5504344397, 400.11357987357, -1717.8299828955
3257, 1595.138829756, 322.93708954648, -1837.0528931012
3258, 1601.3631190027, -290.50371959399, -7415.8059466012
3259, 1579.4465494774, -392.5619025629, -7365.0453195344
3260, 1596.4007448566, -316.64003508896, -7247.7938600279
3261, 1191.8630024633, -1108.2503477822, -2498.1214813454
3262, 1103.0935469512, -1196.637320442, -2462.7631979556
3263, 1134.4178540687, -1166.9843111071, -2304.9118183429
3264, 1021.1568062232, -1267.2785909594, -2356.4440718471
3265, 1020.3708801308, -1267.9114783695, -2577.4606713002
3266, 1064.9461330153, 1230.7095448463, -7805.9271014245
3267, 1054.8754337374, 1239.3522781265, -7968.3804771311
3268, 1164.0790301074, 1137.3989017333, -7965.1629398804
3269, 1031.5156983816, -1258.8612369885, -1070.7997183952
3270, 1117.9523007259, -1182.7674764304, -1000.2215090475
3271, 1088.2960776378, -1210.1106963407, -1201.262547523
3272, 958.46731330347, 1315.3313876468, -7819.3966055082
3273, 839.48542039403, 1394.2813485613, -7854.8088019754
3274, 847.35671069067, 1389.5117325332, -7987.8162327653
3275, 965.89023609426, 1309.8901869309, -7952.4040362981
3276, 1047.6248299922, -1245.4872402332, -1417.8241265206
3277, 990.22134706059, -1291.5951121871, -1272.9848763362
3278, 854.34006651678, -1385.2289705114, -1305.5015883786
3279, 817.97038644049, -1407.0112639586, -1166.6060588881
3280, 956.24436683032, -1316.9483516468, -1134.0893468457
3281, -25.739550959831, 1627.2964467227, -1728.9381975999
3282, -144.17416028723, 1621.1014963615, -1777.1239976257
3283, -102.20249025755, 1624.2878134694, -1890.6885256446
3284, -628.2279313107, 1501.3613543451, -698.80771623581
3285, -777.54923537162, 1429.745934274, -552.62868304403
3286, -731.41861364737, 1453.8855049866, -733.03028304791
3287, -85.404911104642, 1625.2575953243, -633.08939527246
3288, 128.70162139207, 1622.4031997784, -773.28662910559
3289, 1518.4038420594, 585.83788066252, -7440.8789673589
3290, 1466.829330888, 705.10138565085, -7555.1468296538
3291, 1507.1255080824, 614.27107443494, -7657.1220099593
3292, 1530.4808831502, -553.52011373741, -1556.028184389
3293, 1495.8398098994, -641.26399643204, -1617.23799336
3294, 1476.2515316794, -685.15521249883, -1508.9404780284
3295, 1513.4684997719, -598.47251415429, -1447.7306690573
3296, 1591.2730240382, -341.47681175788, -4082.3236585635
3297, 1600.5052651458, -295.19340480524, -3850.3937802879
3298, 1614.4501810568, -205.68632158146, -4038.0167199799
3299, 1575.2609770791, 409.03435563741, -1912.600111407
3300, 1576.5095557675, -404.19533714984, -7183.0037802778
3301, -1582.4445155758, -380.29673299171, -3134.3100192249
3302, -1518.7289825627, -584.99446794308, -3123.7811898301
3303, -30.311043114373, 1627.2177145869, -7581.8837140088
3304, -204.5672845951, 1614.5923560061, -7645.8198713003
3305, -150.65406720032, 1620.5121418971, -7809.6848146468
3306, 23.926098704893, 1627.324120082, -7745.7486573553
3307, 1456.5986979079, 726.00033281871, -7771.7611123046
3308, -327.29724577217, -1594.2499060404, -730.72463126945
3309, -159.49583173299, -1619.6658080171, -915.88042404446
3310, -343.34097475024, -1590.8718443223, -902.5454439661
3311, -1601.4773163952, 289.87351564371, -2357.0535346329
3312, -1599.6221720185, 299.9419223564, -2164.7662674737
3313, -1623.760265064, 110.26718278482, -2377.5291102469
3314, -1364.5466323244, 886.9998524307, -1398.1184865359
3315, -1367.0349010543, 883.16013797009, -1273.2748328043
3316, -1422.8945185128, 790.01736638261, -1275.2164632975
3317, 1493.8210138968, -645.95280666648, -1303.1034400166
3318, 804.47603033194, -1414.7701462151, -2898.103040641
3319, 831.46416171313, -1399.0795537734, -2707.4071513905
3320, 963.64528441388, -1311.5426092304, -2742.8990050739
3321, 938.31184666466, -1329.7846173004, -2933.5948943245
3322, 1439.7563849588, -758.85295148025, -8180.0588747983
3323, 1358.4237242603, -896.34883575915, -8148.178951108
3324, 1545.3950152907, 510.40228909634, -1799.6923696789
3325, 1388.9625353845, 848.25663881774, -839.92904922669
3326, 1558.2322705906, -469.75359593111, -7290.3895428617
3327, 1512.842684863, 600.05271506478, -1897.8331449501
3328, 1548.5953401151, 500.60835248094, -2010.7408866781
3329, 1547.3254410757, -504.51980080069, -7127.9491137927
3330, 1120.2385296242, 1180.6023406488, -8263.0429102621
3331, 1148.8166400094, -1152.8124642099, -834.52106331693
3332, -1514.3125455207, -596.33360166836, -4238.2131850969
3333, -1478.2497812645, -680.83319116459, -4366.5333478751
3334, -1525.9942312101, -565.77191191625, -4450.6231534759
3335, 1403.4721958518, 824.02793973931, -2554.561250896
3336, 1415.5086483692, 803.17589380666, -2702.2945013364
3337, 1479.3437677403, 678.45284791788, -2690.9126538821
3338, 1624.2388488508, -102.9777251835, -6550.7779788248
3339, 1624.238851405, 102.97768489614, -2531.7220096649
3340, 1361.9573542518, 890.97049064464, -1017.2920354299
3341, 1146.1472947631, -1155.4664117608, -4048.5883785889
3342, 1048.4734731695, -1244.772921484, -4111.4868648955
3343, 994.7417213969, -1288.1169037445, -3960.8070889016
3344, 1559.5931340694, -465.21554806737, -1697.3916888012
3345, 1586.5846650886, -362.63666459083, -1905.4628645735
3346, 1550.483466305, -494.72949246501, -1872.5441707408
3347, 1453.8668348361, -731.45572426751, -4844.5478908097
3348, 1443.2436673759, -752.19941942246, -4637.2709951524
3349, 1493.1207056416, -647.56992547853, -4755.0604088161
3350, 9.2109789433951, -1627.4739346198, -949.01202322951
3351, -27.492920370333, -1627.2677681714, -1101.4041227338
3352, -195.9807440081, -1615.6570793266, -1068.2725235488
3353, -506.07148780199, -1546.8186381195, -7857.0542067741
3354, -552.88256959103, -1530.7113098956, -7988.4158841967
3355, -667.35731099615, -1484.3821844323, -7929.1129456781
3356, -1468.5189013575, -701.57571676596, -3237.2905634426
3357, -1412.464873409, -808.51668590429, -3361.9858329558
3358, -1466.654471425, -705.46503205262, -3476.1801102467
3359, 7.7322174585613, -1627.481632097, -4671.6545859483
3360, 106.6622057815, -1624.0010541431, -4803.39313377
3361, -24.183449200447, -1627.3203159749, -4886.7417846453
3362, -123.07319892152, -1622.8398681654, -4755.0032368236
3363, 188.88796221497, -1616.5016510138, -1002.9056892241
3364, 1384.8029608982, 855.03041436405, -6294.638308559
3365, 1302.6342418732, 975.65377152932, -6403.5972134367
3366, 1377.8457329946, 866.19708269455, -6565.6704045092
3367, 921.80866164744, 1341.2773916352, -1758.4072676307
3368, 805.72337922399, 1414.0601423461, -1874.5069409385
3369, 900.07177797849, 1355.959824068, -2001.3444560058
3370, 1010.9357310532, 1275.4470579683, -1885.244782698
3371, 433.14954175086, 1568.8013655275, -1067.4501483218
3372, 277.3011469642, 1603.7020683071, -995.73430100282
3373, 88.811259894705, 1625.0750167657, -964.86022000183
3374, 896.70850115078, 1358.1863325641, -2903.384623596
3375, 1032.994056383, 1257.6484125054, -2989.323300685
3376, 955.09919887735, 1317.7791052767, -2747.2505887302
3377, 644.24145234378, 1494.5598686844, -1096.7772959938
3378, 512.3053981118, 1544.7651695535, -975.18405290416
3379, 567.46623821123, 1525.3649787806, -1189.0433914114
3380, -1204.8760238517, -1094.0886696914, -5167.9253821824
3381, -1290.1677809987, -992.08031271304, -5262.0219035622
3382, -1354.9424714379, -901.60254496858, -5143.5646584092
3383, -1276.8204413128, -1009.2005799868, -5049.4681370294
3384, 1526.2985679436, -564.95037967362, -2882.7034782569
3385, 1535.419157694, -539.670510762, -2693.5551533466
3386, 1565.5290021013, -444.83164633354, -2918.7146400513
3387, 496.36447913781, -1549.9608233276, -6989.8210458033
3388, 621.44205295779, -1504.1828428803, -6860.316502132
3389, 582.8842976867, -1519.5401098722, -7117.9747143288
3390, -1017.3425504823, -1270.3426250339, -3735.9213231511
3391, -931.08969588595, -1334.8513880635, -3810.9864127884
3392, -984.40703963366, -1296.0320329065, -3912.3388947337
3393, -1067.9754848269, -1228.0816804304, -3837.2738050964
3394, -1461.7396407233, 715.59309159467, -4033.6258079484
3395, -1378.052667126, 865.8678286129, -4042.4648400969
3396, -1375.8153838418, 869.41835705497, -3870.8002152535
3397, -1459.8895733419, 719.35991245527, -3861.961183105
3398, 1513.1139703245, -599.36830313981, -8087.533644984
3399, 1531.0490318235, -551.94665698071, -7969.3990748555
3400, 1508.7383623916, 610.29894629416, -1018.793632217
3401, 1530.377452655, 553.80601514007, -1134.4405929995
3402, -1447.4712289429, -744.03178116424, -532.61789556525
3403, -1320.9816583751, -950.66487693432, -517.35156245546
3404, -1075.5995508428, 1221.4097822707, -6788.1007534726
3405, -1038.3333975015, 1253.243793375, -6619.0848548949
3406, -1159.2797353655, 1142.2901317839, -6571.2868283244
3407, -1193.1500696129, 1106.8645632518, -6740.3027269022
3408, 1244.4468602173, -1048.8604588291, -3970.7198725435
3409, 832.78124875892, 1398.2959778658, -2139.0190165888
3410, 961.20674495126, 1313.3308202659, -2235.28567764
3411, 1032.4931342554, 1258.0596876601, -2438.8416449093
3412, 1072.0433202265, 1224.5323064574, -2296.2422832073
3413, 918.88422338403, 1343.2825592614, -2377.8850393419
3414, 1426.8107356579, -782.92232987144, -1591.4795784634
3415, 1386.9493699417, -851.54430020895, -1462.8525986826
3416, 1441.0972422245, -756.30350286964, -1380.3134982475
3417, 1420.5849496821, 794.16286159497, -7454.8310586958
3418, 1361.4077895228, 891.81000253784, -7572.0990162825
3419, 1413.7827368515, 806.21003651695, -7672.4147872405
3420, 1551.9791859084, -490.01720021566, -4239.1775251725
3421, 1542.3008420036, -519.67717167016, -4099.7844135753
3422, 1522.9170621398, 574.003372676, -7213.4240661071
3423, 1474.6300454081, 688.63813369565, -7328.4786977801
3424, 1515.7026409702, -592.7914929854, -1809.1834907749
3425, 1479.6558633934, -677.77192028396, -1730.9810960252
3426, 1529.7907106783, -555.42473074425, -1695.4403881097
3427, 1386.1301648002, -852.87714017372, -2540.1404799781
3428, 1465.629709486, -707.59155214859, -2396.4535501951
3429, 1491.3375670152, -651.6659506289, -2512.5866464397
3430, 1417.3885318319, -799.85373652403, -2656.2735762227
3431, 1487.9286803593, -659.41223234346, -2700.2958625952
3432, 1551.3773925373, 491.91913555401, -6726.9689897628
3433, 1501.0296055854, 629.02016911721, -6808.3469989373
3434, 1528.5219104307, 558.90698629853, -6958.9609537258
3435, 1568.1289592633, 435.57756728272, -6545.9483440838
3436, 1131.9802614882, 1169.3489374866, -6427.8321370185
3437, 1012.701271697, 1274.0456759093, -6328.882118282
3438, 954.40878996445, 1318.2792236998, -6444.2573860463
3439, 1078.2733752553, 1219.049949024, -6543.2074047829
3440, 28.573477478815, 1627.2491531369, -5193.5732586343
3441, 73.312079899141, 1625.8479599707, -5329.7088163519
3442, 202.572925005, 1614.8437881278, -5297.063253421
3443, 1571.1881548347, 424.41021677996, -5606.2684939405
3444, 1575.9984265743, 406.18371389729, -5436.1692139554
3445, 1529.8129005329, 555.36361004595, -5388.4090920101
3446, -1274.8973918542, -1011.628830275, -4590.5722176965
3447, -1347.6965671398, -912.39805617925, -4519.8332422311
3448, -1302.8866686596, -975.31665556837, -4377.9979482655
3449, -1225.4611319104, -1070.9814490349, -4448.7369237309
3450, -88.76532071034, -1625.0775267166, -5714.8536847258
3451, -198.84113489772, -1615.3075413285, -5832.3937716387
3452, -315.46072714673, -1596.6342034505, -5731.556243425
3453, -206.38327812082, -1614.3612335881, -5614.016156512
3454, 1479.6049134413, 677.88313898526, -7070.4400416667
3455, 1138.6560447198, 1162.8493719408, -4289.4496242609
3456, 1213.0282345074, 1085.0432029592, -4039.7965879713
3457, 1082.6458222359, 1215.1684136758, -4140.3108211064
3458, 1494.7315159637, -643.84310603191, -1976.6554093757
3459, 176.77311307583, -1617.8712916958, -8088.2264597523
3460, 369.99843753127, -1584.8840355762, -7970.3815585207
3461, 142.32891560909, 1621.2645465135, -1703.6104198924
3462, -850.98906643073, 1387.2901134281, -1397.4160862975
3463, -946.77669107595, 1323.7711838665, -1453.4977663745
3464, -897.08135880215, 1357.9400891386, -1597.4874256046
3465, 1572.4279219346, 419.79361634083, -5246.9662605487
3466, 1585.0376320169, 369.33989100881, -5091.5988939281
3467, 1558.3990781062, 469.19991832657, -5057.6696008588
3468, 1542.6124190383, 518.75155385671, -5213.0369674793
3469, 1498.445089304, -635.15239457993, -6420.9367587805
3470, 1517.8887678343, -587.17113219445, -6551.7737253297
3471, 1465.9206557261, -706.98860041411, -6613.916228213
3472, 1442.6923267259, -753.25633114245, -6483.0792616638
3473, 1490.9994511064, -652.43918245331, -6784.4798953295
3474, 1423.0405161769, -789.7543537828, -6846.9465990977
3475, 1392.9432907046, -841.70377145475, -6676.3829319812
3476, 1595.228758041, 322.49257281212, -4371.2741016188
3477, 1569.089342807, 432.10517734622, -4500.8589660012
3478, -455.74459124041, 1562.3869935311, -5802.7627465345
3479, -480.58081939524, 1554.9271127707, -5957.4972550044
3480, -318.97033263493, 1595.9367709589, -6003.6214537773
3481, -293.50119812802, 1600.81644691, -5848.8869453074
3482, 1536.078250362, 537.79164995826, -4638.2380243534
3483, 1536.2814004069, 537.21104676257, -4418.4962382653
3484, 1496.1998115761, 640.42358938405, -4555.8752966175
3485, -1415.043323858, -803.99542387057, -8009.5884836965
3486, -1495.7514310005, -641.4701136139, -8044.8071747419
3487, -1505.1849285232, -619.01096997268, -7914.6196891559
3488, -1426.9184192645, -782.72605345921, -7879.4009981105
3489, 1418.4086029557, -798.04341051176, -2283.8542201122
3490, 1463.6941632296, -711.58671047707, -2136.8727757748
3491, -1324.0740512814, -946.35308248201, -7810.9944639373
3492, -1205.3766307549, -1093.5371178108, -7719.8610152476
3493, -1151.0546532594, -1150.57787012, -7872.2005938469
3494, -1276.73447634, -1009.3093316347, -7963.3340425367
3495, -1111.2237975969, 1189.091216709, -7485.7421878009
3496, -1169.8482988809, 1131.4641875046, -7345.1487328209
3497, -1268.3998293759, 1019.7637583476, -7448.2892735375
3498, -1627.2558525297, 28.189366929888, -5044.6839911329
3499, -1615.7577802465, 195.14877804644, -5018.3943446716
3500, -1621.8104990039, 135.96674343604, -4845.250013335
3501, -1627.1989661668, -31.301349899929, -4871.5396597964
3502, 449.00767251096, 1564.3363960563, -6131.2808196303
3503, 302.04604365674, 1599.2261996076, -6028.5601091385
3504, 207.81811245119, 1614.1771532695, -6143.6119302734
3505, 356.57164278633, 1587.9587253958, -6246.3326407653
3506, 1540.7439458392, 524.27506459846, -4213.9068294436
3507, 1570.0582156784, 428.57140522983, -4275.0361432037
3508, 496.65144693735, 1549.8688945375, -6313.1664239479
3509, 631.81137957648, 1499.8568700505, -6387.0779088875
3510, 690.69540038972, 1473.6675723787, -6280.5676326982
3511, 557.62140884678, 1528.9913715897, -6206.6561477586
3512, -256.44533901766, 1607.1689513228, -4732.5477047355
3513, -203.52517340852, 1614.7240488049, -4593.3845761892
3514, -342.91713172011, 1590.9632587753, -4522.4900280451
3515, -394.98176560671, 1578.8431381357, -4661.6531565913
3516, -372.56579716182, 1584.2824801105, -6326.1394440892
3517, -345.93908466997, 1590.3089007164, -6165.9243721191
3518, -505.30506430712, 1547.0691781512, -6115.9147009147
3519, -531.18406520658, 1538.375681968, -6276.1297728847
3520, -276.9935448012, 1603.7552263792, -1864.1190093744
3521, -359.32948228604, 1587.3369438024, -1725.8366543809
3522, 1571.6966559131, -422.52322041714, -6582.5775205288
3523, 1591.4780255605, -340.52010830204, -6426.8042770184
3524, 1611.0659845887, -230.70033225239, -6485.6479025013
3525, 810.78023726618, -1411.166771455, -4306.2580185777
3526, 962.5159337877, -1312.3716421825, -4327.2697872589
3527, 954.86351163751, -1317.9498943978, -4494.2650026497
3528, 802.55553714801, -1415.8604662159, -4473.2532339686
3529, 655.14173626881, -1489.8139331469, -4444.7348167914
3530, 507.17482470755, -1546.4572244918, -4410.4765718008
3531, 678.93323902643, -1479.1233575821, -4287.0142473073
3532, 1622.4349957882, -128.30017319425, -6296.5243354412
3533, 1572.4690216401, 419.63963823989, -2565.1837363431
3534, 1595.5761773974, 320.76925058645, -2713.6403997215
3535, 1614.7103979827, 203.63344677766, -2604.3465019762
3536, 1624.3594857682, 101.05696905672, -2793.4700805467
3537, 1582.813473796, 378.75817769356, -2966.2241312503
3538, 1560.4997520393, 462.1653101274, -3047.6917460499
3539, 1596.9634161927, 313.78989362627, -3184.3352201345
3540, 1558.0639534646, 470.31156366213, -2814.7518613979
3541, 1611.551394423, 227.28474021209, -2865.1126695739
3542, 1579.4342650084, 392.6113249989, -4039.4188108734
3543, 1598.5894708161, 305.39802519996, -4128.7762188552
3544, 1617.5691693169, 179.51666350332, -3961.522008404
3545, -1610.7456227223, -232.92657401172, -1512.7024863092
3546, -1606.7039019921, -259.34305721071, -1685.1248106452
3547, 1109.1995283864, -1190.9797043726, -1571.5955327639
3548, 1602.1485655479, 286.14021722384, -5438.6252619253
3549, 1599.6149035228, 299.98068342435, -5249.4223085186
3550, 1508.6435946744, 610.533172111, -5878.0123706893
3551, 1440.7892613511, 756.89005435101, -5828.7981818818
3552, 1415.7944027933, 802.67207439851, -5974.6948350261
3553, 701.4161583728, 1468.5951187354, -1951.0774531216
3554, 550.9981995098, 1531.3906210164, -1940.6805012403
3555, 543.80524704687, 1533.9596159235, -2077.7349118736
3556, 694.5162515477, 1471.8707233776, -2088.1318637549
3557, -803.52334342871, -1415.3114450767, -8337.2971930078
3558, -586.40934771623, -1518.1832323244, -8337.5173334097
3559, 1325.5599526925, 944.27065072358, -6030.8499221717
3560, 1393.2593597214, 841.18048393241, -6082.3237859901
3561, 386.25480416944, 1581.0007831295, -7487.9003670456
3562, 330.33103078965, 1593.6240648589, -7631.380870526
3563, 830.74195575341, 1399.5085040653, -6668.0750494997
3564, 708.97286756008, 1464.9620210311, -6571.4441605975
3565, -168.75053352798, 1618.727743456, -1132.0135570143
3566, 1001.4285403077, -1282.9252233303, -7803.4609038684
3567, 1047.4398921859, -1245.6427747382, -7959.571318633
3568, 907.26209132763, -1351.1594086709, -7850.1547998423
3569, 1102.9191292988, -1196.7980799728, -7814.0847549921
3570, 1024.9008782049, 1264.2525221865, -1287.0183003211
3571, 895.84306446411, 1358.7573197049, -1222.3561951213
3572, -1259.1589666322, -1031.1522422754, -8438.6216492557
3573, -1340.0756880258, -923.55476305532, -8325.0642968482
3574, -1273.2568931273, -1013.6928203869, -8207.7152033583
3575, 1390.4026866536, 845.8939761853, -5656.6868543921
3576, 718.53592231696, -1460.2953051832, -787.14094754996
3577, 627.18326115956, -1501.7980579696, -908.04108350492
3578, 807.87229385266, -1412.8335382575, -920.3465045208
3579, -281.3158371652, -1603.002697989, -1853.9566643608
3580, -419.95034472421, -1572.3860715378, -1815.9652161789
3581, -383.31158401305, -1581.7169404041, -1676.8532740215
3582, -244.00328205752, -1609.1049214844, -1714.8447222035
3583, 283.04526307795, 1602.6982339321, -1868.6447999314
3584, 294.25223914396, 1600.6785654087, -1715.0163783817
3585, 1163.5756413374, 1137.9138705923, -2334.3281336948
3586, 1143.6952481878, 1157.8935310609, -2488.902522135
3587, 1239.5953590166, 1054.5897761237, -2519.7660840019
3588, 1257.67240096, 1032.9648502556, -2365.1916955617
3589, -1612.5363707584, -220.18788109582, -8308.0153210845
3590, -1551.8060557093, -490.56520001327, -8332.7618853434
3591, -1587.3599121363, -359.22800467482, -8441.5203115531
3592, 207.67680634536, -1614.1953395132, -3843.6405316471
3593, 319.70659123415, -1595.7894427278, -3799.6130490642
3594, 353.61827010594, -1588.6190131832, -3909.957374415
3595, -1491.4219915518, -651.47271095245, -4696.6213010191
3596, -1457.5254254279, -724.13802843874, -4561.5114825652
3597, -798.57069848322, -1418.1118043102, -3688.6325101405
3598, -809.39746099069, -1411.9603394366, -3826.7526170812
3599, -920.84934089424, -1341.9361912456, -3672.8663058476
3600, -334.23446113881, -1592.8099619814, -2380.6572763955
3601, -214.53372713944, -1613.2983387829, -2256.5469391925
3602, -103.44452014565, -1624.2091864202, -2362.7092809042
3603, -224.26810511547, -1611.9739659895, -2486.8196181073
3604, -330.87983683381, -1593.5102081809, -2603.2439961908
3605, -456.04826997339, -1562.2983791371, -2737.2882089273
3606, -571.16877818834, -1523.9824398013, -2623.7869849662
3607, -448.67337826009, -1564.4323090632, -2489.7427722296
3608, 1587.8523792436, -357.04491556454, -3510.0720347733
3609, 1607.5314866707, -254.16287959164, -3337.2816684602
3610, 506.23592265684, -1546.764830416, -8027.4511391803
3611, 626.68750993845, -1502.0049982897, -8223.883209509
3612, 691.80687116983, 1473.1461241174, -981.4258268918
3613, 695.28590248938, 1471.5073101414, -859.72609675133
3614, 472.10589154602, 1557.5211963782, -8155.4862158968
3615, 303.57481939092, 1598.9367026345, -8244.4423985944
3616, 380.27556328217, 1582.4496029796, -8397.0429123885
3617, 546.61499929963, 1532.9606298078, -8308.0867296909
3618, -1511.9247473053, 602.36185842538, -5742.7221326274
3619, -1422.1462653959, 791.36353834402, -5616.3252617474
3620, -1498.4798598915, 635.07035791293, -5563.9652766983
3621, 1612.8812066179, -217.64756681086, -6214.6066833892
3622, 1625.0194372861, -89.822482943935, -6037.0161714775
3623, 720.59562031641, 1459.2800286377, -7679.141066314
3624, 737.71863311308, 1450.6989585568, -7511.5397768557
3625, 856.89299571507, 1383.6512002287, -7512.1808259529
3626, 868.94329558569, 1376.1154744631, -7348.3633074536
3627, 1529.8997550414, -555.12430096717, -6900.1889427741
3628, 1495.1994214644, -642.75573902735, -7041.5649492737
3629, 1572.0907950996, 421.05436936716, -6010.4487142641
3630, 1599.763170224, 299.18898575118, -5795.2004944687
3631, 1554.348869272, 482.44776151722, -5891.2392170767
3632, -542.54403946608, -1534.4061441613, -1175.6204876449
3633, -377.37675436686, -1583.143403253, -1196.418073062
3634, -390.64505528288, -1579.9217356512, -1346.1926825627
3635, 600.7561485616, 1512.5634862595, -4046.294720577
3636, 469.64362767786, 1558.265418015, -4242.2619661979
3637, 633.14145937931, 1499.2958822111, -4198.270579958
3638, 776.22747252084, 1430.4639670065, -4141.821288687
3639, 901.49890535819, 1355.0114293385, -4078.7753798349
3640, 719.4743891904, 1459.8331594052, -4010.3439542006
3641, -217.18668972946, -1612.9433318639, -1343.9620410585
3642, -198.56817359334, -1615.3411189083, -1514.3148761152
3643, -372.39587930821, -1584.3224290132, -1516.5455176195
3644, -1421.6704861928, 792.21794898137, -7776.3549804849
3645, -1502.9595629239, 624.39474870906, -7787.035038309
3646, -1501.5300799584, 627.82455270578, -7937.7370355542
3647, -1419.8580552204, 795.46172316818, -7927.05697773
3648, 520.98398293504, -1541.859896205, -8369.2618393271
3649, 457.75006303174, -1561.8006050051, -8474.038968708
3650, 643.69732903958, -1494.7942997574, -8456.8142936237
3651, 729.21691766737, 1454.9910436108, -708.17825558885
3652, 612.8229996237, 1507.7149004809, -574.38585834435
3653, -923.32575245561, 1340.233488931, -5786.865245958
3654, -923.24038849235, 1340.2922946345, -5980.2511702509
3655, -804.59163616343, 1414.7044034058, -6009.165772866
3656, -804.68173982, 1414.6531545224, -5815.7798485731
3657, -1127.9073101065, -1173.2780360206, -7344.8227355868
3658, -985.37455805167, -1295.2965800713, -7336.1833696203
3659, -970.55907296632, -1306.4345892094, -7485.422186647
3660, -1114.4721987832, -1186.0472031666, -7494.0615526135
3661, -1241.2563204248, -1052.6343130477, -7540.1842821796
3662, -1359.8587006205, -894.17032177695, -7606.6955389426
3663, -1385.3489245011, -854.14554227226, -7463.0338094433
3664, -1271.4167446541, -1015.9998579789, -7396.5225526803
3665, 1618.7167872135, -168.85559745858, -5722.8615781855
3666, 1625.3551175841, -83.5283888462, -5793.5466302912
3667, 1618.7688828437, 168.3554392856, -5534.1161845698
3668, 1607.3483875023, 255.3182547212, -5671.8892881044
3669, 1602.4296662358, -284.561794286, -5847.8370006768
3670, 1586.5702114575, -362.69989538977, -5766.4539953998
3671, -1371.8617466015, -875.64353375764, -3238.2988996681
3672, -1419.056911794, -796.89003701243, -3099.5721294496
3673, -1305.2206041908, -972.19104315756, -3155.866408444
3674, 1058.3936427047, 1236.3491202255, -6205.5384512392
3675, 924.13366094824, 1339.6765380876, -6118.4305753842
3676, 874.77008286003, 1372.4188690531, -6241.7742424269
3677, -415.41652206159, -1573.5899603131, -4378.241889163
3678, -537.77709928657, -1536.0833445757, -4301.9703637026
3679, -459.44257139826, -1561.3035494698, -4170.3973065015
3680, -335.34250927654, -1592.577047264, -4246.6688319619
3681, 1424.2532515428, 787.56518807631, -7218.991074822
3682, 1558.9912464944, 467.22857720164, -5729.5797003048
3683, 1429.7309373133, -777.57681092563, -1822.025860232
3684, 998.76265646483, 1285.0017144157, -2594.2849586096
3685, 305.60627009226, 1598.5496731976, -6749.2603912358
3686, -1622.7160148158, 124.69557033104, -6207.8921441311
3687, -1627.1144134022, -35.425071614022, -6269.5389531355
3688, -1627.2591409609, 27.998895678268, -6391.4807020423
3689, -1621.470763976, -139.96003562132, -6432.7073912447
3690, -908.75879824601, 1350.1532122728, -6664.4632394476
3691, -937.32521306683, 1330.4802497404, -6820.8121928654
3692, -795.36681595056, 1419.9112219025, -6858.088924428
3693, -649.64096767345, 1492.2207822974, -6893.4209581654
3694, -494.61927942006, 1550.5186288549, -6938.570892986
3695, -458.12474881662, 1561.6907390779, -6790.8593483531
3696, -655.06701996358, 1489.8467872087, -5498.7377879448
3697, -496.28852263809, 1549.9851458313, -5411.2289073827
3698, -600.22961818589, 1512.7725061794, -5261.3455758262
3699, -754.56565094159, 1442.0079501928, -5348.8544563883
3700, -903.25100668805, 1353.8441080557, -5428.5728995905
3701, -1042.8382394685, 1249.4977616235, -5518.5044304722
3702, -981.47068855279, 1298.2571153326, -5657.2292103132
3703, -837.02148505344, 1395.7619007406, -5567.2976794315
3704, -250.72739737717, -1608.0709008637, -3700.084395663
3705, -460.14040044841, -1561.0980308344, -3722.5930441442
3706, -346.41733304568, -1590.2047922722, -3596.3412832498
3707, -348.12045871238, -1589.8328202128, -3446.4222255896
3708, -371.69025734798, -1584.4881200541, -3245.7991108392
3709, -191.6800374136, -1616.1729527675, -3225.4226137649
3710, -167.65958349829, -1618.8411021657, -3426.0457285153
3711, -520.88996312601, -1541.8916616658, -3585.8150459377
3712, -522.54123880696, -1541.3328335392, -3435.8959882775
3713, 1416.8284729846, 800.84538341685, -2282.8402271734
3714, 1406.7852056316, 818.35911140282, -2404.3978139746
3715, 1462.1298410687, 714.79547973975, -2313.7771291339
3716, -702.67394974898, 1467.9937228558, -8088.5479885309
3717, -587.69196948126, 1517.6871874689, -8212.75135193
3718, -80.830621872829, 1625.491513533, -1054.9167317067
3719, -267.03481387296, 1605.4434459612, -1022.7163828043
3720, 691.85041179676, 1473.1256761379, -7997.5760547318
3721, 589.25265751186, 1517.0819211945, -8115.7242758192
3722, 666.15129225341, 1484.9238047217, -8206.2559365728
3723, 766.3640244775, 1435.7724165015, -8088.1077154854
3724, 739.01117801758, -1450.0409403755, -4967.5429556046
3725, 778.19133757501, -1429.396548241, -5196.7288512057
3726, 655.70148195628, -1489.5676609541, -5115.1444346087
3727, 1495.5215078851, -642.00597306656, -7766.6195748072
3728, 1422.4775816358, 790.76784187486, -970.04686153327
3729, 1495.3222383108, 642.46996319919, -1332.7521805747
3730, 588.47315935379, -1517.3844571236, -5223.5763933027
3731, 493.00941892708, -1551.0312578569, -5151.0230842697
3732, 561.83690530324, -1527.4473941316, -5042.5911255757
3733, 986.88683209497, -1294.1447487192, -6397.7467139049
3734, 1059.1677044161, -1235.6860539481, -6223.0958184478
3735, 1079.7729099713, -1217.7219357851, -6362.4511199115
3736, 388.99586981851, -1580.3285934464, -1534.7601517496
3737, 425.26834250582, -1570.956105963, -1422.6494990575
3738, 532.20344909397, -1538.0233219209, -1475.3124749949
3739, -645.17627771558, 1494.1565582873, -7792.0867304683
3740, -659.68889414967, 1487.8060400925, -7943.9071438339
3741, 986.61375398437, -1294.3529466297, -2229.0566376161
3742, 811.82952936716, -1410.5633857603, -2121.9503596208
3743, -751.78940022124, 1443.4572898825, -2637.0740087738
3744, -912.31119970537, 1347.7553653732, -2591.2967630971
3745, -845.59245633298, 1390.5860806842, -2721.838021475
3746, 158.50622412315, -1619.762953927, -2780.0814045496
3747, 395.31124247355, -1578.7606758385, -2828.9678696805
3748, 245.46171835298, -1608.883089234, -2915.5455461359
3749, 124.30019717525, 1622.7463483189, -8433.3036968295
3750, 7.3102361534795, 1627.4835822359, -8579.2449721559
3751, 244.01108802501, 1609.1037377748, -8521.5587246736
3752, -83.94349599528, -1625.3337317241, -7078.292856186
3753, -169.77982556982, -1618.6201101029, -6982.7533333455
3754, -54.198825200603, -1626.5972880055, -6873.4386980263
3755, 775.89940208778, 1430.6419425698, -2829.4693597775
3756, 713.37603583535, 1462.8229152894, -2974.633304277
3757, 837.20221890145, 1395.653500933, -3048.5485680955
3758, -1127.3459215212, 1173.8174573712, -2339.6201906864
3759, -1000.0115204685, 1284.0300654309, -2465.9506826125
3760, -917.00984752074, 1344.5628246943, -2314.9652764935
3761, -1051.0438943564, 1242.603308436, -2188.6347845673
3762, -277.51768975084, -1603.6646101587, -7732.9021941717
3763, -336.02128430093, -1592.4339692737, -7925.1797814791
3764, -1445.9545158151, -746.97509208409, -1971.9714139731
3765, -1519.5317288564, -582.90614596069, -1942.268455254
3766, -1511.6304645006, -603.09998241883, -1774.1882051556
3767, -1435.8737994237, -766.17405472156, -1803.8911638746
3768, 1115.3283934033, -1185.2420954676, -3189.8618730277
3769, 1112.8701749406, -1187.5505141794, -3353.0380507055
3770, 1021.8055068814, -1266.7556023586, -3321.2363500747
3771, 1024.4280339451, -1264.6356998232, -3158.0601723969
3772, 478.08220876251, 1555.6971593677, -1743.5653644602
3773, 493.68291520094, 1550.8170199088, -1578.6458089055
3774, 1610.448444853, 234.97245896206, -6105.1011222712
3775, -329.12156012541, 1593.8742888511, -8002.3611852548
3776, -341.85291417054, 1591.192268418, -8123.8635639696
3777, -209.94181043126, 1613.9023161991, -8004.0948985851
3778, 555.82023660388, -1529.6470555594, -7404.2427562306
3779, 617.83365995027, -1505.6685620124, -7559.9569003718
3780, 469.30260398667, -1558.3681580074, -7654.6643746335
3781, 960.68922170142, 1313.7094310793, -5966.4764420187
3782, 1099.0184052619, 1200.3811040231, -6067.7874649433
3783, 1016.5455321655, 1270.9804998639, -5836.4823359002
3784, -1532.3386521303, -548.35618459854, -2401.8213577426
3785, -1485.2617607266, -665.39743922204, -2475.2673199564
3786, -1585.1503448685, 368.85584469194, -6116.977849772
3787, -714.19539554124, 1462.4230533562, -4063.8742169014
3788, -655.7631451011, 1489.5405155709, -3885.6104704222
3789, -802.65197072191, 1415.8058002057, -3818.9427351201
3790, -858.05123842528, 1382.9332313011, -3997.2064815993
3791, -1618.603124033, 169.94168667744, -6114.5407949247
3792, -1580.1863544814, 389.57327309623, -5979.2136801405
3793, -1616.2399801085, 191.11404108224, -5976.7766252932
3794, -34.78898767497, -1627.1281376513, -1459.7830295079
3795, 28.57908113825, -1627.2490547305, -1598.6019308377
3796, -135.53481103315, -1621.8466527382, -1653.133777445
3797, 113.84700616858, -1623.5131995726, -1401.7976054839
3798, -85.663464036166, -1625.2439881228, -1346.7604280866
3799, 63.012874923313, -1626.2796892275, -1288.7750040626
3800, 5.8652445698337, -1627.4894312733, -8206.7097103264
3801, 122.79077360144, -1622.8612620672, -8330.539333038
3802, 401.53458502332, 1577.1893440644, -7398.8751523436
3803, 279.63823867501, 1603.2962001672, -7372.1006340097
3804, 264.11155271776, 1605.9269403435, -7461.1258487116
3805, 316.83990857031, 1596.3610877045, -7170.9889325796
3806, 211.10283014707, 1613.7508621543, -7265.4887052562
3807, 384.53878115508, 1581.4190386446, -7277.600861333
3808, 1551.778215734, -490.65325757954, -6476.8050083023
3809, 1540.6406746235, -524.57846095278, -6338.3523728542
3810, 1583.6245875526, -375.35238869478, -6288.3516415704
3811, 96.13160317145, 1624.6584148281, -8085.101820479
3812, 70.88605678229, 1625.9555396609, -7918.7806744987
3813, -90.746552378645, 1624.9680960657, -7952.1074612058
3814, 340.4639835302, 1591.4900332452, -2921.4076449446
3815, 215.45287226312, 1613.1758459119, -3001.8050191103
3816, 284.57702673854, 1602.4269611601, -3117.1219733925
3817, 408.54074957437, 1575.3890649415, -3036.7245992269
3818, 445.53488049847, 1565.3290134215, -2819.4254795576
3819, 337.71458227756, 1592.0757239896, -2680.3207995717
3820, -647.19103133458, 1493.2849758034, -4440.0628708914
3821, -563.27728285649, 1526.9168126057, -4558.9949840739
3822, -451.10712836836, 1563.7322688796, -4474.6636684891
3823, -537.23811931867, 1536.2719333344, -4355.7315553067
3824, -104.44882469943, 1624.1449113361, -4139.7642534041
3825, -102.02596607364, 1624.2989109911, -3978.4512300093
3826, -264.03204942126, 1605.9400134745, -3958.5725314945
3827, -266.42734177164, 1605.544369227, -4119.8855548893
3828, -274.52975650662, 1604.1788125993, -4261.1243575993
3829, -301.94378494301, 1599.2455098372, -4404.8780090853
3830, -161.42788549372, 1619.4743862701, -4446.0185030831
3831, -133.68823580359, 1621.9999092502, -4302.2648515971
3832, -409.85992553097, 1575.0463775533, -4098.9868528721
3833, -417.8065390173, 1572.9570706012, -4240.2256555821
3834, -443.10623702647, 1566.0182351136, -8561.7549279344
3835, -528.37512070645, 1539.3427109706, -8367.2971598463
3836, 1625.0625261295, 89.039520267833, -3374.3345255072
3837, 1608.9444656258, 245.05908783832, -3520.369705116
3838, 918.17046514977, -1343.7705335833, -1748.2676580155
3839, 1013.4929659376, -1273.4159799512, -1654.7750503807
3840, -873.82890925956, 1373.0183128212, -3617.8759754615
3841, -918.72859123078, 1343.3890075682, -3763.8321566142
3842, -755.42238769795, 1441.5593176019, -3672.9865539675
3843, 1521.2704854463, 578.35314480854, -2316.8695048875
3844, 1489.610565018, 655.60400745167, -2230.6150322783
3845, 1442.9384486685, 752.78475233904, -2136.8015882516
3846, 1518.8223567226, 584.75199761917, -2113.9157549905
3847, 1476.7768817953, 684.02214247422, -2020.1023109638
3848, 1475.7101455104, -686.32049105191, -5124.72428677
3849, 1465.2946204181, -708.28520058916, -4959.506819208
3850, 1541.7653713108, -521.26364713736, -4899.7950101355
3851, 614.33337034157, -1507.1001161452, -6254.8298792138
3852, -156.76878012009, -1619.9320354816, -4969.2642647775
3853, -314.69426235546, -1596.7854493452, -5042.7152487665
3854, -384.63041556465, -1581.396753956, -4923.6087379117
3855, -227.87599369943, -1611.4678965141, -4850.1577539226
3856, 197.66468280033, -1615.4519253675, -1814.9659012794
3857, 189.60032441469, -1616.4182524897, -1669.6791118343
3858, 300.64932191641, -1599.4893670266, -1666.9533251772
3859, 308.62781401977, -1597.9690617823, -1812.2401146223
3860, 273.24845937241, 1604.3975596624, -8047.4415486891
3861, 126.87329868761, 1622.5471999545, -8282.1026703844
3862, -714.25131717058, 1462.3957418976, -4225.6992797592
3863, -868.18132429374, 1376.5963235995, -4272.1459788392
3864, -1373.1592878935, 873.60736035813, -4990.5302840198
3865, -1459.5407192274, 720.06745442162, -5089.3127169206
3866, -1419.381237453, 796.31222065614, -5249.0725100434
3867, -1324.9939582624, 945.06468591734, -5150.2900771426
3868, -954.60846499129, 1318.134639772, -4893.4839018559
3869, -1038.2660542347, 1253.2995853442, -5135.1218064067
3870, -880.71526295046, 1368.6112945633, -5048.5194846684
3871, -750.98764136502, -1443.8745833752, -2378.7987804555
3872, -664.35196660142, -1485.7296909172, -2265.43247714
3873, -572.983281298, -1523.3011551735, -2359.0547039896
3874, -661.99884744311, -1486.7796662532, -2472.4210073051
3875, -950.13811509386, -1321.360591302, -2811.0139213986
3876, -1004.5227155252, -1280.5039492301, -2669.5659428629
3877, -891.52833245933, -1361.5922599744, -2617.9408258251
3878, -833.85406147863, -1397.6564864642, -2759.3888043608
3879, 484.6727923377, -1553.6565046263, -4577.245946061
3880, 634.69385795046, -1498.6393684539, -4606.593329281
3881, 614.55139826956, -1507.0112238749, -4764.9394451231
3882, -475.78703794988, -1556.4006375348, -6930.480950656
3883, -426.10828599796, -1570.7284865959, -7074.6399511644
3884, -591.35001484425, -1516.2656132564, -6971.3118941081
3885, 1592.9217108472, 333.70147304397, -6334.8824212121
3886, 1559.9878752406, 463.89015844519, -6377.7228519991
3887, 1554.050999503, 483.40639315546, -6235.0979206157
3888, -95.421181712902, -1624.7002948484, -4524.9703600664
3889, -247.19454496104, -1608.6177628453, -4644.0508343378
3890, -356.48674137302, -1587.9777873841, -4511.7423767093
3891, -206.16624594679, -1614.3889646031, -4392.6619024379
3892, 619.22910637449, 1505.0952009154, -5482.6303303604
3893, 639.85570366774, 1496.4427581715, -5614.1572248124
3894, 763.24595545665, 1437.4323850112, -5589.5901864755
3895, 743.4187060121, 1447.7861988399, -5458.0632920235
3896, -1094.3451346435, 1204.643090829, -7996.5195182464
3897, -1192.9655895605, 1107.0633911951, -8019.6138132909
3898, -1188.6337082707, 1111.7131633486, -8176.2851142993
3899, -269.35974535907, 1605.0550076493, -7861.6722520261
3900, -619.34132858396, 1505.0490253503, -1249.218042632
3901, -739.45010433563, 1449.8171585404, -1321.0373272111
3902, 231.7578593276, -1610.9141953065, -7230.6722658789
3903, 98.50804394034, -1624.516055716, -7346.5403083729
3904, 3.2409582055397, -1627.4967730198, -7217.0674894213
3905, 1624.9567805977, 90.948948260471, -4753.023599186
3906, -1509.5053430719, -608.39943231181, -8225.8288856359
3907, -1460.0266609847, -719.08163598716, -8336.3889994435
3908, -1510.9817965884, -604.72329240605, -8443.321999151
3909, 1591.7100935697, -339.4336872324, -3157.9067400585
3910, 1205.7762941419, -1093.0964177443, -6419.3864010749
3911, 1106.763559197, -1193.2437613638, -6474.4902526234
3912, 1331.401054991, 936.01681649889, -5648.4737408855
3913, 1261.7403127134, 1027.9920394993, -5579.2780004488
3914, 1397.272383245, 834.49753565892, -5530.5854958835
3915, 1339.0095832336, 925.09977084025, -5522.3723823769
3916, 708.41821771206, 1465.2303159619, -1711.0117555843
3917, 600.66718508718, 1512.5988175189, -1787.5822677674
3918, 681.96726210851, -1477.7269380411, -7273.9905969332
3919, 453.58370287036, -1563.0156987345, -7248.2268736263
3920, 761.94815927446, 1438.1207364398, -1148.8635876273
3921, 1320.856237196, 950.83912974829, -6181.3043977654
3922, 73.74999995457, -1625.8281543591, -7585.3964666003
3923, -1615.2905665017, -198.97898323808, -6933.5282215961
3924, -1618.0010259384, -175.5816905664, -7078.0220892566
3925, 734.96307570675, -1452.0969414428, -3310.6046620724
3926, 851.07834479245, -1387.2353444983, -3380.0918706466
3927, 812.85655262157, -1409.9717993138, -3512.7027221329
3928, 695.01239395185, -1471.6365115929, -3443.2155135587
3929, -1164.2113954464, -1137.2634157101, -8552.4112196726
3930, -1325.2100460251, -944.76165455321, -8553.7104295831
3931, 998.56313795483, -1285.1567645691, -6704.4432172432
3932, 925.51546229474, -1338.7222934774, -6532.1636722121
3933, 1048.2277525968, -1244.9798507148, -6576.4352876869
3934, -13.697572945265, -1627.4423573495, -7698.1591684265
3935, 173.38323162305, -1618.2380866214, -7667.9502199622
3936, 947.87642098465, -1322.9839532441, -1501.0036441374
3937, -106.06212760011, -1624.0403551294, -7847.73136097
3938, 13.286406117962, -1627.4457660434, -8081.0459029155
3939, -155.04415118194, -1620.0980097464, -8022.4772148994
3940, 1610.3822416516, -235.42575426889, -2998.3062637924
3941, 1577.6629515119, -399.66969040283, -3036.2268003168
3942, 1539.7632241787, -527.14842641021, -4663.0780390915
3943, 1502.764305968, -624.86453788679, -4529.57729758
3944, 1542.2967528053, -519.6893074581, -4432.3276616834
3945, 1572.4653877997, -419.65325468992, -4565.828403195
3946, -497.93070139922, -1549.4583784678, -8216.8983829302
3947, 1403.853514793, -823.37813852653, -7198.9149352186
3948, 1425.873903794, -784.6272111514, -7014.3175805291
3949, 1307.6530142807, -968.91684072611, -7328.3323607795
3950, 1425.8485663216, 784.67325423935, -1918.3249475049
3951, 1373.7190162419, 872.72694149738, -2061.0069375563
3952, 1196.7127511721, -1103.0117139822, -2100.5661360677
3953, 1102.5380206342, -1197.1491816211, -2177.5243841119
3954, -692.53079044572, -1472.8059459021, -4446.0947792061
3955, -633.55720923513, -1499.1202462198, -4579.5971598265
3956, -758.46706571199, -1439.9597078496, -4651.9905727903
3957, -814.99532832028, -1408.7366201019, -4518.4881921699
3958, -19.113996336034, -1627.3877550062, -1799.2664370312
3959, 74.314461777287, -1625.8024513362, -1707.7100651875
3960, 514.55893428926, 1544.0159821527, -508.66855078887
3961, -1457.3305535144, 724.53012897553, -3682.9739770464
3962, -1352.8236204078, 904.77870336715, -3684.4832239274
3963, -1350.4437032516, 908.32706353383, -3494.9337338375
3964, 169.39391068196, -1618.6605428637, -8213.8902671632
3965, 1533.9154673007, 543.92976492891, -3907.1228677673
3966, 1541.3146402338, 522.59490028227, -4075.0261309879
3967, -1621.7338606478, 136.87781130755, -8447.9721415355
3968, -1627.4711932786, 9.6832354313789, -8558.138099139
3969, 1471.9153959663, 694.4215701701, -3901.8771672477
3970, 1233.7243085935, -1061.4521093227, -7296.8361061914
3971, 1132.6803929521, -1168.6707737519, -7309.1823851089
3972, 1129.906629776, -1171.3527470358, -7188.0028490481
3973, 1483.5590201308, 669.18523877061, -5176.0154535371
3974, 1467.1915422933, 704.3473775226, -5351.3875780678
3975, -592.12632157116, -1515.9626213408, -3788.4670652193
3976, -573.85098841365, -1522.9744886559, -4000.1051901815
3977, -680.44331874623, -1478.4292813569, -3898.7040502098
3978, -651.00812309427, -1491.6248434728, -3651.6890670128
3979, 653.48534613442, 1490.5412280067, -2266.1540714968
3980, 793.73500901444, 1420.8240515507, -2317.0412243307
3981, 1308.7361640662, -967.45330784757, -2567.8970663204
3982, 1376.4997907104, -868.33436887769, -2377.3040156451
3983, 144.08319452873, -1621.1095839129, -1560.5709774845
3984, 256.35522855197, -1607.1833270645, -1384.9448991085
3985, 286.26234270775, -1602.1267494014, -1543.718271109
3986, 1429.1554010345, 778.6341179873, -6674.3387508971
3987, 1542.04798324, -520.42700485804, -6657.5462375562
3988, 1553.4110274828, 485.45898868484, -2222.2277744482
3989, 1551.4447376847, 491.70669703639, -2431.0663164311
3990, 1624.9976429371, -90.21591017648, -2879.3976948838
3991, 705.51385883668, 1466.6309846002, -2611.8999981443
3992, 748.8372204962, 1444.9910266848, -2468.9597969959
3993, 622.95506189011, 1503.5568631966, -2412.0102610454
3994, 976.72912142253, -1301.828127429, -7301.7138123428
3995, 877.6304462848, -1370.5914963088, -7218.2179401227
3996, 940.03976554821, -1328.5636940652, -7102.4761016529
3997, 1035.8543712754, -1255.293579809, -7185.971973873
3998, 992.53901862647, -1289.8149272295, -6903.7532757344
3999, 1042.3080818321, -1249.9400435811, -7012.631432951
4000, 485.50113961767, 1553.397854199, -2373.8021563225
4001, 517.07633819961, 1543.1747504654, -2227.9459667738
4002, 988.55431275342, 1292.8714633468, -7204.7499670368
4003, 987.87415395218, 1293.391242414, -7340.9833843623
4004, -356.90566506086, -1587.883684735, -1049.1392070307
4005, -216.82382257626, -1612.9921512405, -1215.5513895801
4006, 1541.830442037, -521.07114486204, -3570.8851960341
4007, 1596.4975297846, -316.15168415122, -3670.0535877485
4008, -219.02823549959, 1612.6942928075, -548.00453167442
4009, -1540.6170228543, 524.64791898134, -621.34048452449
4010, -1482.8889799574, 670.66871339046, -517.58664631811
4011, -1556.6342960862, 475.02201869845, -518.75383820637
4012, -83.357051137288, 1625.3639137208, -8450.550711724
4013, 535.81470233701, -1536.7689659671, -6735.7305623481
4014, 684.76053247136, -1476.4346457495, -6604.3918232557
4015, 138.03253073124, 1621.6359858057, -7514.1943232373
4016, 205.00993894882, 1614.5362104741, -7684.4493450516
4017, 1483.6030294148, -669.08766324835, -6080.5780826794
4018, 1417.9852173206, -798.7954515771, -6081.6677050584
4019, 1423.4148144173, -789.07953724418, -5938.5059787294
4020, 1488.1440539864, -658.92603878192, -5937.4163563504
4021, 1346.7819391202, -913.74759012515, -6100.8099033865
4022, -85.297832949383, -1625.2632185877, -1218.3497766082
4023, 120.76024658136, -1623.0136206593, -1171.8293501882
4024, 361.30767186983, -1586.887839845, -1967.6549397243
4025, -658.2631231336, -1488.4374057119, -753.25969585262
4026, -753.79284026142, -1442.4120784196, -858.42998968197
4027, 1311.7021340178, 963.42812996773, -5149.5367844535
4028, 1420.7115612927, 793.93633851162, -5110.5928143645
4029, 1353.5177693155, 903.73995050963, -5029.7202150832
4030, 1342.9720083914, -919.33804156968, -1324.2551505609
4031, 728.28679572702, -1455.4568331523, -1072.2713105903
4032, 1613.6657631498, -211.75234317059, -3639.8224205959
4033, 1233.0742246298, 1062.207233337, -1526.1629132041
4034, 1255.9407696846, 1035.0695788419, -1640.4786778864
4035, 1556.1586607358, 476.57787675985, -3200.3885487305
4036, 1564.6837424841, 447.79575255464, -3325.4938783765
4037, 1602.4791720353, 284.28287530749, -3309.4405497805
4038, -1023.1844396743, -1265.6420712067, -6764.6840153381
4039, -1025.3668464411, -1263.8746299453, -6941.1657173591
4040, -1135.1563675246, -1166.2659522032, -6926.2204208396
4041, -1133.1422260666, -1168.222986208, -6749.7387188186
4042, 1254.5961832704, -1036.6989278105, -7589.4845472317
4043, 1286.2870998149, -997.10668779718, -7449.7653587725
4044, 1537.0535692568, 534.99773385966, -2641.9937091618
4045, 1521.6674161644, -577.30799802494, -6240.0792980197
4046, 569.27262069989, 1524.6917502635, -4534.5551987387
4047, 412.61283292733, 1574.3274437371, -4571.3916795863
4048, 589.79042763973, 1516.8729351744, -4688.6025175888
4049, 750.34206728701, 1444.2101758607, -4631.8824580623
4050, 619.20358417479, 1505.1057010539, -4841.6816467041
4051, 778.31047692558, 1429.3316800197, -4784.9615871776
4052, -1074.203813016, -1222.6374843353, -7673.7382856815
4053, -938.1064250345, -1329.9295414829, -7670.2489525344
4054, -926.95012773946, -1337.7293114393, -7801.0475855458
4055, -1063.9401422036, -1231.5793209566, -7804.536918693
4056, 408.27005608139, -1575.4592382246, -7851.8625439771
4057, 348.74591776731, -1589.6957365611, -7739.5799247297
4058, 527.56361733004, -1539.6210181956, -7766.9469938808
4059, -321.3308868584, 1595.4631650874, -659.6303864219
4060, 1473.1569018484, -691.78392040899, -2841.2118385973
4061, 1399.5632622859, -830.64970045117, -2797.1895522248
4062, 895.63471358501, -1358.8946647263, -7413.7876616335
4063, 867.91347422642, -1376.7652128291, -7561.9525189732
4064, 751.16394708018, -1443.7828696196, -7527.8187603889
4065, 780.26723997006, -1428.2644307794, -7379.6539030491
4066, 841.95098123948, 1392.7938810857, -1656.6765644196
4067, 789.88615060246, 1422.9673640272, -1496.3308104788
4068, 653.76680907917, 1490.4177969101, -1550.6660016435
4069, 1460.6909552675, -717.73127506033, -2974.3420999617
4070, 1516.0675998104, -591.85748521506, -3015.8337396213
4071, -691.07557074047, -1473.4893299667, -1145.621876167
4072, -666.8396014074, -1484.6148308551, -1005.3357080966
4073, -517.32988453398, -1543.0897707418, -1035.3343195745
4074, -785.91829284182, -1425.162687898, -965.34933754095
4075, -633.41211750078, -1499.1815565178, -898.41636023763
4076, -504.14164254544, -1547.4486919609, -888.74055650993
4077, -704.2172328419, -1467.2540131036, -4836.4949391277
4078, -822.6706324432, -1404.2682366683, -4770.0796730133
4079, -637.29217775679, -1497.5362867624, -4718.4058389047
4080, -692.97731877375, -1472.5959003288, -3028.4796715681
4081, -649.55023223531, -1492.2602808502, -2839.8809330425
4082, -514.61359396984, -1543.9977651867, -2870.9266391048
4083, -559.6138694989, -1528.2632518858, -3059.5253776304
4084, 635.92882284681, -1498.1157439506, -7750.1756840843
4085, 543.54447989553, -1534.0520357456, -7908.9321246367
4086, 692.42588741732, 1472.8552679861, -1296.7411182364
4087, 829.95681645773, 1399.9742614832, -1370.2337257304
4088, 1209.8640156718, 1088.570307138, -6879.453673912
4089, 1119.5401776875, 1181.2645937906, -6765.1039367786
4090, 1051.8261675028, 1241.9412076891, -6876.63526867
4091, -529.8134513745, -1538.8482565681, -743.58389212492
4092, -1232.6319230337, -1062.7204676293, -1705.6913943751
4093, -1334.8794313487, -931.04949050103, -1679.7416102888
4094, -1325.5438277752, -944.29328635068, -1533.2372845904
4095, -1221.990482543, -1074.9397706729, -1559.1870686766
4096, -837.88348343893, 1395.2446087265, -797.96455762771
4097, -902.02506524028, 1354.6612239517, -661.22706112597
4098, -1004.0805708168, 1280.8506772096, -729.8984243396
4099, -943.26939276966, 1326.2726351184, -866.63592084133
4100, -970.79746758355, 1306.2574504796, -523.59837808194
4101, -416.92150699087, -1573.1918849932, -8086.2659727329
4102, 1241.1396198032, 1052.7719098431, -6540.1152629543
4103, 1200.7372606892, 1098.6292735917, -6291.3140875009
4104, -1087.7637080901, 1210.5892636902, -3773.7799055187
4105, -1181.1198130242, 1119.692920975, -3609.1143613192
4106, -1264.5643317128, 1024.5161301608, -3713.694392705
4107, 427.07237864923, 1570.4666291886, -1896.6635979332
4108, 1533.2164693241, -545.8969758052, -6119.9383450965
4109, 1554.7757332119, -481.07033728499, -5781.9000435322
4110, 1548.6050605641, -500.57828198534, -5939.6808211176
4111, 1336.8491362207, 928.21906734667, -2388.7330997399
4112, 1343.6178221775, 918.3939230673, -2207.045576478
4113, 1265.2110870888, 1023.7173218753, -2183.5041722998
4114, 1301.6200252745, -977.00642771908, -6715.8995274225
4115, 1325.3569055821, -944.55562188033, -6865.5205456111
4116, 1248.1273723487, -1044.478009531, -6903.1207819723
4117, 1236.692107487, 1057.9928550228, -6153.563101205
4118, 1180.1158662302, 1120.7509947673, -6651.2861736415
4119, 1012.6688920062, 1274.0714128976, -6657.0251679199
4120, -257.00469047139, 1607.0795994834, -7466.8195556898
4121, -391.77126502601, 1579.6428475766, -7509.9692806401
4122, 948.44799668241, 1322.5742503123, -6771.2239415415
4123, 898.90994930079, 1356.730316993, -6553.8762758781
4124, 1623.1529988138, 118.87216849062, -5295.2811361791
4125, -1053.1002773775, 1240.8610138881, -4200.7355790675
4126, -1059.2694597541, 1235.5988271411, -4019.7251183207
4127, -1160.8289345406, 1140.7157554506, -4206.5753767049
4128, 622.4804285871, 1503.7534259399, -1394.6629061842
4129, 251.52535065969, 1607.9462826772, -7857.4813621951
4130, 436.75000194442, 1567.8028210848, -8021.3283828862
4131, -1137.3873050029, 1164.0903609334, -687.24274062455
4132, -1078.8852027373, 1218.5085019459, -794.27297772488
4133, -1065.7324601428, 1230.0286880386, -622.86818723927
4134, 710.51588398357, 1464.2142700462, -7862.3235478502
4135, 849.07986137704, 1388.4594480949, -7671.6263204393
4136, 1325.7167555292, 944.0504934108, -6652.4659941095
4137, 1361.3271845239, 891.93303934562, -7107.0162104138
4138, 1293.4446871561, 987.80417657936, -6991.3234284969
4139, 1347.5545782269, -912.6077518297, -5002.9069856775
4140, 1407.8153527571, -816.58568597635, -4997.2490819233
4141, 1401.9953284992, -826.53817145152, -5124.5355143597
4142, -1524.9251589049, -568.64708716302, -3578.1823773489
4143, -1567.8858314099, -436.45190990984, -3663.1083001263
4144, -1590.1307528759, -346.75703130321, -3534.7418126671
4145, 768.50384634822, -1434.6282055459, -7718.0375441013
4146, 888.44947152195, -1363.603236485, -7691.3227406486
4147, -1252.9900857179, -1038.6395405012, -5419.0185823111
4148, -1382.9153007688, -858.08013664203, -5491.8410056929
4149, -1413.3969119334, -806.88624931718, -5334.844326944
4150, 363.89880258862, -1586.2956570181, -7112.0702150189
4151, 406.15243919183, -1576.0064867057, -6865.4662452007
4152, 1625.4250267592, -82.156754955867, -4967.3722229729
4153, 1064.6329847571, -1230.980445729, -7417.3315455629
4154, 987.69004672958, -1293.5318401923, -7529.4053948536
4155, 1024.003050649, 1264.9798426305, -1654.3597825317
4156, 948.4243994301, 1322.5911721185, -1552.6290793205
4157, -493.05163961166, 1551.0178369949, -8246.7512481137
4158, -663.02643561245, 1486.3216999287, -880.62290990974
4159, -585.25765627345, 1518.6275796828, -1024.7462555696
4160, -472.36599637361, 1557.4423313465, -957.60290719294
4161, -552.29362574585, 1530.9239043664, -813.47956153307
4162, 1184.1514608385, 1116.4862595635, -2218.2732941425
4163, 1604.193350896, 274.44479033298, -5144.1171437173
4164, 1616.6390832673, 187.70808307734, -5012.875419164
4165, 519.27484114158, -1542.4363485594, -8567.7849103353
4166, 1604.769592932, 271.05498261581, -3409.8294707447
4167, 1325.1473583177, 944.84957995626, -2701.8867294259
4168, 285.80877306632, -1602.2077253709, -1231.3341380538
4169, 1412.4672705851, -808.51249806417, -3148.9016822465
4170, 1410.8181939399, -811.38663635045, -3314.6861426081
4171, 1403.7995027353, -823.47022175668, -3469.9450080711
4172, 1471.2119558143, -695.91064876817, -3329.4737625947
4173, 1465.1825323685, -708.51704061536, -3484.7326280576
4174, 1135.9266164041, -1165.5157537094, -7014.6623081261
4175, 1623.8630589358, -108.74288861159, -2650.4603436353
4176, 1617.5085605805, -180.0619516964, -2594.1521930302
4177, 1377.613949243, -866.56566793937, -2186.4121106647
4178, 752.90071099268, 1442.8779468086, -8328.0136526137
4179, 862.04837242002, 1380.4451650131, -8210.5614738174
4180, -1522.7825142275, -574.36022177979, -1411.3586493411
4181, -1507.2183940966, -614.04312755445, -1270.4338093802
4182, -1458.3661790528, -722.44331112891, -1310.3929286164
4183, -1476.7859296026, -684.00260827562, -1451.3177685773
4184, 876.35405378676, 1371.4079708138, -2529.8036120071
4185, 829.86123983867, 1400.0309184491, -2682.7692421277
4186, -217.87130717558, 1612.8509985456, -8538.8057395681
4187, 1511.8457758226, 602.56003860806, -3311.4817585633
4188, 1508.5612681685, 610.73656365225, -3177.9699474572
4189, 554.7816261041, 1530.0240512284, -7981.5664428086
4190, 1333.0934801743, 933.60485384175, -2538.8965366614
4191, 1344.0991905502, 917.68928072758, -3471.8580263835
4192, 1387.6145945715, 850.45986791389, -3564.958023701
4193, 1433.5275833303, 770.55494147472, -3511.5749354035
4194, 1509.9293752894, 607.34630289327, -3456.2817700394
4195, 837.82936614596, -1395.2771062493, -1602.8079908885
4196, 739.56746663797, -1449.7572942706, -1407.3059351296
4197, 1587.7250811326, 357.61056575894, -6158.2352465876
4198, -482.99342495627, -1554.1793980905, -490.45354134555
4199, -549.174158843, -1532.0456890247, -615.36610051935
4200, 652.18552800622, -1491.1104208137, -1581.6009604421
4201, 820.95635755912, -1405.271115829, -1862.6993230879
4202, 1096.9063188173, 1202.3114312601, -1791.4300509117
4203, 737.17765175552, -1450.9739348976, -1717.2396559609
4204, 1269.7691056638, -1018.0582833521, -2729.1344250166
4205, 1147.4615874066, -1154.1612345882, -2659.3588400417
4206, -1527.5784917623, 561.48036609069, -5140.157106704
4207, -1484.5866914898, 666.90224579866, -4891.9273731003
4208, -1546.8544242047, 505.96209375652, -4942.7717628837
4209, 985.12197901711, 1295.4886863487, -6989.2966373396
4210, -1507.2824704224, 613.88582355143, -4730.4686414237
4211, -1410.46119384, 812.00706319066, -4839.7155643716
4212, -1438.3444586299, 761.52575027286, -4678.256832695
4213, 962.5480287783, 1312.3481025608, -7663.4183975299
4214, 969.93032741097, 1306.9014538091, -7503.9729030435
4215, 1161.3085175842, 1140.2275110637, -7483.7136259626
4216, 1059.8143827079, 1235.131460293, -7514.871903358
4217, 1068.7635046445, 1227.395951248, -7649.9488934462
4218, 1554.9658390736, -480.45550190833, -5622.4382807432
4219, 1065.3933357692, -1230.3224333883, -5714.2837107416
4220, 1040.6527921521, -1251.3185110858, -5577.0106829995
4221, 1349.5070096395, -909.71813268387, -1895.8276916226
4222, 1454.0186439353, -731.15390519957, -1934.4346470384
4223, 1378.089633085, -865.80899347591, -2008.2364784291
4224, 1419.0274811324, -796.94244321089, -2094.6520134376
4225, 1333.1962418126, -933.45810340725, -2809.9838839501
4226, 1193.6745566852, -1106.2989210527, -2886.7278767683
4227, 1403.8603544043, -823.36647692989, -2986.5757404311
4228, 1283.8775291035, -1000.2073486349, -6561.5680655731
4229, 1377.6141653184, -866.56532443553, -6522.0514701319
4230, 124.65766214373, 1622.7189273774, -3351.501220528
4231, 10.632695197044, 1627.4652671541, -3513.0498084526
4232, 156.74225688216, 1619.9346020465, -3621.444496415
4233, 269.88026423461, 1604.9675675778, -3459.8959084904
4234, 1624.841595107, 92.984089016033, -5189.9759713778
4235, 70.424912738082, 1625.9755784346, -7349.9382200362
4236, -98.005108974059, 1624.5464747476, -7417.6276108078
4237, 985.58215542448, 1295.13862768, -1426.5319945721
4238, 1090.5406204776, 1208.0883266915, -1464.7655308453
4239, 1006.9651798285, -1278.5841296579, -7658.775616529
4240, 1108.0824988325, -1192.0190542861, -7669.3994676527
4241, 1076.759170683, 1220.3876180747, -7351.8823846768
4242, 946.66213293689, 1323.8531097004, -3124.7601421129
4243, 1033.2661128316, 1257.4249043477, -3208.1137451174
4244, 825.85374728525, 1402.398601716, -6356.1912401949
4245, 766.97655668977, 1435.445300765, -6465.8101300267
4246, 432.2310065752, 1569.0546857758, -3528.3920481858
4247, 492.69351583007, 1551.1316351164, -3371.6190333276
4248, 331.85596009733, 1593.3072119801, -3303.1228936321
4249, -1518.6490619084, 585.20191110835, -5296.703879504
4250, -1545.2650682583, 510.79557439412, -5491.5370083937
4251, -1465.8866017225, 707.05920607143, -5369.1321478086
4252, 1343.6659518609, -918.32350498592, -5449.9765459617
4253, -1342.9198800934, 919.41418612608, -6456.4849742643
4254, -1317.8553367325, 954.99401120939, -6326.145901445
4255, -1380.6409960491, 861.7346981691, -6286.1146762257
4256, 1337.5024123019, -927.2774919551, -5953.735224897
4257, 517.04305152923, 1543.1859035338, -6048.6232337207
4258, 650.15357828166, 1491.997511609, -5999.5575465665
4259, 598.52834724435, 1513.4464204408, -5881.8636767513
4260, 463.73831601542, 1560.0330202464, -5930.9293639055
4261, 341.20640688275, -1591.3310271286, -2328.6238241144
4262, 1468.1804506103, -702.28371364124, -3136.6680417772
4263, 1205.172584128, -1093.761990776, -6570.1547754312
4264, 1501.8573411371, -627.04128801258, -3233.1635002071
4265, 1526.7556705165, -563.71391019353, -3447.6123649577
4266, -607.10200547788, -1510.0276172788, -5422.8907021104
4267, -656.03266912229, -1489.4218297864, -5566.9604712937
4268, -805.8158339715, -1414.007458156, -5514.136957694
4269, -759.26531774742, -1439.5389634414, -5370.0671885106
4270, -680.37099766654, -1478.4625648065, -5872.8862286364
4271, -862.87146205513, -1379.930827966, -5830.2486420328
4272, -838.21963938836, -1395.0426825526, -5671.0792203392
4273, -653.99747840055, -1490.3165932934, -5713.7168069428
4274, -960.84293053954, -1313.5970131026, -5473.074450068
4275, -990.88922151418, -1291.0828016386, -5630.0167127132
4276, 1276.8607188196, -1009.1496195983, -1985.4913057809
4277, -1007.7176402411, 1277.9911609815, -3649.0314820872
4278, -879.03607627664, 1369.6904126861, -3448.2183691545
4279, -1012.5630159457, 1274.1555590817, -3479.3738757802
4280, -605.99789766664, 1510.4710517, -3348.4671141823
4281, -794.46078070355, 1420.4183601756, -3270.7732013856
4282, -696.37365424056, 1470.9928564339, -3525.9122819513
4283, -1003.1613481188, 1281.570739226, -3888.5805800456
4284, 1611.5846397341, -227.04889115144, -4590.7181481539
4285, 1544.0916120699, -514.3319390582, -3112.3291980513
4286, 1623.5841158606, -112.83115139518, -4748.9536996181
4287, 1618.2678533236, -173.10518449604, -5954.3495664745
4288, 1605.4372637621, -267.07197929399, -6068.8417513574
4289, 1583.1338542627, -377.41681134697, -5962.3291855597
4290, -918.82000295198, 1343.3264875582, -4128.3510198744
4291, 1333.3000314606, -933.30985000002, -2099.9965756561
4292, -347.37259262837, -1589.9963936722, -602.50683966389
4293, 1270.6598784133, 1016.9462736008, -6763.6369047967
4294, 1615.4493949712, 197.68536184318, -4225.0141772703
4295, 1563.2573455492, 452.75017568913, -3470.2938898527
4296, 1474.2425430031, 689.4673120603, -4093.5201455742
4297, 1373.0980156878, 873.70366218436, -3929.8507709215
4298, -1238.5817206832, 1055.7800770944, -3423.6872288972
4299, -1273.8987605115, 1012.886073538, -3209.4244525848
4300, -1380.6622755483, 861.70060396745, -3280.670957525
4301, -780.13278677687, 1428.3378749427, -7589.4692836751
4302, -821.07793824764, 1405.200081598, -7447.671474075
4303, -922.31184881373, 1340.9314313334, -7509.5865377565
4304, -883.18142947919, 1367.0211456386, -7651.3843473566
4305, -1592.4010900203, 336.17706421183, -628.01610271192
4306, -58.006795495711, -1626.4659423659, -3047.0353790181
4307, -47.974951480524, -1626.7927507923, -3218.0004049362
4308, -201.64365411839, -1614.9600882851, -3054.4575878467
4309, 22.091705122092, -1627.3500565535, -2935.1456522141
4310, 164.73338975701, -1619.1414886597, -3026.0954350012
4311, 84.86600843724, -1625.285824282, -3137.9851618052
4312, -1410.6016228794, -811.76308830229, -3644.5413961317
4313, -1478.8089549416, -679.61777844933, -3746.543663234
4314, -1398.8722379573, -831.8129067719, -4308.6055951979
4315, -1378.1416980382, -865.72611727287, -4147.4318014073
4316, -1278.6803086125, -1006.8430455471, -4216.8241544749
4317, -1265.8133860753, -1022.9724930967, -4045.9155629746
4318, -1178.1836956057, -1122.782004402, -4080.3076809398
4319, -1192.3229866619, -1107.7554538243, -4251.2162724401
4320, -1549.6932996082, -497.19908200796, -3783.7654990922
4321, -1456.6219981319, -725.95358292256, -3911.1362133562
4322, -1240.2419664381, -1053.8292625875, -3592.6295358185
4323, -1330.0277820694, -937.9671363772, -3776.3904707254
4324, -1331.84394816, -935.38652318147, -3460.7804612248
4325, 71.715931384021, -1625.9191478009, -3916.8033647708
4326, 52.226734845418, -1626.6618020251, -4150.0969809867
4327, -48.065088777475, -1626.7900900979, -4019.2905902705
4328, -1191.5535316408, -1108.583073673, -6290.687433622
4329, -1096.3222459518, -1202.844039363, -6291.3597909114
4330, -1186.4326066744, -1114.0619012514, -6445.20962653
4331, -452.35598931341, 1563.371455839, -2828.7775625889
4332, -475.77854177347, 1556.4032347653, -2634.1039914712
4333, -556.29289487214, 1529.4752254008, -2760.4007421768
4334, 1135.8146779366, 1165.6248398965, -4974.2280086825
4335, 1118.7850234153, 1181.9798312077, -5167.1413242244
4336, 1236.0445152799, 1058.7493595023, -5157.7731969781
4337, 1251.2740824692, 1040.7062124062, -4964.8598814361
4338, 425.39728056523, 1570.9211958872, -5702.2670701481
4339, 596.03317333868, 1514.4308192452, -5746.3582135446
4340, 470.93614993253, 1557.8752814929, -5570.0660814159
4341, -951.30471685225, 1320.5209523876, -2032.2144189926
4342, -855.01092405106, 1384.8149947749, -2150.0638823823
4343, -777.14921773996, 1429.9634063032, -2039.5229644995
4344, -876.85001275653, 1371.0909178931, -1921.6735011098
4345, 1117.1727525631, 1183.5038195674, -4807.0204658852
4346, 959.27148467775, 1314.7450204067, -4875.4888012345
4347, 980.01614074241, 1299.3554609438, -5042.6963440318
4348, -1164.4122809442, -1137.0577337965, -7091.990867518
4349, -1289.8471216127, -992.49718028185, -7030.9171419079
4350, -1264.22245217, -1024.9379695519, -6865.1466952295
4351, -1022.6330308811, 1266.0876486843, -2723.4244405835
4352, -1104.6517362301, 1195.1990594223, -2598.0783600989
4353, -359.88258484968, 1587.2116352654, -2865.9887624725
4354, -295.16293602194, 1600.5108844362, -2956.6878047763
4355, -209.51069063104, 1613.9583391498, -2891.8193836187
4356, -819.5976217021, -1406.0640058334, -7470.6949531343
4357, -855.28966208688, -1384.6428578978, -7262.7781221589
4358, -695.48768966323, -1471.4119489548, -2708.9788401587
4359, -790.1360303309, -1422.8286276193, -2890.2908972446
4360, -1462.6789938084, -713.67108045077, -4110.3624909815
4361, -1456.2540647751, -726.69137109639, -4242.3585095811
4362, -1560.3915776359, 462.5304038038, -2946.809351969
4363, -1591.6070984434, 339.91630467603, -3002.7851382642
4364, -1579.1001212112, 393.95311547292, -3123.9798243022
4365, -1543.7246374504, 515.43233671215, -3068.004038007
4366, -1424.1806897183, -787.69639648377, -4432.7804334919
4367, -1063.3136989621, -1232.1202163748, -4530.4648010243
4368, -918.4213428327, -1343.5990797218, -4382.8293722856
4369, -967.84545436966, -1308.4461878335, -4666.1236209086
4370, -699.33156967444, 1469.5889240385, -7686.0452083525
4371, -604.74330127654, 1510.973788509, -7580.2351417495
4372, -687.99750325288, 1474.9290442316, -7483.6592170721
4373, -513.18439305189, 1544.4733823307, -3606.2425819303
4374, -352.07198671196, 1588.9624181121, -3631.6162674309
4375, -337.96088118476, 1592.0234586176, -3488.2593688888
4376, -499.46165266404, 1548.9655604687, -3462.8856833881
4377, -1125.6455857984, 1175.4481124969, -6406.5569351605
4378, -1009.1721842869, 1276.8428847989, -6454.8579008485
4379, -1099.9180620283, 1199.5567959975, -6238.9436467787
4380, -1382.3633115061, 858.96910596467, -6149.8737132622
4381, 99.482666249838, 1624.4566627386, -3798.962945963
4382, 349.3485129507, 1589.5634200934, -3695.7302751915
4383, 715.76074119163, 1461.6575561221, -5305.271035638
4384, 881.34511011633, 1368.2057765095, -5410.7109043957
4385, 855.17510857037, 1384.7136107086, -5257.9186480102
4386, -1220.4429395482, 1076.6964666549, -2287.1006502725
4387, -1252.0506027398, 1039.7718683341, -2438.6078415638
4388, -1161.8952948706, 1139.6295774319, -2491.1273819777
4389, -1335.972722509, 929.48003459562, -2129.4708206729
4390, -1331.2542302208, 936.22562692934, -2292.8475744158
4391, -1225.8733647985, 1070.5095718758, -2123.7238965296
4392, -408.06016574124, 1575.5136150269, -2219.7721909596
4393, -267.89956252939, 1605.2993722034, -2349.8620950593
4394, -138.28623583902, 1621.6143706127, -2216.9525397128
4395, -280.38423125032, 1603.1659093388, -2086.8626356132
4396, 1191.4746726912, 1108.6678286734, -1711.6940012382
4397, 70.68308861531, 1625.964375681, -6600.304028349
4398, -51.255551416327, 1626.6926933041, -6412.2086048417
4399, -81.858265521953, 1625.4400863661, -6563.0012976225
4400, 1210.3648236285, -1088.0134391279, -7418.2691041844
4401, -1076.2908708238, 1220.8006435866, -6047.8147548623
4402, -1043.899804975, 1248.6110071488, -5906.7943979232
4403, -190.20375140532, -1616.3473583829, -5180.2366423473
4404, -316.42292997169, -1596.4437914904, -5278.9236531917
4405, -438.99508191192, -1567.1756659855, -5141.4022596109
4406, 1624.9088228624, 91.801783120406, -4078.5585424595
4407, 1485.2527032346, -665.41765646428, -4150.7936537837
4408, 794.19440204576, 1420.56731687, -3611.8058971312
4409, 680.74623840171, 1478.2898257452, -3489.2020240891
4410, 576.92454897841, 1521.8128382906, -3603.6234118658
4411, 694.09162833339, 1472.0710110173, -3726.2272849079
4412, -1429.7380473924, -777.56373747652, -5166.4507240825
4413, -1493.4465654145, -646.8180627129, -5366.5713086737
4414, 1344.0967116342, -917.69291147639, -4301.7494010133
4415, 1294.7328957217, -986.11509406165, -4133.6526222078
4416, 1421.5373391213, -792.45684013949, -4222.6801587211
4417, 365.67414665067, 1585.8873441929, -5261.7087291576
4418, 526.90315235465, 1539.8471735983, -5209.7424571439
4419, 484.5198338685, 1553.7042127085, -5051.5475534252
4420, 74.471812309616, -1625.7952513067, -5650.0044508236
4421, -1006.1825617152, 1279.2001026032, -4344.5305380324
4422, -1156.1018127276, 1145.5063721376, -4400.8734319902
4423, -1116.736165432, 1183.9157853564, -4575.3893097999
4424, 82.019815437071, -1625.4319425542, -2408.566166473
4425, -32.533053728863, -1627.1748063484, -2480.3949706058
4426, -613.04570078804, -1507.6243626133, -4128.567775433
4427, -1319.8085184031, 952.29287761203, -3036.3442022755
4428, -1168.0429204819, 1133.3278369087, -3116.5125668657
4429, -596.56682072562, 1514.2206835232, -5776.6548332173
4430, -766.87216104833, 1435.5010757952, -5688.4326208095
4431, -636.52451993618, 1497.8627392121, -5904.002060981
4432, -899.89620845953, 1356.0763488831, -8404.2864846792
4433, -983.818416558, 1296.4789135352, -8526.6214209245
4434, -1175.9628925751, 1125.1077838529, -8554.0005138029
4435, 1247.142221335, -1045.6541157398, -4929.0003142997
4436, 1308.1239744929, -968.2809082889, -4563.3713181356
4437, 1231.573228436, -1063.9471946482, -4764.1670336795
4438, 1203.0369487382, -1096.110555542, -4601.0402989621
4439, -1531.5686426026, 550.50317255794, -1360.0715268535
4440, -1548.8377940684, 499.85771742102, -1503.3649239687
4441, -835.68338635774, -1396.5634707258, -2130.8349841355
4442, -689.80277885147, -1474.0856068386, -2137.0360574312
4443, -811.54409677567, -1410.7276239546, -2259.2314038443
4444, -525.8456884026, -1540.208609893, -4899.9411141824
4445, -593.58654856398, -1515.3914541675, -5058.0295521504
4446, -768.54971385215, -1434.6036342272, -4994.5833770957
4447, -1402.4770127275, 825.72058153522, -1726.1879601812
4448, -1476.0759620577, 685.53337207995, -1862.8835247761
4449, -1434.6537138234, 768.45622608755, -1988.3087470179
4450, 532.01965446606, 1538.0869082278, -4389.0067372027
4451, 351.29348121388, 1589.134714257, -4294.312537685
4452, 415.00874662304, 1573.6975536063, -4441.0573086897
4453, -1005.1574294497, -1280.0057781205, -3017.7577171606
4454, -1062.7865595915, -1232.5749383919, -2864.3708546323
4455, -888.55676980277, -1363.5333207655, -2964.4007839268
4456, 2.5791186923777, -1627.4979564186, -3775.6862469643
4457, 138.91530256743, -1621.5606028492, -3702.5234138405
4458, 1006.0345985587, 1279.31647238, -5372.0359364332
4459, 906.92080940493, 1351.3885064882, -5563.9060663693
4460, 1029.9165211471, 1260.1699129357, -5525.2310984069
4461, -841.21117303841, -1393.2408307092, -7883.0614855719
4462, -1080.1685343272, 1217.3710147073, -7856.7551949476
4463, -980.93918080872, 1298.6587594724, -7719.9992531077
4464, -1050.2895785365, 1243.2409465657, -7621.2455819138
4465, -988.29817113241, 1293.0672739407, -7374.0831436436
4466, -1530.3135717375, 553.98251069521, -4542.308685905
4467, -1562.3988133441, 455.70406851497, -4772.1667165816
4468, -1461.9603214375, 715.14213170699, -4368.7313551555
4469, -1536.2905644082, 537.18483942716, -4370.2105287956
4470, -1454.0382851489, 731.11484413967, -4540.8295122648
4471, 844.24279821818, -1391.4058888968, -5663.3185884018
4472, 710.3010280867, -1464.318510263, -5556.2605369647
4473, 808.74772161248, -1412.3325999164, -5416.42146896
4474, 937.39142412841, -1330.4336014888, -5523.479520397
4475, -1571.2172758506, 424.30239460629, -7639.6376831411
4476, -1578.9659382417, 394.49057767254, -7463.1151635233
4477, -1619.2743452195, 163.42229013822, -7518.6983178057
4478, -1510.0228447984, 607.11387579829, -7602.0929905815
4479, -1527.6519824753, 561.28038486948, -3209.0939158171
4480, -1474.5432083213, 688.82405358236, -3159.7292615877
4481, -1494.4465006187, 644.5043884944, -3018.6393837776
4482, -946.31182747255, -1324.1035364297, -1570.5675668162
4483, -931.19961977652, -1334.7747068806, -1398.3052784809
4484, 651.47534138284, -1491.4208425425, -3586.3582644523
4485, 513.95132470081, -1544.2183413748, -3497.2141779533
4486, 559.09894804159, -1528.4517055827, -3354.0714270597
4487, 764.26476172537, -1436.8909575834, -3192.7020573687
4488, 788.11220381019, -1423.9506326434, -3046.8177921803
4489, 909.26907996882, -1349.8096125797, -3097.6255057143
4490, 886.64076724887, -1364.7799822141, -3243.5097709027
4491, 674.21653045405, -1481.2792849637, -2873.240909965
4492, 657.0946012257, -1488.9536376395, -3021.9556615044
4493, 447.54219155001, -1564.7562867049, -3238.4066015727
4494, 521.69835222896, -1541.6183312615, -3147.1629200284
4495, 631.39567517006, -1500.031916786, -3262.8277455153
4496, -1445.2712100789, -748.29631785616, -5571.1719490852
4497, -1491.5781702333, -651.11505287744, -5705.0230329927
4498, -1532.5738536189, -547.69848749448, -5635.2092305478
4499, -1493.013900731, -647.81613303768, -5501.3581466404
4500, 179.6502330395, -1617.5543402831, -3277.0896445843
4501, 304.63536834123, -1598.7349819015, -3122.3355249361
4502, 324.7629441292, -1594.7680960317, -3393.160721221
4503, 661.69093234736, -1486.9167293595, -3144.9251408117
4504, 516.93371253641, -1543.2225331569, -3024.1934407211
4505, -1545.5403707883, 509.9619713897, -2747.8349223484
4506, -1535.4844129799, 539.48481674269, -2531.2432112054
4507, -1571.0532103181, 424.90947312243, -2623.5617565496
4508, -1063.3706115024, -1232.0710988385, -3626.0158755452
4509, -969.57548779362, -1307.1647269835, -3562.9608582418
4510, 288.81568132734, -1601.6684276777, -2190.7890196714
4511, -1287.019940005, 996.16059148585, -5863.1130993868
4512, -1288.0301545103, 994.8540451102, -6007.7560555095
4513, -1186.3538602954, 1114.1457571441, -6008.7050476541
4514, -1185.2226440974, 1115.34906371, -5864.0620915314
4515, -399.29746854493, 1577.7571998294, -3368.6696983639
4516, -508.07908099239, 1546.1603724898, -3254.2511291582
4517, -387.92866295511, 1580.5909029404, -3081.4307621298
4518, -544.04366527685, 1533.8750732286, -3118.2510675655
4519, -350.91582107314, 1589.2181525897, -3217.4308237225
4520, -35.896649302842, -1627.1040779768, -6747.9222574381
4521, -19.037721431916, -1627.3886490825, -6588.1601504198
4522, 115.91950802813, -1623.3665382958, -6594.6488498807
4523, 698.97422880153, -1469.7589181465, -2745.4116796565
4524, -1474.898100951, 688.06383556416, -1278.9111828965
4525, -1521.5445722354, 577.63168602587, -1243.2693850949
4526, -1517.1240320341, -589.14422803306, -6711.0097099895
4527, -1502.9292566473, -624.4676929303, -6530.1668785172
4528, -1427.8982090565, -780.93722831814, -6576.4030299315
4529, -1445.7732408709, -747.32589007846, -6757.2458614038
4530, -1378.1932013516, 865.64412419201, -4210.9116332814
4531, -1280.187825864, 1004.9255596857, -4215.6631562692
4532, -1053.1058529298, -1240.8562819783, -2015.3845616773
4533, -1180.0746291062, -1120.7944145739, -2125.990156718
4534, -1247.2101725778, -1045.5730655572, -2004.2047950432
4535, -1127.9193120195, -1173.2664981041, -1893.5992000025
4536, -539.26129004376, 1535.5629296972, -7081.1635735094
4537, -386.10998011646, 1581.036158111, -7132.6528819073
4538, -1604.0452277674, 275.30920303661, -5857.5926407379
4539, -1619.0025241731, 166.0935782059, -5776.3773561561
4540, -1625.4698031872, 81.266037964907, -5895.5613407114
4541, -1322.5410752917, 948.4942562643, -4763.604952778
4542, 1571.3517694754, -423.80404264992, -6142.5867095386
4543, -400.26808339977, 1577.51123971, -6482.8667208286
4544, -556.92112976304, 1529.2465809095, -6437.9589653064
4545, -428.09502721885, 1570.1881726948, -6638.2233246159
4546, -1221.1043092128, -1075.9463351032, -3130.2717413535
4547, -1167.3563934663, -1134.0349644669, -2911.4442857043
4548, -1121.6001414963, -1179.3088537764, -3076.811096983
4549, -1115.8610113875, -1184.7406692038, -2686.91716592
4550, -1563.557153993, 451.7137104377, -943.84214644495
4551, -1593.0478958032, 333.09856150527, -846.72595526505
4552, -1609.6221300908, 240.56776243287, -975.00087719715
4553, 649.10406023058, 1492.4544110264, -2758.6001157941
4554, -1611.7717099334, 225.71709075366, -746.73677879509
4555, -1566.3268237214, 442.01417544099, -728.00527918188
4556, -1217.7591172205, -1079.7309768764, -6559.1592136984
4557, -1238.8398288809, -1055.4772041017, -6710.0230280261
4558, -180.96706384473, 1617.4075466015, -6211.2349583293
4559, 805.40102205748, -1414.2437709493, -6477.4815862527
4560, -891.82172578506, -1361.4001099669, -5992.8134590258
4561, -736.35292015386, -1451.3926508636, -6039.5474684816
4562, -772.47319802059, -1432.4948196555, -6203.0160176191
4563, -925.63930007161, -1338.6366707075, -6156.2820081633
4564, -1535.0061727869, 540.84406209744, -807.81647932838
4565, -1504.0873148519, 621.67322549847, -701.15168467099
4566, -1470.2835452421, 697.87000694272, -8081.7844787749
4567, -1413.7679675283, 806.23593568561, -8186.3246430989
4568, -1356.161138397, 899.76842393008, -8031.597142054
4569, -521.57375921478, -1541.6604891151, -5732.0153163552
4570, -432.47732238529, -1568.9868118064, -5819.3623996981
4571, -1302.0224970074, 976.47000327031, -6675.4470997163
4572, -1258.6717918488, 1031.7468538378, -6522.9700683732
4573, -1299.6388182635, 979.64033811523, -6167.7396658063
4574, 1152.8676907928, -1148.7612186726, -3425.2604997948
4575, 1140.7729230818, -1160.7727546611, -3501.0553888296
4576, -439.15668254888, 1567.1303896526, -5645.9806426399
4577, -274.04302026517, 1604.262033785, -5696.2220194408
4578, -404.45716950008, 1576.4424023858, -5523.1044521373
4579, -337.91751340099, 1592.0326642808, -5306.7186226019
4580, 1624.7227599842, 95.037903961011, -4970.9509183745
4581, -1400.3296328275, -829.35708197691, -8441.9413852081
4582, -1407.2040011052, -817.63876453692, -8219.5119110836
4583, -482.45838859569, 1554.3455707383, -5169.5614591813
4584, -204.08063464933, 1614.6539395676, -5175.6239574819
4585, -351.2592240958, 1589.1422867345, -5038.4667940613
4586, 1095.6137416156, -1203.4894179772, -2824.7971738154
4587, 922.74963074478, -1340.630213355, -4649.741108821
4588, 1056.531024977, -1237.9412115529, -4525.4058590259
4589, 1026.3201011744, -1263.1006689593, -4680.8819651972
4590, 455.80334178277, -1562.3698549382, -3929.6459767769
4591, 189.70360663509, -1616.4061344939, -4297.482879698
4592, 328.840070314, -1593.9323882009, -4375.4498324634
4593, -171.23595232491, 1618.4667122407, -1982.8816439913
4594, 104.72329182208, -1624.1272370569, -2561.8173715607
4595, 29.082350296198, -1627.2401380562, -2671.1301187064
4596, -108.16722387287, -1623.901506151, -2589.7077177515
4597, 206.71137547291, -1614.3192550577, -2381.7610971299
4598, -1287.9381836314, 994.97310774931, -4546.6076909957
4599, -1369.507582703, 879.32089189278, -4651.6100112306
4600, -1235.1397717919, 1059.8046962237, -4658.6026325431
4601, -217.47899441436, -1612.9039453695, -5360.3440996394
4602, -304.85578291387, -1598.6929666524, -5449.011325289
4603, -402.75836109837, -1576.8772788538, -5367.5908788413
4604, -539.35850648504, -1535.5287856248, -5298.9834015676
4605, -911.88952776367, -1348.0407038198, -5305.3149518821
4606, -847.06399595528, -1389.690194524, -5150.8584574786
4607, -690.28016858559, -1473.8621166369, -5215.6106941071
4608, -1276.0212160223, 1010.2109216698, -4409.9612115545
4609, -1377.4885420604, 866.76500073099, -4377.5362113592
4610, -1387.6933814974, 850.33130540289, -4514.1826908005
4611, 56.398433622641, 1626.5225072789, -6740.1850308621
4612, -106.36438679868, 1624.0205870681, -6720.8990648128
4613, 1042.0512758872, 1250.1541458644, -5652.0564204397
4614, 945.43782044173, 1324.7277371892, -5728.5659029695
4615, -1461.2521621365, -716.58800481974, -8149.7414103157
4616, 1146.7633369667, -1154.8550121072, -7526.4182646384
4617, -1354.9589222002, -901.57782201541, -8079.3589844644
4618, 88.04559577941, 1625.1166798307, -4005.063182188
4619, -90.58994301465, 1624.9768343655, -3772.3509937843
4620, 435.65869597579, 1568.1064219691, -6430.4215971039
4621, 1062.845554633, -1232.5240675122, -5232.8119863822
4622, -18.987419159167, 1627.3892367574, -6254.2652597976
4623, -1564.5598765697, 448.2283376007, -3223.5523977335
4624, -877.39839089392, 1370.7400605719, -6500.2362854012
4625, 1153.0922739409, -1148.5357886361, -3055.9602639599
4626, 1051.5976506295, -1242.1347073448, -2994.029561007
4627, 1123.9355331088, 1177.0833307016, -1574.6237328582
4628, -948.87052153519, 1322.2711459309, -7998.7241617694
4629, -933.32692844663, 1333.2880763872, -7858.9598384707
4630, -1493.6009595524, -646.4614633712, -1602.5258578269
4631, -1405.301515562, -820.90431863837, -1497.0395412728
4632, -1425.5992820092, -785.1260644858, -1648.2476305223
4633, -660.31935517167, 1487.5263356276, -6062.4195068912
4634, -1097.891442098, 1201.4119324228, -5777.1583622785
4635, 766.87995796746, 1435.4969105045, -3184.3983333452
4636, 879.76955551251, 1369.2194050602, -3260.6099073626
4637, 1040.5113823022, 1251.4361003662, -4505.9263816575
4638, -813.03196438907, -1409.8706589193, -6358.1738190517
4639, -839.63129491701, -1394.1935083036, -6512.1987577518
4640, -947.11865498151, -1323.5265404917, -6320.8208600251
4641, -1350.0425361954, 908.92320933242, -7148.4091888399
4642, -1311.8201416168, 963.26744263916, -7306.1939388332
4643, -1228.9411613783, 1066.9863503673, -7238.4599169159
4644, -1271.4658746626, 1015.9383739029, -7080.6751669226
4645, -1308.0213549458, 968.4195294425, -1658.9789921261
4646, -1334.5529872615, 931.51735045111, -1506.8874075133
4647, -1336.5495702443, 928.65036277373, -2460.2931121921
4648, -1321.2494845195, 950.29261264989, -2611.0085377741
4649, -1234.9521345751, 1060.0233371527, -2589.3232671459
4650, -1268.8089529517, 1019.2546742153, -1441.2348874912
4651, -1301.731754945, 976.8575577677, -1332.4659665138
4652, -1273.0706943296, 1013.9266527906, -1228.6542566425
4653, -1184.7277929172, 1115.874682341, -1332.7251333355
4654, -1111.3367307951, 1188.9856688731, -1188.2598646949
4655, -1205.9865267325, 1092.8644688796, -1084.1889880018
4656, 1392.1020568953, -843.09436790183, -4486.7776930859
4657, 1459.6562528894, -719.83322610233, -4379.0839955135
4658, 1516.8904508588, -589.74537733949, -4307.1974905761
4659, 203.34973401099, 1614.7461520863, -5766.7236285488
4660, 377.28783685955, 1583.1645960411, -5829.2287951786
4661, 252.50330058754, 1607.7930007288, -5639.7619035183
4662, -1072.0089161467, 1224.5624254002, -7228.6408800982
4663, -1401.6695076579, 827.09058832876, -3111.3071796972
4664, -1282.7424921021, -1001.6625923711, -6005.747366247
4665, -1374.1795634321, -872.0015925705, -5990.2027811382
4666, -1365.1341728364, -886.09533355856, -5867.8888383825
4667, -1272.367768522, -1014.8086083723, -5883.4334234913
4668, -1357.3580923972, 897.9617246875, -2870.3505465594
4669, -1434.0719922399, 769.54127314463, -2945.313523981
4670, 1444.696460876, 749.40535488638, -4707.0284741034
4671, 1397.6119610187, 833.92868784892, -4862.2304831586
4672, 1462.5358859635, 713.96430741947, -4936.0129309202
4673, 1502.377066589, 625.79501419178, -4780.8109218651
4674, 1518.3716479956, 585.921316017, -5001.4355700928
4675, -107.5032679452, -1623.945595573, -2826.1943663709
4676, -210.20515197997, -1613.868038001, -2917.6956986198
4677, -317.62646208899, -1596.2047740127, -2797.6334280839
4678, -215.82805032271, -1613.1256933959, -2706.132095835
4679, -1621.4687155345, -139.98376528338, -654.30076932646
4680, -1606.6421519884, -259.72532694013, -538.59414884176
4681, -350.81623767968, -1589.2401383618, -4739.2053514369
4682, -492.87781709126, -1551.0730825526, -4715.5377277076
4683, -1500.9951458934, -629.10239389495, -7335.0771841917
4684, -1556.9411268355, -474.01537693222, -7306.9894606473
4685, -1551.7620645422, -490.70433567233, -7183.6279218117
4686, -1494.1541983747, -645.18174298353, -7211.715645356
4687, -1589.8295259107, -348.13550313424, -7362.1028701924
4688, -1533.7585407211, -544.37210505775, -7444.6481214931
4689, -156.47736501621, -1619.9602106958, -5512.579123041
4690, -298.9214999167, 1599.8131724947, -7328.7214615607
4691, -1343.8926012671, 917.99178986506, -8317.4100759237
4692, -1476.3414287941, -684.96148477582, -7067.8529669907
4693, -1539.3492145381, -528.35617314558, -7020.809185311
4694, -1528.6190488653, -558.64125648403, -6867.8269629797
4695, -1462.5320212908, -713.97222403889, -6914.8707446594
4696, -1578.4935853521, -396.37640066275, -6825.6781232952
4697, -1585.8015327475, -366.0461019265, -6975.7301890043
4698, -1197.9393133286, 1101.6794686213, -1589.2813193985
4699, -1160.3346635407, 1141.2185235904, -1747.3613678718
4700, -1608.9497663025, -245.02428352098, -3403.3799879612
4701, -1613.1599315988, -215.57199512969, -3625.9669788069
4702, -1133.0767451587, 1168.2864972174, -2088.3932692191
4703, -1163.3018849061, 1138.1937333222, -1920.3832465916
4704, -833.16057982433, 1398.0699904607, -7790.3449327195
4705, -1627.4937670101, -4.5042583660878, -7325.7366497313
4706, -1627.3686528232, -20.676503774922, -7511.0704260017
4707, 1398.0260146077, -833.23436827827, -3636.617854798
4708, 1484.3048318972, -667.52933718803, -3608.0054591341
4709, 384.16877093521, -1581.5089647037, -3011.7856360707
4710, 527.80290617646, -1539.5390031538, -2841.3756743308
4711, -1524.9466688849, 568.58940111198, -2346.410197706
4712, -1492.2855554054, 649.49216402384, -2188.4979073658
4713, -1541.2177044382, 522.88071060841, -2141.1925372813
4714, -1567.0235756115, 439.53767014627, -2299.1048276216
4715, -1005.872827952, -1279.4436697205, -1162.3465041675
4716, -869.56033307194, -1375.7256547538, -1238.2100003838
4717, -1062.9943801812, -1232.3957147374, -1322.4417822646
4718, -1411.9692276939, -809.38195559675, -2663.5336118751
4719, -1413.7025031927, -806.35071926965, -2516.5898159964
4720, -213.005402537, 1613.5008362223, -6369.1783033734
4721, -1333.5622027256, 932.93520753674, -5658.6724598399
4722, -1317.1199799701, 956.00795413202, -5520.1825101619
4723, -1408.1550420868, 815.999771719, -5477.8353120695
4724, -1355.0265585812, 901.47616470965, -5357.7756743043
4725, -1230.5117298904, 1065.1746958138, -5463.7376285738
4726, -1272.9441995151, 1014.0854574053, -5301.3307927163
4727, -1067.4963070848, -1228.4982231816, -947.83180133909
4728, -1165.4170575996, -1136.0278745946, -870.31480252275
4729, -1123.4973497008, -1177.5015733388, -731.42415734766
4730, -62.316645788741, 1626.3065165145, -4648.4082021069
4731, -1173.9395781747, 1127.2187528581, -5615.4176261032
4732, -1255.4694223468, 1035.6412407549, -5702.3213553561
4733, 213.6857020964, 1613.410880935, -5926.8595404116
4734, -1151.2002420121, -1150.4322026053, -3477.2680905917
4735, -1159.2834102504, -1142.2864022294, -3741.3773207721
4736, -1285.220674136, -998.48088052472, -3337.0935279371
4737, -1512.3380483816, -601.32343827385, -1099.7433793209
4738, -1554.950338078, -480.50566709577, -1294.4526596363
4739, -1558.9432822839, -467.38858845909, -1123.7622295769
4740, -1582.4809552394, -380.14507270866, -1418.8422539819
4741, -1556.3772226893, -475.86362615137, -1535.7482436867
4742, -525.99282499373, 1540.1583678489, -2417.2808545694
4743, -598.58046623005, 1513.4258077117, -2572.4416614383
4744, -401.28750258769, 1577.2522278529, -2478.9431846023
4745, 570.49879485507, 1524.2333729022, -2909.6344896247
4746, 519.36690913335, 1542.4053499963, -3059.8978092786
4747, 664.21202673791, 1485.7922578667, -3124.8966239309
4748, -632.86720355037, 1499.4116688456, -4699.302118841
4749, -467.13638132355, 1559.0188745631, -4801.9602913584
4750, -191.85245982993, -1616.1524939365, -6725.9371568915
4751, -375.98018247167, -1583.4756557613, -6711.6051466512
4752, -180.27743232304, -1617.4845586265, -6562.555447359
4753, -1136.2442759669, 1165.2060741914, -7121.9520641933
4754, -546.51789101416, -1532.9952527002, -4443.228561083
4755, -489.00984322868, -1552.2968863028, -4576.7290486293
4756, -1354.4747066158, 902.30511421474, -7531.9181969359
4757, -1442.4112195974, 753.79448364901, -7590.2829156604
4758, 836.50307680631, 1396.072653014, -5094.8914764519
4759, 997.37644465639, 1286.077943845, -5205.72351559
4760, -1443.8950850549, 750.94822281858, -7463.5746014827
4761, -1511.2172880057, 604.13455325188, -7475.3846764038
4762, -683.28707832934, 1477.1171309643, -6226.437145127
4763, -707.97489646388, 1465.4445728095, -6388.2663375486
4764, 247.13349626791, -1608.6271429459, -5566.9886477627
4765, 377.44180449433, -1583.1278957242, -5435.3955222343
4766, 490.61829073378, -1551.7892713888, -5564.1659447473
4767, 362.48796077318, -1586.6186461448, -5695.7590702757
4768, 694.60377981642, -1471.8294191464, -5327.2946783354
4769, 599.92938898425, -1512.8915950037, -5442.4448501613
4770, 491.12504044882, -1551.6289648766, -5338.7265651286
4771, 392.08878287289, -1579.5640652868, -5211.5314414225
4772, 604.17006426857, -1511.203091395, -5677.9816315508
4773, -1289.1470661122, 993.40630757733, -8164.1018983484
4774, -1291.656271799, 990.1415684246, -8247.1989566292
4775, -1389.3320971496, -847.65121000917, -6195.7217684495
4776, -1324.423812131, -945.86352919462, -6305.2102894081
4777, -1393.8787442837, -840.1537336905, -6429.0093151792
4778, 1405.793566066, -820.06139990089, -1240.7192234606
4779, 482.92894300192, -1554.199435726, -3738.3721177426
4780, 616.25276036048, -1506.3162965819, -3750.87348143
4781, 589.94041633597, -1516.8146080432, -3942.1473404642
4782, 280.00649703854, -1603.2319269576, -3675.1722488357
4783, 444.21069204694, -1565.7053078633, -3613.9313175141
4784, 76.639482644291, -1625.6945099557, -5019.4760621622
4785, 216.14005964919, -1613.0839174125, -4930.6590503338
4786, 315.56509233761, -1596.6135795796, -5071.9260663062
4787, -369.16755731794, -1585.0777787301, -3068.0337474883
4788, -377.56822992788, -1583.09774864, -2931.2718582614
4789, 894.73156202167, -1359.4894931268, -1014.6812528186
4790, -56.14890808891, -1626.5311402246, -5101.9985422944
4791, 50.288096363871, 1626.7228889286, -4181.2875121707
4792, -1214.2980759548, 1083.6219048785, -623.52754143967
4793, -1146.5350043441, 1155.0817000601, -514.26980915733
4794, -1299.2235143357, 980.19105780315, -524.25773228234
4795, 1030.0814082175, 1260.0351354008, -8126.2464319303
4796, 939.71438223753, 1328.7938628004, -8110.2699910973
4797, -325.61748942218, -1594.5938356153, -6887.1349736019
4798, -524.86413995327, -1540.5433731613, -6754.9511237053
4799, -1254.0852324246, 1037.316962078, -731.2164920351
4800, -1180.246562214, 1120.6133598981, -794.93169121999
4801, -664.82699159325, 1485.5171898194, -2688.8348628251
4802, 54.427721094592, 1626.5896449862, -5759.4096466431
4803, 929.83370155789, -1335.7265953207, -5791.9377975291
4804, 701.52789199872, -1468.5417483844, -5793.9563306869
4805, -1392.6712567514, 842.15379867254, -7389.8228622316
4806, 488.35637959117, -1552.5025914673, -5792.3443831307
4807, -284.34667428682, 1602.4678526641, -4895.513312869
4808, -146.74264579607, 1620.8710145797, -4939.6969740359
4809, -118.54217312386, 1623.1771324138, -4776.7313659024
4810, -1527.5105393569, 561.66520468484, -4189.1334966618
4811, -1575.9761961476, 406.26995849566, -4154.5145046767
4812, -1582.2669153852, 381.03498327228, -4335.5915368105
4813, -1598.0683803646, 308.1131312989, -3989.4919975704
4814, -1603.5189816891, 278.35790874832, -4114.2718286079
4815, -1568.1529550827, 435.49117036432, -4029.7346736393
4816, 29.549175344312, 1627.2317278853, -4856.7114178704
4817, 85.826325479001, 1625.2353958288, -4728.3882540749
4818, 280.32751039251, 1603.1758284471, -4575.2069293918
4819, -945.26142061911, -1324.8536133057, -1785.1576674619
4820, -1104.1278363873, -1195.6830562129, -1761.5863882232
4821, -1105.0757517461, -1194.8070274747, -1546.9962875776
4822, -1599.1263772256, -302.57408954071, -6473.7895731736
4823, -1559.7947494074, -464.53911538327, -6514.3823730177
4824, -1570.238388379, -427.91080105672, -6668.8608703051
4825, -726.46308713039, -1456.3679593554, -1961.4035456735
4826, -916.81120827922, -1344.6982778206, -1962.985156369
4827, -977.88053039109, -1300.9634577043, -2183.2343894439
4828, -1228.2034395174, 1067.8354560313, -6358.2401752092
4829, -1207.8779750399, 1090.7736004385, -6199.8339395705
4830, -1080.1327576149, -1217.4027583044, -2253.2577139212
4831, -905.14297666968, -1352.5799206648, -2308.9919804119
4832, -1011.8192622839, -1274.7462612109, -2379.0153048892
4833, -1627.440009824, -13.97370473217, -5409.6252223937
4834, -1620.584805092, 149.87040903673, -5560.6469266588
4835, -1038.8645639581, 1252.8035232039, -1931.9729036443
4836, -1035.599378596, 1255.5039534193, -1758.9510249246
4837, -898.95085297065, 1356.7032151297, -1769.0714149905
4838, -715.37544267131, 1461.8461704375, -1886.4792407114
4839, -1607.5656796453, 253.94652119406, -5647.8258125846
4840, 913.49849282654, -1346.9509098715, -4827.1438930096
4841, 773.26540579045, -1432.0673385731, -4812.5145306467
4842, 783.1058319913, -1426.7100286678, -4635.1117464582
4843, 578.56081902744, -1521.1915161104, -4919.9678700809
4844, -279.88374160721, -1603.2533615071, -5917.6502251124
4845, -361.68234657899, -1586.8024861882, -6037.8891515495
4846, -512.31924516652, -1544.760577252, -5939.6013261352
4847, -265.79480783907, -1605.6492051895, -6227.185777206
4848, -212.3174080581, -1613.5915121974, -6096.5973384361
4849, -185.83940720861, -1616.8549609437, -5995.6254605132
4850, -544.07435599837, 1533.8641873207, -4238.9055613594
4851, -544.01570158438, 1533.8849912655, -4077.0804985016
4852, -1619.304132785, -163.12686947709, -5899.8670205885
4853, -1627.4848613489, 7.0196923145845, -6032.1411899033
4854, 804.29880494447, 1414.8709066077, -5754.2500230756
4855, 791.19831249741, -1422.2381939398, -3662.4959370508
4856, 890.40858039833, -1362.3247813767, -3701.6497401948
4857, -1160.8680507097, -1140.6759482173, -1214.6618665467
4858, -1251.4376642352, -1040.5095014144, -1135.6651453181
4859, -1209.560800389, -1088.9072137525, -1004.8820752624
4860, -1115.1230143145, -1185.4353263448, -1083.878796491
4861, -1408.999951154, -814.53998529732, -998.03336608639
4862, -1291.7746633513, -989.98710553401, -929.52144519381
4863, -1334.5141046008, -931.57305382961, -1072.0282489652
4864, -1251.4899170444, -1040.4466529026, -794.95417245419
4865, -1341.0441152877, 922.14799834535, -1169.463122933
4866, -1343.390861564, 918.72588026377, -666.52023287407
4867, -1375.2016794226, 870.38875849429, -809.42755849027
4868, -1290.1683115763, 992.07962271404, -874.12381765129
4869, -1425.7075895137, 784.92937211131, -557.26250059173
4870, -1626.4685911537, 57.932477854921, -4382.3084762069
4871, -1625.1912048019, 86.659089740815, -4216.6721598793
4872, -1105.5989391762, 1194.3229193533, -6973.0860745107
4873, -1244.6516209509, 1048.6174671749, -6931.80917724
4874, -1509.8353653316, 607.57996971109, -1698.0204335194
4875, -1565.9941819838, 443.19123636734, -1792.141037999
4876, -1540.7358482277, 524.29886132426, -1957.0041292557
4877, -1596.4181280129, -316.55238200292, -3231.4213521862
4878, -1614.7615061622, -203.22777422566, -3154.2089591445
4879, -1605.3162191319, -267.79859333492, -3057.0976261833
4880, -1450.6841222845, 737.74780741898, -740.8275389446
4881, -1620.61010673, -149.59656401287, -1321.9787146631
4882, -1599.9708850429, -298.07619330474, -1228.1184823357
4883, -1594.2470931184, -327.31094708802, -7138.5489255049
4884, -1520.4953397219, 580.38794946493, -2871.6874071604
4885, -1426.9598635196, 782.65049537083, -7285.2292906096
4886, -1474.290337911, 689.36510612468, -7358.9810298607
4887, -1428.8797920471, -779.13977557276, -4793.1907452946
4888, -1463.8453390418, -711.27566622617, -4894.5000448935
4889, -110.42089214492, 1623.7498195775, -5730.9175344783
4890, -92.982018786408, 1624.8417135778, -3355.7325789964
4891, -229.70296445041, 1611.2084899611, -3442.2774711107
4892, -126.67878881163, 1622.5623977109, -3599.594700567
4893, -795.15160825838, -1420.0317496043, -3102.5895582504
4894, -1627.0466668135, -38.410857985558, -6125.4925391097
4895, 75.753858962042, 1625.7360188088, -2127.8143777078
4896, 219.7134733231, 1612.601078891, -2164.2125800761
4897, 255.99245414714, 1607.2411497407, -2019.4585228184
4898, 1374.1341561075, 872.07314545207, -4606.2465465448
4899, -128.21622724075, -1622.4416319462, -1860.9773817896
4900, -124.2765259395, -1622.7481613302, -1977.9598064331
4901, -277.42288273204, -1603.6810138356, -1970.9390890043
4902, -204.15568923302, -1614.6444514362, -4128.0924868461
4903, -145.52193833038, -1620.9810657329, -3869.6007760407
4904, 47.124073013699, -1626.8176209221, -3357.1048877154
4905, 111.56640161361, -1623.6715148179, -3537.2290257866
4906, 252.94646115282, -1607.7233399408, -3509.8778607818
4907, 64.22873362849, -1626.232123584, -4421.4714560334
4908, -73.629563847354, -1625.8336130514, -4274.0855573221
4909, -892.35822131889, -1361.0485130386, -6818.4893220175
4910, -859.64567999202, -1381.9426742347, -6681.6440260761
4911, -1334.2585148947, -931.93908890605, -5604.6531859913
4912, -1402.4862858886, -825.70483097434, -5683.9841293836
4913, -1319.7967732131, 952.30915537769, -1021.8009099878
4914, -1172.128355166, 1129.1020188698, -936.5118956653
4915, -407.99677950485, -1575.5300307876, -1962.579828241
4916, -568.41515631357, -1525.0116262091, -1953.6513460845
4917, -530.0870987783, -1538.7540146849, -2129.2838578422
4918, -1298.6733769969, -980.91982846689, -6508.757450287
4919, -1270.1352695271, -1017.6014185835, -6394.8078631186
4920, -1233.1422591412, -1062.1282496574, -1431.4881407967
4921, -1117.484858365, -1183.2091283138, -1419.2973596976
4922, -1388.2722416045, -849.38591534734, -1355.5951015053
4923, -1306.015395298, -971.12308037888, -1391.7928448229
4924, -1579.7347356248, -391.40058132372, -2272.3851953128
4925, -1533.3643012802, -545.48159415277, -2273.1438619727
4926, 234.19293084926, 1610.5619892262, -4238.9996335393
4927, -1577.7419786515, 399.35760766623, -5158.1721248562
4928, -1571.3312728288, 423.88003141256, -5314.7188976562
4929, -1589.7771948129, 348.37439752766, -4982.805436902
4930, -1125.0384525111, -1176.0292217337, -5418.0784719278
4931, -1081.032641852, -1216.6037470148, -5250.3189737419
4932, -1581.9831178661, 382.21154454922, -5568.3912698155
4933, -1218.5966413549, -1078.7856486247, -3874.1005099181
4934, -1370.808222287, -877.29189424635, -3948.205523782
4935, -796.87720251027, -1419.0641191008, -6966.2232619407
4936, -936.23929570981, -1331.2446173295, -7088.8996572823
4937, -1199.0159410991, -1100.5076205961, -3311.4988608465
4938, -1069.4025184314, -1226.8392329774, -3240.9367534895
4939, -1016.3389515819, -1271.1456979817, -3406.7059832347
4940, -948.70248213884, -1322.3917159388, -3181.8833736671
4941, -837.15695386487, -1395.6806527984, -3505.4390874027
4942, -887.21732503219, -1364.40524338, -3349.1842123956
4943, -1550.7900412691, -493.76765578605, -8555.091043526
4944, -1609.242591894, -243.09366596932, -8553.9292680271
4945, 1132.5565146456, 1168.790824371, -8132.7898153915
4946, -637.67175497903, 1497.3746968952, -2900.4422711326
4947, -681.08769545352, 1478.1325384085, -3076.5359330009
4948, -499.05972164767, 1549.0951049658, -2942.1574056972
4949, -1454.5884424051, -730.01966632517, -8555.730955625
4950, -1623.8378980489, -109.11796763166, -2959.4281021757
4951, -1616.7323889946, -186.90273506814, -2826.6897867722
4952, 571.34052788711, 1523.9180592124, -6492.7119394584
4953, 678.88179324939, 1479.1469706539, -4340.4962122143
4954, 222.72775430251, 1612.1875193238, -3225.9822590352
4955, 392.89822212028, 1579.3629212612, -3194.2626079894
4956, 1132.3778943452, -1168.9638807073, -4785.7459464022
4957, 1124.0112674575, -1177.0110112605, -4666.8685600681
4958, 1035.3032613507, -1255.7481463401, -4799.7593515313
4959, 504.04601729701, 1547.4798423395, -3217.4358180412
4960, 1109.3349653024, 1190.8535530272, -3404.7542686734
4961, 1113.2566766766, 1187.1881998381, -3567.9252221718
4962, 1216.2934761098, 1081.3817225998, -3577.9460535075
4963, 1212.7201816249, 1085.3874935154, -3414.7751000091
4964, 604.07056104005, 1511.2428683983, -3391.7742021508
4965, 615.12779244444, 1506.7760447268, -3237.5909868644
4966, 719.38994680095, 1459.874773548, -3297.0926962787
4967, 793.28075407109, 1421.0777231455, -3394.520518217
4968, -71.576228004332, 1625.9253038146, -2060.5173229736
4969, 496.32049371752, 1549.974908673, -3770.9616388716
4970, 571.04603329506, 1524.0284373521, -3935.0533312884
4971, 609.33550363298, 1509.1277262089, -3805.2554421601
4972, 690.77327868629, 1473.6310689766, -3899.102564912
4973, -1253.9114102434, -1037.5270720619, -5603.7664957443
4974, -1253.2424367637, -1038.335034897, -5736.8292830763
4975, -1333.6575789125, -932.7988594596, -5737.7159733233
4976, -1165.2330007736, 1136.2166623968, -5216.2212060286
4977, -1462.541607265, 713.95258737447, -4202.1067770776
4978, -1625.7471919245, -75.513693789371, -3127.1584808007
4979, -1617.5046368809, -180.09719506127, -3300.6480058629
4980, -1626.933757886, 42.927816751084, -2918.5444627228
4981, -1386.6137975163, -852.09062108283, -4648.5642913044
4982, -1296.7491071063, -983.4622530728, -4720.808239786
4983, -1345.9389245724, -914.98888590019, -4865.4346937762
4984, -147.57133591862, -1620.7957770229, -6410.6822273397
4985, 13.835522227489, -1627.4411904351, -6436.2869304005
4986, -676.91764580799, 1480.0468745259, -2105.820693114
4987, -733.49902403187, 1452.8370286251, -2221.4604945285
4988, -642.40370392881, 1495.3507050784, -2282.3173486647
4989, -584.25036617387, 1519.0153915039, -2166.6775472502
4990, -503.90246399388, 1547.5265932387, -2299.0882576032
4991, -1405.5528661609, -820.47388162388, -7121.207158175
4992, -1427.0198306308, -782.54115098604, -7265.0698365402
4993, -1380.9793455271, -861.19236946663, -6968.8997154983
4994, -1318.296143349, -954.38541922593, -7183.2245845846
4995, -210.02156471345, -1613.8919394914, -6851.4535974797
4996, -285.82033800655, -1602.2056623236, -7018.4347094677
4997, -410.79745995761, 1574.8021135661, -4357.0516495294
4998, -1610.5181666775, 234.49410398096, -4264.4579165823
4999, -1616.6501160856, 187.61303835436, -4386.0900190457
5000, 1545.3301100713, 510.59876704409, -4851.407115143
5001, -1481.4108798859, 673.9273365547, -912.05391767574
5002, -1411.7713611917, 809.72703654926, -980.65393722141
5003, 1200.6792577458, -1098.6926640417, -3264.5830972774
5004, 696.98335187905, -1470.7040685343, -6362.025340514
5005, -134.55622628672, 1621.9281340329, -2472.2184446413
5006, 53.93070691031, 1626.6061996845, -2555.8714127628
5007, -59.799001735199, 1626.4010358431, -2614.8380838603
5008, -1517.7004465459, 587.65772738412, -1048.0795847923
5009, -1624.0166853087, -106.423943918, -8444.567367166
5010, 1171.3553202834, 1129.9039621329, -3732.7881456673
5011, 1006.0512351824, 1279.3033894225, -3629.4879107254
5012, 1068.9010749818, 1227.2761473698, -3794.3508342209
5013, 917.19724948384, 1344.4349949102, -3499.2483934489
5014, -1045.2431260539, 1247.4866962967, -2982.4363298518
5015, -938.78159659333, 1329.4530318509, -2858.5948676538
5016, -1598.9867108611, 303.31130623416, -3786.8521435702
5017, -1575.2330463588, 409.1419065058, -3865.1996426599
5018, -1447.4128093203, -744.14542222301, -5013.6894324794
5019, -1375.5184627263, -869.88804377293, -4990.8033668061
5020, -103.36463237241, -1624.2142724328, -3606.1698665866
5021, -1242.6789074704, -1050.9545103991, -4924.0994639995
5022, 1302.4465607228, 975.90430189709, -4797.3701495114
5023, -1250.9894570195, -1041.0483314554, -6201.0898599115
5024, -1328.1376707815, -940.64157756883, -6123.1672910391
5025, -1430.5741353379, -776.0244154034, -6062.7572585486
5026, -1274.1928901214, 1012.5160387688, -8439.5134449171
5027, 1070.4864323181, 1225.8935713278, -4655.2523843726
5028, 1221.7920160275, 1075.1653452244, -4730.4619275438
5029, -1096.3445772401, -1202.8236853156, -4156.1077533218
5030, -1036.4415381465, -1254.8088252816, -4268.0673046551
5031, -1136.9376615357, -1164.5295203565, -4363.1758237735
5032, -1582.0476052456, 381.94453096842, -3641.8399156368
5033, -1534.1935600946, 543.1448887398, -3677.1302904946
5034, -1047.0008361226, -1246.0118374873, -4045.7970666243
5035, -1131.9978765411, -1169.3318850979, -3969.9969942424
5036, -1612.1338483815, 223.11590015643, -3550.6673948503
5037, -822.71080399903, 1404.2447019602, -8041.0272995322
5038, -862.82049637195, 1379.9626955249, -8187.9774782358
5039, -781.52874930104, 1427.5745388651, -7896.3864548353
5040, 305.66767188209, -1598.5379333523, -4542.2192067237
5041, -1569.4586209548, -430.76198429126, -1707.4105910155
5042, -1573.98631123, -413.91223956348, -1920.7170356027
5043, -1583.3214731897, -376.62894543109, -3835.0178094496
5044, -1596.7915555409, -314.66327741461, -3714.3606104838
5045, -782.9226127124, -1426.8105804568, -2557.6128624977
5046, 400.54235727951, 1577.4416217486, -2047.4773208202
5047, 373.07972727702, 1584.1615344071, -2197.6883757204
5048, 714.50175707566, -1462.2733975341, -3971.9345511918
5049, 690.64900441003, -1473.6893168872, -4130.6399641516
5050, -1602.1283943673, -286.25313616099, -7252.1126953455
5051, -1621.9771733542, -133.96379778908, -7191.5858590972
5052, 1386.61074664, -852.09558577809, -5283.5228584462
5053, -1576.1192685017, -405.71455662548, -7845.9707742295
5054, 1287.9968500539, 994.89716265115, -3534.5985061703
5055, 1373.5918305173, 872.92710642766, -3768.072307359
5056, 1319.5558603612, 952.64294538213, -3639.591190196
5057, 282.7674894443, 1602.7472654518, -4444.8725584952
5058, 714.65773602975, 1462.1971721806, -4486.0446737503
5059, -1070.0631258982, 1226.2630862066, -935.8531821702
5060, -1626.9052992529, 43.993150180335, -8342.8978052433
5061, -1620.1034290748, -154.98751272326, -5273.9632431898
5062, -1620.7120705054, -148.4878261609, -5413.612064455
5063, -1627.370867423, -20.501460022344, -5269.9764011286
5064, -1556.1513609151, -476.60171204287, -5373.4641814634
5065, -1597.0060378135, -313.57290250794, -5396.7259882025
5066, -1601.6483830547, -288.92681955502, -5236.6676404182
5067, -1595.2227292153, -322.52239332329, -5607.924413803
5068, 821.95260238616, -1404.6886378948, -4149.8837354221
5069, -1614.683264208, -203.84848855619, -7433.58084324
5070, -1621.3709851263, -141.11122772626, -7323.590668393
5071, 808.17369866222, 1412.6611493174, -4939.0885769615
5072, 931.43244769301, 1334.6122453299, -4721.3618114506
5073, 1082.5166331982, -1215.2835014305, -4292.7557001101
5074, 925.83215742986, -1338.5032933351, -4146.0009520443
5075, -1124.0558971428, -1176.9683895918, -4993.7109960249
5076, -991.81693664922, -1290.3702624347, -5076.1045875844
5077, 197.43070838094, 1615.4805369884, -6760.0535799383
5078, -1211.123105022, -1087.1692943061, -1311.5174439797
5079, -1285.8454122304, -997.67621292989, -1271.822148006
5080, -1253.7270485641, -1037.749843507, -1837.7042061544
5081, -1347.0947727174, -913.2863315069, -1835.3851436411
5082, -1341.3547345405, -921.69611376301, -2001.8857325299
5083, -407.34325135188, 1575.6991227954, -2979.3686055808
5084, -275.45160951172, 1604.020779422, -3058.7499613253
5085, 66.642296007512, 1626.1350049682, -5610.235934456
5086, 250.9977490519, 1608.0287248588, -5484.4193075703
5087, 65.119651595426, 1626.1966919706, -5454.893338508
5088, 413.15537771083, 1574.1851491704, -5449.0647833069
5089, -1627.3903078677, 18.895392514081, -1010.2964269566
5090, -1620.8063557017, 147.45510271568, -1112.7918055225
5091, -1623.6001131629, 112.60072174473, -872.50549863127
5092, -1627.4768892907, -8.6732245833548, -765.73760482643
5093, 417.74271789788, -1572.9740212868, -5011.4177091533
5094, -1060.7718875291, -1234.3092208308, -7162.3049047437
5095, -1225.9671640327, -1070.4021499948, -7274.5086983611
5096, -1097.8916347492, -1201.4117563715, -7987.4994081293
5097, -1186.1420509897, -1114.3712509187, -8091.6902614306
5098, -1596.1371804937, 317.96595894165, -2495.9880433665
5099, -1559.0592305631, 467.0016762241, -2438.0393363552
5100, 852.96627042272, -1386.07531957, -3877.0844836652
5101, 811.4758481696, -1410.7668828823, -4022.0078808285
5102, 757.56268711539, -1440.4357066841, -3827.0111540286
5103, 934.41328950909, -1332.5269432131, -3819.7664751161
5104, 915.84509180873, -1345.3564649601, -4018.1250974507
5105, -1612.132836503, -223.12321140747, -5055.6265557787
5106, -1613.0616857472, -216.30591294334, -4894.9514384921
5107, -918.59693930957, -1343.4790333649, -4919.8295072015
5108, -1056.7360003726, -1237.7662442951, -4815.8734550968
5109, -1625.3797574077, -83.047541861283, -4701.9176776829
5110, -1625.9158589765, 71.790455694068, -1260.4320708681
5111, -1625.8088842787, -74.173592339549, -1163.6459660134
5112, -691.66569444344, -1473.2124141243, -3468.4956442751
5113, -729.36070579025, -1454.9189705441, -3269.8903969788
5114, -1078.4140712958, 1218.9254861686, -3293.9467433582
5115, -665.36810272332, -1485.2749031335, -6409.0195752845
5116, -722.03831784254, -1458.5667340122, -6537.0181043891
5117, -583.92691880156, -1519.1397577244, -6620.6451396126
5118, -682.16402474548, 1477.6361166888, -7039.4735033474
5119, -1561.2289434859, 459.69602567548, -5912.4979694875
5120, -1590.1627226131, 346.61039455247, -5790.8769300848
5121, -1557.1955908577, 473.17876306257, -5711.4423873157
5122, -1007.2061440829, -1278.3943184017, -7919.8357329753
5123, 888.72044316185, -1363.4266477909, -5285.8556418302
5124, -947.28326949367, 1323.4087264853, -3159.8705063444
5125, -241.24414246789, 1609.5208957093, -6525.9055801128
5126, -265.49203584647, 1605.6992959151, -6683.8033473031
5127, -1182.1955338029, -1118.5570928015, -4746.2619230714
5128, -1456.2650629514, -726.66933087008, -7675.1020731158
5129, -1526.315638974, -564.90425757249, -7775.7986192043
5130, -1615.8261335788, -194.58200339115, -6112.5173738076
5131, -1598.0384243289, -308.26846152066, -5857.9569612713
5132, -1591.7422922914, -339.28266229055, -6070.6073144903
5133, -1622.6280728508, -125.83476147966, -901.0775683563
5134, -1612.7801995144, -218.39477570289, -1054.4271074131
5135, 1250.6922842162, 1041.4053294477, -3682.9387375332
5136, 1284.2383962836, 999.74396297798, -3792.7594914005
5137, 1283.6728873495, 1000.4699737042, -3954.5379549629
5138, -1208.6131789178, -1089.9589137881, -688.7545682049
5139, -1189.9917912446, -1110.2593331156, -513.55756206235
5140, -1103.4064390065, -1196.348812161, -556.22715120511
5141, -1277.9970549509, -1007.7101654429, -615.90912451781
5142, -1526.8793964826, 563.37869909764, -4020.6525275326
5143, -1536.1091575612, 537.70336251183, -3856.1174965532
5144, 1207.852428855, 1090.8018885706, -3842.6088995346
5145, 1026.0303239045, 1263.3360694718, -4002.7857504186
5146, 1131.2687858455, 1170.0372575998, -3927.867532543
5147, -1545.5882457441, -509.81685399523, -540.79649627747
5148, -1488.6488475427, -657.78481185695, -934.79366664311
5149, -1498.5713916321, -634.85434091758, -658.41439184272
5150, -1600.2059904856, 296.81145195901, -4812.2003906
5151, -1024.6813710893, 1264.4304400569, -1346.9022960786
5152, -919.72402180481, 1342.7077022626, -1243.1204699888
5153, -1012.1635895623, 1274.4728784734, -1084.4780386052
5154, -1462.1141542158, 714.82756664939, -2338.4056168774
5155, -1400.9539316832, 828.3020773253, -2277.4192614769
5156, -1436.2015613681, 765.55948503281, -2127.5115519653
5157, -1405.6352520116, 820.33273023948, -2444.8647992531
5158, -1496.6529154779, 639.36398130615, -2439.6140725563
5159, -562.04588941064, -1527.3705078325, -3237.2907409812
5160, -1012.6303799849, -1274.1020224188, -5791.5951734206
5161, -1360.86569383, -892.63699976894, -6811.2748322427
5162, -1338.6821638787, -925.57350551595, -6656.1511650394
5163, -1538.7967851416, 529.96292704107, -7425.7585123756
5164, -1563.4422193945, 452.11135422019, -1631.6357742939
5165, -1468.6349619851, -701.33273018941, -2302.0900210319
5166, -12.603100637347, 1627.451201067, -3232.7220521655
5167, -111.40659411743, 1623.6824876764, -3153.2206030297
5168, -191.47871562754, 1616.1968170559, -3276.2311298605
5169, -580.481593149, 1520.4595917075, -5619.8727293227
5170, -1457.5627589779, -724.06287961797, -2142.5941400477
5171, 86.005730707336, 1625.225911769, -3107.2030906727
5172, -251.15860899122, 1608.0036079343, -3170.9741529971
5173, -135.9527313327, 1621.8116736672, -3040.9964113579
5174, -1617.1050516961, 183.65048809891, -2941.4836281487
5175, -11.890267006629, 1627.4565651809, -2973.1353616129
5176, 53.725756161969, -1626.6129819735, -6137.1725940357
5177, 38.99811062099, -1627.0326970802, -6276.2030167946
5178, 197.10600728131, -1615.520186161, -6448.0710290188
5179, 1201.8187443292, -1097.4461060932, -4211.5211282533
5180, -1358.6059870499, -896.07255395539, -7305.2384389038
5181, -1450.2621715837, -738.57693145215, -7422.8652070798
5182, 563.29415885897, 1526.9105869681, -5361.6290322513
5183, -1625.0897787876, -88.540730063098, -5092.9221585504
5184, -95.414753801927, 1624.7006723569, -5301.8076385534
5185, -1157.412337, -1144.1822110837, -4616.0259009818
5186, -1625.154709593, 87.340826006737, -4683.9730638453
5187, -684.130467758, -1476.7267022321, -4304.8365818256
5188, -846.96825403853, -1389.7485479938, -2428.5593570231
5189, -80.541926440541, 1625.5058437561, -5067.3895775629
5190, -753.87775520682, -1442.3676993764, -4064.325735113
5191, -879.32877058168, -1369.5025239945, -3992.3743019845
5192, -1615.4919818644, 197.33703791206, -2605.4515583633
5193, 650.92034324314, 1491.663151235, -4997.5815610402
5194, -1530.87107882, -552.44003297405, -6060.6621032273
5195, -1479.3958216281, -678.33933466181, -5942.3823535641
5196, -1578.9573818186, -394.52482355441, -5734.8826249207
5197, -1532.1390242573, -548.91370938245, -5833.248392114
5198, -1559.6662704485, -464.97029456208, -5956.3227284645
5199, -1430.2161783975, -776.68393381731, -5814.1569944428
5200, -1107.5959117275, 1192.4711930795, -1480.7715652428
5201, -1616.1804818524, -191.61654437816, -6256.5637878334
5202, -222.46073880587, -1612.2243856517, -7174.9074879228
5203, -1626.4205564303, 59.265703580916, -4520.3587764824
5204, -532.06728872152, 1538.0704308557, -4944.9137725508
5205, -821.69585340464, -1404.8388428918, -4240.5945415056
5206, -945.66590648226, -1324.5649260482, -4125.8324738751
5207, -1429.7630935871, 777.51768225312, -1128.3161501666
5208, -581.53245554963, 1520.0579769017, -5068.7166469403
5209, -696.38269013125, 1470.9885787747, -5160.5007635851
5210, -1480.8712228331, 675.1123398255, -1132.0108697655
5211, 336.57027737995, 1592.3180267724, -2485.0110823672
5212, 343.39296641009, 1590.8606226254, -2364.0821399761
5213, -1524.7053854531, -569.2361000238, -2113.6479809885
5214, -1577.6400793187, -399.75996563836, -2092.0965613371
5215, -1145.8364418334, -1155.7746746518, -5764.4048460684
5216, -1126.0817641353, -1175.0302593899, -5602.826385361
5217, 742.20768954598, 1448.4073997252, -6166.1506349303
5218, 624.0057823664, 1503.1210974414, -6123.998561849
5219, -1438.6419004472, -760.96368656955, -1162.9830787642
5220, -1365.1975289105, -885.99771842626, -1208.1852516531
5221, 202.84603932384, -1614.8095040377, -4724.5391632582
5222, 167.15830171419, -1618.8929403046, -4568.1556819153
5223, -841.02051913244, 1393.3559259565, -2965.6332379597
5224, 806.62960801129, 1413.5433935609, -5889.7554862823
5225, 767.38222589426, 1435.2284728856, -6041.7096196478
5226, -1033.8691405939, 1256.929134887, -1587.3670355387
5227, -407.25011718109, -1575.7231965215, -2073.5178103026
5228, -336.83772334982, -1592.2614729147, -2194.2031606159
5229, -461.19596102912, -1560.7865118364, -2249.9692081556
5230, 680.87520697032, 1478.2304294436, -5153.3844605306
5231, -743.68708539729, 1447.6483582049, -2828.8763917809
5232, -575.36190386748, 1522.4043252625, -3753.3168539465
5233, 898.86755706697, 1356.7584032732, -4572.0358087355
5234, -1105.891194399, 1194.0523088001, -5366.8244329429
5235, -316.67415853853, 1596.3939762208, -3804.3725606482
5236, -533.79957062683, 1537.4700869931, -3956.1277773331
5237, -451.01496823449, 1563.7588523901, -3823.8341608574
5238, -973.12949696353, 1304.5210738579, -5285.725033321
5239, 1253.4223850181, -1038.1178038814, -4378.343026063
5240, -1625.7256866562, 75.975270622505, -2787.5271628918
5241, -457.41852211971, 1561.8977385289, -744.70381627668
5242, -358.53886135249, 1587.5157117018, -885.2914278472
5243, -1616.1685669254, -191.71701354398, -2583.2165538089
5244, -1626.1917071922, -65.244014740445, -2703.92324239
5245, -703.43340172738, 1467.6299599471, -4879.2107837453
5246, -750.53077255145, 1444.1121180342, -5003.0136581348
5247, -829.2812686203, 1400.3745311578, -5206.0065901188
5248, -91.302775924575, -1624.9369381944, -5318.498752554
5249, -29.937019220552, -1627.224638727, -5470.7337759555
5250, 997.26375943986, -1286.1653253404, -5366.4133507519
5251, -838.44304531695, 1394.9084234313, -4814.9510993028
5252, -276.66289480401, -1603.8122996905, -2081.8770710659
5253, -153.65370503987, -1620.2304740152, -2144.2208496425
5254, -742.99306778585, -1448.0046792819, -6706.4633727133
5255, -686.55708589322, -1475.6000873576, -6840.7693568059
5256, 246.96132343909, 1608.653584438, -2557.1601396922
5257, -291.86279230938, 1601.1159734589, -3322.6878005859
5258, -1489.2128942694, -656.50682063623, -7532.4361443812
5259, -1041.7756220563, 1250.3838623756, -4746.1120828222
5260, -399.37293908318, 1577.7380978883, -3978.0341317036
5261, 998.70145248613, 1285.0492826355, -3365.3377825945
5262, -952.49725886407, -1319.6610253608, -2488.8873203505
5263, -1031.8053692434, -1258.6238238649, -2542.1561241609
5264, -1624.7910458491, -93.863237365014, -2489.5410264827
5265, -1626.5173133799, 56.548026272185, -2521.8476378614
5266, 1139.9510211779, -1161.5799237743, -4459.5775979198
5267, -85.832900873446, 1625.2350485784, -2823.9583338737
5268, -835.06640096311, -1396.9324808245, -1093.8519885945
5269, -954.62303311402, -1318.1240892451, -1026.2995090156
5270, -92.379265539989, -1624.8760941371, -6127.1839569852
5271, -107.08520029499, -1623.9732171061, -6266.2143797441
5272, 410.30541278188, -1574.930385205, -5898.6743510033
5273, -1608.6708089471, 246.84910054833, -8364.7177457699
5274, -1620.1470204985, 154.5311682795, -8259.6434094778
5275, -1593.2909094262, 331.93422230909, -8218.5495907009
5276, -1555.8324542779, -477.64173207071, -5508.2510194301
5277, -1614.4546414951, -205.65130817699, -3833.2043467632
5278, 1620.2860724675, -153.06630382862, -186.75
5279, 1620.2860724675, 153.06630382862, -186.75
5280, 1510.1236846001, -606.86300530659, -207.0597029321
5281, 1581.6121327954, -383.74380958434, -202.91824202675
5282, 1437.9220749236, -762.32300007764, -207.43539391035
5283, 1309.1914137566, -966.83715906349, -207.49072811927
5284, 1143.391388967, -1158.1935855616, -207.49869149997
5285, 948.41177408892, -1322.6002256047, -207.49981774813
5286, 729.88194628536, -1454.657552308, -207.49997488235
5287, 493.34485029978, -1550.9245980004, -207.49999656827
5288, 244.65405730499, -1609.0061038555, -207.49999953453
5289, -10.061877193261, -1627.4688963625, -207.49999993725
5290, -264.53020035718, -1605.8580332953, -207.49999999159
5291, -512.48493360001, -1544.705616884, -207.49999999888
5292, -747.82059001685, -1445.5174212533, -207.49999999985
5293, -964.74242205877, -1310.7357891964, -207.49999999998
5294, -1157.9090939299, -1143.6794919008, -207.5
5295, -1322.5642010358, -948.4620098552, -207.5
5296, -1454.6533881742, -729.89024536119, -207.5
5297, -1550.924181178, -493.34616065941, -207.5
5298, -1609.006073619, -244.65425616015, -207.5
5299, -1627.4688965424, 10.061848086713, -207.5
5300, -1605.8580339734, 264.53019624032, -207.5
5301, -1544.7056170708, 512.4849330371, -207.5
5302, -1445.5174212918, 747.82058994253, -207.5
5303, -1310.7357892033, 964.74242204932, -207.5
5304, -1143.679491902, 1157.9090939287, -207.5
5305, -948.46200985538, 1322.5642010357, -207.5
5306, -729.89024536122, 1454.6533881742, -207.5
5307, -493.34616065942, 1550.924181178, -207.5
5308, -244.65425616014, 1609.006073619, -207.5
5309, 10.061848086713, 1627.4688965424, -207.5
5310, 264.53019624032, 1605.8580339734, -207.5
5311, 512.4849330371, 1544.7056170708, -207.5
5312, 747.82058994253, 1445.5174212918, -207.5
5313, 964.74242204932, 1310.7357892033, -207.5
5314, 1157.9090939287, 1143.679491902, -207.5
5315, 1322.5352105538, 948.50243375824, -207.45947265625
5316, 1454.8918572435, 729.41478853019, -207.00354003906
5317, 1554.2828790393, 482.66031733006, -204.02351379395
5318, 1614.6726540421, -203.93251405432, -300.875
5319, 1625.6955177617, -76.618101839904, -197.125
5320, 1614.6726540421, -203.93251405432, -93.375
5321, 1625.6955177617, 76.618101839904, -197.125
5322, 1614.6726540421, 203.93251405432, -300.875
5323, 1614.6726540421, 203.93251405432, -93.375
5324, 1529.8670181908, -555.21451408615, -311.02985146605
5325, 1529.8670181908, -555.21451408615, -103.52985146605
5326, 1565.8626126638, -443.6558669302, -101.45912101337
5327, 1565.8626126638, -443.6558669302, -308.95912101337
5328, 1551.0967746372, 492.80325253614, -102.01175689697
5329, 1452.510180615, 734.14605168855, -103.50177001953
5330, 1509.637403695, 608.07167288482, -205.5135269165
5331, 1452.510180615, 734.14605168855, -311.00177001953
5332, 1551.0967746372, 492.80325253614, -309.51175689697
5333, 1319.6114271134, 952.56597222015, -103.72973632812
5334, 1393.0273250393, 841.56468657719, -207.23150634766
5335, 1319.6114271134, 952.56597222015, -311.22973632812
5336, 1154.3682055049, 1147.2533704982, -103.75
5337, 1244.0556691388, 1049.3244217512, -207.47973632812
5338, 1154.3682055049, 1147.2533704982, -311.25
5339, 960.68605005142, 1313.7117504371, -103.75
5340, 1064.6075878877, 1231.0024101569, -207.5
5341, 960.68605005142, 1313.7117504371, -311.25
5342, 743.34861571148, 1447.822187121, -103.75
5343, 858.92929836964, 1382.3880462454, -207.5
5344, 743.34861571148, 1447.822187121, -311.25
5345, 507.70747142012, 1546.2824365116, -103.75
5346, 632.10131890284, 1499.7347007525, -207.5
5347, 507.70747142012, 1546.2824365116, -311.25
5348, 259.5648841979, 1606.6680804981, -103.75
5349, 389.70890714065, 1580.152909593, -207.5
5350, 259.5648841979, 1606.6680804981, -311.25
5351, 5.0309480802618, 1627.492224117, -103.75
5352, -249.62686667587, 1608.2421078412, -103.75
5353, -117.65890718088, 1623.2413965769, -207.5
5354, -249.62686667587, 1608.2421078412, -311.25
5355, 5.0309480802618, 1627.492224117, -311.25
5356, 137.72056871495, 1621.6625095725, -207.5
5357, -498.13803951037, 1549.3917334208, -103.75
5358, -370.14123029439, 1584.8506931683, -207.5
5359, -498.13803951037, 1549.3917334208, -311.25
5360, -734.38340058675, 1452.3901923872, -103.75
5361, -613.50944788974, 1507.4357058761, -207.5
5362, -734.38340058675, 1452.3901923872, -311.25
5363, -952.54580506192, 1319.6259846104, -103.75
5364, -841.77102675692, 1392.9026486128, -207.5
5365, -952.54580506192, 1319.6259846104, -311.25
5366, -1231.0024101569, 1064.6075878877, -207.5
5367, -1313.7117504371, 960.68605005142, -311.25
5368, -1147.2533704982, 1154.3682055049, -311.25
5369, -1147.2533704982, 1154.3682055049, -103.75
5370, -1313.7117504371, 960.68605005142, -103.75
5371, -1049.3054092675, 1244.0717053619, -207.5
5372, -1499.7347007525, 632.10131890284, -207.5
5373, -1546.2824365116, 507.70747142012, -311.25
5374, -1447.822187121, 743.34861571148, -311.25
5375, -1447.822187121, 743.34861571148, -103.75
5376, -1546.2824365116, 507.70747142012, -103.75
5377, -1382.3880462454, 858.92929836964, -207.5
5378, -1606.6680804981, 259.5648841979, -103.75
5379, -1627.492224117, 5.0309480802619, -103.75
5380, -1621.6625095725, 137.72056871495, -207.5
5381, -1627.492224117, 5.0309480802619, -311.25
5382, -1606.6680804981, 259.5648841979, -311.25
5383, -1580.152909593, 389.70890714065, -207.5
5384, -1608.2421078412, -249.62686667587, -103.75
5385, -1623.2413965769, -117.65890718088, -207.5
5386, -1608.2421078412, -249.62686667587, -311.25
5387, -1584.8506931683, -370.14123029439, -207.5
5388, -1549.3917334208, -498.13803951037, -311.25
5389, -1549.3917334208, -498.13803951037, -103.75
5390, -1452.3901923872, -734.38340058674, -103.75
5391, -1319.6259846105, -952.54580506183, -103.75
5392, -1392.9026486129, -841.77102675681, -207.5
5393, -1319.6259846105, -952.54580506183, -311.25
5394, -1452.3901923872, -734.38340058674, -311.25
5395, -1507.4357058761, -613.50944788972, -207.5
5396, -1154.3682055055, -1147.2533704976, -103.75
5397, -960.68605005615, -1313.7117504337, -103.74999999999
5398, -1064.6075878927, -1231.0024101525, -207.49999999999
5399, -960.68605005615, -1313.7117504337, -311.24999999999
5400, -1154.3682055055, -1147.2533704976, -311.25
5401, -1244.0717053625, -1049.3054092668, -207.5
5402, -743.3486157487, -1447.8221871019, -103.74999999993
5403, -507.70747170186, -1546.2824364191, -103.74999999944
5404, -632.10131921466, -1499.7347006211, -207.49999999936
5405, -507.70747170186, -1546.2824364191, -311.24999999944
5406, -743.3486157487, -1447.8221871019, -311.24999999993
5407, -858.92929841015, -1382.3880462202, -207.49999999992
5408, -259.56488625737, -1606.6680801653, -103.74999999579
5409, -389.70890945405, -1580.1529090225, -207.49999999523
5410, -259.56488625737, -1606.6680801653, -311.24999999579
5411, -5.0309626337442, -1627.492224072, -103.74999996863
5412, -137.72058529499, -1621.6625081644, -207.49999996442
5413, -5.0309626337442, -1627.492224072, -311.24999996863
5414, 249.6267672955, -1608.2421232668, -103.74999976727
5415, 117.65879235817, -1623.2414048997, -207.49999973589
5416, 249.6267672955, -1608.2421232668, -311.24999976727
5417, 498.13738497797, -1549.3919438565, -103.74999828414
5418, 370.14046284763, -1584.850872405, -207.4999980514
5419, 498.13738497797, -1549.3919438565, -311.24999828414
5420, 734.37925750775, -1452.3922872772, -103.74998744117
5421, 952.52074315027, -1319.6440746915, -103.74990887406
5422, 841.7405997966, -1392.9210360441, -207.49989631524
5423, 952.52074315027, -1319.6440746915, -311.24990887406
5424, 734.37925750775, -1452.3922872772, -311.24998744117
5425, 613.5045109798, -1507.4377151337, -207.49998572531
5426, 1147.1097683057, -1154.5109048673, -103.74934574998
5427, 1049.1270199863, -1244.2221449302, -207.49925462405
5428, 1147.1097683057, -1154.5109048673, -311.24934574998
5429, 1312.9432237004, -961.73610795231, -103.74536405964
5430, 1230.0182606549, -1065.7444949215, -207.49470980962
5431, 1312.9432237004, -961.73610795231, -311.24536405964
5432, 1444.0652115735, -750.62101937217, -103.71769695517
5433, 1377.3578475576, -866.97266956426, -207.46306101481
5434, 1444.0652115735, -750.62101937217, -311.21769695517
5435, 1605.0984571458, -269.10071138525, -194.83412101337
5436, 1476.0709341204, -685.54419802444, -207.24754842122
5437, 1595.8164244053, 319.57188486808, -195.38675689697
5438, 427.15863223764, -1570.4431708613, -9999.660932663
5439, 216.55256762112, -1613.0285910227, -9779.4548059903
5440, 469.655627726, -1558.2618012854, -9783.8084245366
5441, 293.87060608098, -1600.7486738653, -9539.6393236119
5442, 404.14523592492, -1576.5224001831, -10208.459587371
5443, 235.848121684, -1610.3204381421, -10221.495668821
5444, 348.87807676548, -1589.6667378896, -10426.259874409
5445, 625.06680499044, -1502.6801853019, -10198.426223521
5446, 648.93406265051, -1492.5283355206, -9985.3176780952
5447, 575.61227885929, -1522.309677571, -10429.21286876
5448, 843.58031322306, -1391.8076394181, -10181.125666384
5449, 846.2507184452, -1390.1855888805, -9955.8162216234
5450, 801.28367750898, -1416.5806430125, -10424.932749952
5451, -33.547549543556, -1627.1542065581, -10295.340659819
5452, 141.2295858397, -1621.3606798253, -10060.978610107
5453, 148.73205613992, -1620.6896758715, -10383.310808034
5454, 1050.1793091228, -1243.3340937537, -10162.448847441
5455, 1062.9210805215, -1232.4589350494, -9862.9511424319
5456, 1011.4532628453, -1275.0366846015, -10419.960505015
5457, 1094.0966866225, 1204.8687440222, -9103.6545445158
5458, 1149.0487608975, 1152.5811013026, -9316.9963356244
5459, -284.19341717638, -1602.4950395036, -9689.0267849683
5460, -177.15157117592, -1617.8298955174, -9477.7034059149
5461, 41.69742121021, -1626.9657571886, -9522.7336661341
5462, -246.85564331441, -1608.6698049519, -10229.169003054
5463, -153.03046049529, -1620.2894581403, -9993.2959705452
5464, -112.97286908358, -1623.5742609598, -10454.771917777
5465, 965.72158874235, 1310.0145277961, -9372.0530943068
5466, -1351.0768084756, -907.38509333103, -8888.94684904
5467, -1460.0573505515, -719.01932039451, -8884.4163524829
5468, -1486.4391370091, 662.76311150195, -9994.9789914867
5469, -1436.429079097, 765.13250533791, -9753.0305561223
5470, -1529.418790483, 556.44803289936, -9779.7095756984
5471, -501.02154610677, -1548.4617077399, -10205.299723486
5472, -457.91844262649, -1561.7512445657, -9928.9753366146
5473, -280.09108298949, -1603.2171516141, -10450.396049474
5474, 970.36525754231, -1306.578553687, -9147.4777535246
5475, 1149.5230218188, -1152.1080992287, -9185.8056250872
5476, 1092.7299413117, -1206.1084218929, -9467.1290579049
5477, 1059.6550245469, -1235.2681809844, -8911.5349811844
5478, -754.15887068538, -1442.2207347582, -9989.1144119115
5479, -741.46248350033, -1448.789023827, -9791.0253742086
5480, -570.95570774797, -1524.0622788423, -9774.9800898653
5481, -705.74400923889, -1466.5202499193, -9590.2187131279
5482, -759.8454148402, -1439.232849662, -10207.305388824
5483, -514.36431191452, -1544.0808283988, -10440.121948166
5484, 550.10806294572, -1531.7106022621, -9068.6358647535
5485, 759.72764448587, -1439.2950205583, -9108.5548642942
5486, 646.16803452864, -1493.7279274196, -9331.6241292673
5487, 656.90895894936, -1489.035550164, -8867.6332528544
5488, -961.13395452615, -1313.3840913674, -9788.3762529985
5489, -908.68632760882, -1350.2019878584, -9577.6850067446
5490, -998.26958302259, -1285.3848021553, -10220.445738657
5491, -755.071578227, -1441.7430983895, -10438.500354912
5492, 545.78444189294, -1533.2565320218, -9558.8863446361
5493, 362.73611229499, -1586.561931611, -9266.2598474975
5494, -994.66240607944, -1288.1781506967, -10003.511407851
5495, -1159.5272739765, -1142.038857003, -9758.486650703
5496, -1080.569640109, -1217.0149969802, -9538.0126382394
5497, 32.338429028059, -1627.1786859494, -9118.8496739197
5498, 254.30618384799, -1607.5088226373, -9061.1490771728
5499, 72.373635538291, -1625.8900045449, -9314.1481220641
5500, 234.87809641794, -1610.4622099953, -8869.9809133811
5501, -1208.9062504, -1089.6338503111, -10226.488253931
5502, -978.91362347146, -1300.1862819542, -10443.225349345
5503, -179.07962194618, -1617.6176121085, -9200.569222731
5504, -99.562514806768, -1624.451770797, -9332.2475065894
5505, -2.8379960168499, -1627.4975255829, -8904.1495590988
5506, -1298.2175810852, -981.52298096443, -10308.570204992
5507, -1239.1802987867, -1055.0774554974, -10035.090953689
5508, -1165.9426080475, -1135.4884784706, -10454.583139097
5509, -459.00559546924, -1561.432071314, -9160.5332618735
5510, -401.08459793574, -1577.3038373436, -9360.4534889996
5511, -301.31726947002, -1599.363671314, -8976.4218871064
5512, -498.72310171903, -1549.2035107796, -9618.2891312213
5513, -629.91691190152, -1500.653502345, -9152.6967408121
5514, -665.75352833001, -1485.1021815068, -9373.1235681305
5515, -572.33631378584, -1523.544352463, -8921.5802950062
5516, 1284.7490424026, 999.08765783874, -9742.6129461431
5517, 1159.2417859918, 1142.3286443098, -9902.2752179731
5518, 1357.168941421, 898.24757970288, -9900.278871717
5519, -1478.8025324255, 679.6317532987, -9537.6248160153
5520, -1421.5281136424, -792.47338890603, -10451.265042003
5521, -1307.5657232339, -969.0346378865, -10463.38465475
5522, 297.58457554624, 1600.0623957824, -9803.4126644654
5523, 53.936502102656, 1626.6060075325, -9611.8874087569
5524, 63.075926262263, 1626.2772449758, -9892.2199854626
5525, -770.19542432223, 1433.7207741932, -9963.2969227873
5526, -698.52179066679, 1469.9739990774, -9765.2082485384
5527, -882.50982851645, 1367.4548082375, -9719.7649230404
5528, -1041.3961799942, 1250.699902572, -9657.7069026636
5529, -996.70209494602, 1286.6006310935, -9921.6788008091
5530, 1616.0719098838, 192.53008098611, -8829.6048834833
5531, 1612.4351904012, 220.92760523757, -9039.5705141672
5532, -848.10297328266, -1389.0563691619, -9158.9385021903
5533, -871.10486881269, -1374.748179679, -9374.5303990622
5534, -804.34600211878, -1414.8440758174, -8918.8482056213
5535, -1626.4208555588, -59.257494069667, -9835.3845038207
5536, -1609.4723050512, -241.5681048344, -9707.0302395928
5537, -1607.0303536938, -257.31244102601, -9941.4514483247
5538, -1563.9399455608, -450.38660801497, -9680.160129051
5539, -1443.8276327564, -751.07790334238, -9605.1679645624
5540, -1532.5540846586, -547.75380199172, -9861.5178736836
5541, -1539.6802750028, -527.39065290103, -9501.5351253876
5542, -1086.7593549434, -1211.4909634178, -9218.3033591261
5543, -1012.6899850347, -1274.0546472622, -9384.8686469751
5544, -1021.5105568051, -1266.9934618362, -8922.4222334524
5545, 416.8783568367, -1573.2033198545, -8998.7721129398
5546, 452.75997869369, -1563.2545063723, -8856.5310960434
5547, 826.25616140611, -1402.1615476608, -9807.1295030712
5548, 928.5579523931, -1336.613773327, -9684.923203444
5549, 1280.456337505, -1004.5834050707, -9657.5503066998
5550, 1315.7553352239, -957.88524773574, -9386.3109437172
5551, 1160.4732859487, -1141.0775620436, -9659.1697693074
5552, -1595.1897087156, -322.68567245497, -9536.0140412548
5553, -1615.2035203057, -199.68434588655, -9403.8391984274
5554, -1472.6987758707, -692.75866327963, -10192.804346031
5555, -1563.1062990262, -453.27138443185, -10170.003574593
5556, -823.8042340353, 1403.6035173743, -9581.2827795833
5557, -674.41624437507, 1481.1883672656, -9576.5253501991
5558, -716.43913745639, 1461.3251562608, -9374.9109264359
5559, -1517.1645905663, -589.03977381142, -10433.629321324
5560, -1276.5567969202, -1009.534048082, -9150.2121887734
5561, -1227.527005506, -1068.6129798732, -9463.5309398374
5562, -1207.3295901498, -1091.3805526711, -8909.3869594482
5563, -1322.0298266459, -949.20671481961, -9695.6277451048
5564, -1615.2939276702, -198.95169572441, -10180.612086708
5565, -1588.5753090281, -353.81455247957, -10424.534505551
5566, -1626.6546556711, -52.448843489444, -9986.9274419298
5567, -1624.7146524082, 95.1764059531, -9800.5396837616
5568, -1627.379513524, -19.80325635417, -9624.7327820693
5569, -1626.6816149681, 51.605944665148, -10201.2850212
5570, -1624.2734192167, -102.43099934218, -10425.84126644
5571, -1539.9969819653, -526.46514180681, -9160.7607764714
5572, -1467.6667515098, -703.35663536553, -9043.4809811895
5573, -1463.9333586321, -711.09448843602, -9293.1735178833
5574, -1546.8358233062, -506.01895788276, -8895.6303001775
5575, -1609.1214438455, -243.89429873716, -9133.6370462635
5576, -1570.8382579431, -425.70343830229, -9354.9858160315
5577, -1604.8066215083, -270.83566523441, -8894.0796309581
5578, -1614.9753244112, 201.52159076161, -10003.951433957
5579, -1594.2710533528, 327.19422128363, -9794.7636610768
5580, -1613.2010960981, 215.26373021907, -9583.9057062083
5581, -1626.9397736805, 42.699213299711, -9060.0799056858
5582, -1624.8103487051, -93.528502290818, -8880.8447519722
5583, -1599.8242381388, 298.86227106068, -10214.116163117
5584, -1620.4081692509, 151.76829387284, -10432.189614925
5585, -1593.4239581233, 331.29494363574, -9104.2942251647
5586, -1623.4239908801, 115.11210116646, -9350.5900238602
5587, -1622.1100542094, 132.34508692333, -8875.3890702014
5588, -1568.1667498031, 435.44149413203, -10003.008131534
5589, -1561.4820475019, 458.83555368924, -9560.6922819859
5590, 1417.0806808097, 800.39902178594, -10458.462822109
5591, 1513.993608494, 597.1428668579, -10472.23865822
5592, 1488.3547301839, 658.45003389725, -10304.376041272
5593, 1510.5218007614, -605.87138851794, -10245.272614243
5594, 1481.0737705249, -674.66787107675, -10443.474323229
5595, 1361.3760669936, -891.85842722774, -10426.236551296
5596, 1408.4778025451, -815.44253613471, -8925.0951243123
5597, 1495.2024905459, -642.74859958257, -8871.5957225
5598, 1450.161584343, -738.77441028758, -9050.3170704121
5599, 1491.4292769234, 651.45603223518, -9000.2183949538
5600, 1475.0710694769, 687.69294746444, -8857.3029761699
5601, 1364.0880571545, 887.7049184997, -8874.9582547047
5602, 1573.8927551823, -414.26784232523, -10238.721284668
5603, 1509.7149752888, -607.87905325712, -9061.7910596299
5604, 1550.448180499, 494.84006465465, -9022.3356451832
5605, -1535.3762466239, 539.79258174134, -10218.207852324
5606, -1577.2288535087, 401.37936376889, -10437.968969602
5607, -1528.4699296639, 559.04912495528, -9113.6375908352
5608, -1582.8024769102, 378.80413023987, -9332.8508929217
5609, -1598.8409024575, 304.07896775157, -8883.5922273991
5610, -1434.9210549125, 767.95691035942, -10211.422991234
5611, -1495.9472757975, 641.01325885982, -10440.315187051
5612, 1381.1937957524, 860.8483888438, -10192.519670259
5613, 1521.9458993289, 576.57343809425, -10066.074524155
5614, 1415.9830720595, -802.33919861922, -10132.774289611
5615, 1538.9375394681, -529.55405731214, -10109.903624461
5616, 1410.6477443544, -811.68293769659, -9178.1200346966
5617, 1491.520867722, -651.24630605458, -9254.8261879478
5618, 1420.3144677397, 794.64650174111, -9145.5211781036
5619, 1523.0837650632, 573.5608900551, -9209.7615504766
5620, 764.81221573617, -1436.5996396563, -9599.2072185513
5621, 684.7039120186, -1476.4609046183, -9793.8012172646
5622, -237.62383362567, 1610.059366512, -9826.6484557599
5623, -483.32409672008, 1554.0765964166, -9792.3566319387
5624, -313.59006328959, 1597.00266819, -10036.536523534
5625, 1297.5181800704, 982.44736367241, -10422.231202037
5626, -457.67685902791, 1561.8220585939, -9586.3427869319
5627, 48.15210894767, 1626.7875166732, -10274.078221966
5628, -108.64733280801, 1623.869455059, -10120.41202684
5629, -355.48090344349, 1588.2032544001, -10231.312146661
5630, -540.18132925744, 1535.2395192678, -9998.9264140486
5631, -1295.5695334196, 985.01565169029, -10183.738031243
5632, -1237.9738451956, 1056.4927868242, -9871.3011218656
5633, -1373.354080993, 873.30110398419, -9956.1432447583
5634, -1352.0683604224, 905.90694817109, -9709.1734041039
5635, -212.11775661415, 1613.6177698975, -9603.0383762805
5636, -1406.4172480741, -818.99131516738, -9944.4640939357
5637, 477.18624311018, 1555.9722167784, -9929.6387422254
5638, 525.4035637125, 1540.359485717, -9636.9261527067
5639, 288.8466323542, 1601.662846225, -9619.4303212119
5640, 1257.6541720632, -1032.9870442034, -9890.5397065556
5641, 1237.2848227638, -1057.2996346156, -10149.918651509
5642, -46.391996389998, -1626.8386621515, -9749.4129170082
5643, 1455.9974380395, -727.20541143648, -9510.9282211267
5644, 1326.8271080624, -942.48929718638, -9065.0003647727
5645, 870.41492237527, -1375.1851195044, -9384.3706966314
5646, -1462.5671442454, 713.90027214856, -9124.5029000181
5647, -1510.3861604064, 606.20944932645, -9319.2549814638
5648, -1361.005521505, -892.42378970582, -9378.9164438534
5649, 1365.5600946357, 885.43880530417, -9397.3189801061
5650, 1499.4220559574, 632.84259346889, -9419.9819429635
5651, -1424.771639988, 786.62699158229, -9272.6215132909
5652, -1193.7502958382, 1106.2171944, -9160.7558809548
5653, -1283.2546230035, 1001.0064048447, -9355.5727400627
5654, -1170.4102324799, 1130.8829018543, -9381.8960053143
5655, -1536.6541913831, 536.14377372564, -8901.2740213274
5656, -1008.9802226277, 1276.9945811734, -9154.150474079
5657, -955.94448699535, 1317.1660441202, -9431.5310833461
5658, -793.10489015072, 1421.1758804663, -9148.3420271959
5659, -308.31282210064, 1598.0298663443, -9143.2611272499
5660, -490.41699103361, 1551.8529005371, -9370.3631070232
5661, -244.40260362847, 1609.044318016, -9373.3246625376
5662, -58.247416413338, 1626.4573429639, -9140.8483903326
5663, 6.9869257153666, 1627.4850023484, -9375.9324624529
5664, 192.0508371543, 1616.1289323406, -9140.6361245032
5665, 254.16790661685, 1607.5306918519, -9380.5556082873
5666, 438.13808176436, 1567.4154750122, -9143.7572526686
5667, 496.78533348176, 1549.8259845665, -9388.1247987299
5668, 1489.9913335772, 654.73817352031, -9632.8432630021
5669, 1574.6038022537, 411.55694129507, -9449.519038888
5670, 1620.623821836, 149.44791098518, -9490.1579023343
5671, 1615.9464176557, 193.58053948055, -9268.2247338359
5672, 1612.6108820744, 219.6415102281, -9683.3325803977
5673, 1548.6633519796, 500.39791389982, -9867.5703507157
5674, 1606.4018240385, 261.20763718879, -9940.2297738884
5675, 1565.7347270427, 444.10698545809, -9661.090022671
5676, -1329.9908696291, 938.01947565245, -9202.1506976839
5677, -1418.4710728602, 797.93236897555, -8966.7096910164
5678, -1353.5439223524, 903.70078027128, -9500.1977171119
5679, -1257.4834250476, 1033.1948924237, -8923.9158095042
5680, -1198.0839960156, 1101.5221234688, -9595.9407225205
5681, -1377.7712342099, 866.31557540183, -10436.366425013
5682, -1079.210691778, 1218.2202316298, -8911.7054177076
5683, -1085.3386099065, 1212.7639307987, -9816.5010919186
5684, -1083.0520787075, 1214.8063404541, -10116.548870668
5685, -1220.846190869, 1076.2392058649, -10423.394931486
5686, -874.20040051072, 1372.781814327, -8908.4996083149
5687, 1475.2024046368, 687.411169064, -9822.8383305219
5688, 1440.3820970012, 757.66461223841, -10001.115468144
5689, -561.64710940029, 1527.5171928664, -9142.7573407462
5690, -647.99859022877, 1492.9347196249, -8907.0524930744
5691, -810.6309476016, 1411.2525347331, -10181.929999428
5692, -1021.8898394429, 1266.6875723885, -10413.701755776
5693, -405.28698653729, 1576.2292690289, -8906.0547338462
5694, -154.05399171025, 1620.1924631469, -8904.6270179655
5695, -569.88743044611, 1524.4620581108, -10211.355828865
5696, -791.13777142917, 1422.2718715555, -10421.318709167
5697, 99.418326745084, 1624.4606016482, -8903.9168657414
5698, 350.86797630178, 1589.2287164552, -8904.8094531365
5699, -552.40654263554, 1530.883163946, -10434.759760709
5700, 675.81298655254, 1480.5516057223, -9143.8853228882
5701, 594.11795150731, 1515.1831934445, -8904.6927983099
5702, 897.59289402138, 1357.6020206976, -9130.2509572069
5703, 737.52277346929, 1450.7985417053, -9391.1126338933
5704, 823.07860045404, 1404.0291547808, -8898.4104254932
5705, -200.44440787874, 1615.1093738042, -10247.127717843
5706, -325.40894201478, 1594.6364069771, -10436.628473954
5707, -128.81677044228, 1622.3940611494, -10391.101613967
5708, 1255.1664200575, 1036.0084497531, -9098.7380074637
5709, 1260.3451557827, 1029.7020628779, -9265.4910319134
5710, 242.27296600528, 1609.3663535513, -10121.700266588
5711, 141.71466160395, 1621.318353898, -10425.50323875
5712, 1494.6891851325, -643.94137143674, -9758.1776309296
5713, 1377.1264463333, -867.34018747519, -9674.3030323107
5714, 540.6657828516, 1535.0689760573, -10152.701172379
5715, 396.6014044787, 1578.4370674707, -10380.772174114
5716, 711.99668375206, 1463.4947804232, -10151.336370649
5717, 746.66578172045, 1446.1142625698, -9904.9101133209
5718, 627.30739745541, 1501.7462099495, -10404.028674562
5719, 1392.0383762637, -843.19950723958, -9850.8166283518
5720, 968.70614823954, 1307.8091024163, -10117.91377474
5721, 916.46535073979, 1344.934017301, -9899.6125558483
5722, 851.12451659418, 1387.2070167254, -10416.26459812
5723, 1155.0206291386, 1146.5965272337, -10260.138572104
5724, 1049.8817025566, 1243.5854054454, -10431.813418585
5725, -1399.6666446802, -830.47548655552, -9092.2121281658
5726, 1031.0475716601, 1259.244676373, -8887.9260628219
5727, 864.36677753409, -1378.9946787045, -8888.331696951
5728, 759.31155635852, 1439.5145745634, -9649.7514115667
5729, 1017.4963473954, 1270.2194428668, -9676.62149614
5730, 1569.9532713898, -428.95568028921, -10104.720950862
5731, 1521.9294634955, -576.61682089945, -9971.58640359
5732, 1600.8664178798, -293.22851516279, -9906.7803765654
5733, 1574.9445227115, 410.25114305861, -9235.8414245377
5734, 1212.1367947922, 1086.0389683207, -9536.8668597076
5735, 1561.8079691308, -457.72493657163, -9626.5735499544
5736, 1619.2236401866, 163.92392461419, -10135.311933626
5737, 1570.8254069996, 425.7508552246, -10092.854445298
5738, 1617.1393662637, -183.34808447406, -10139.018677889
5739, 1600.505344175, -295.19297631772, -9416.3550320885
5740, 1615.8760146229, -194.16733856752, -9206.04905816
5741, 1571.8267516343, 422.03899446241, -10461.145663366
5742, 1574.3016505617, 412.71123444711, -10241.514390631
5743, 1566.3041869837, -442.0943834041, -10438.230932722
5744, 1570.5689729535, -426.69585326772, -8883.0828088439
5745, 1571.893217452, -421.79137370093, -9109.7776726471
5746, 1555.4685633407, -478.8254363114, -9321.0205359548
5747, 1557.8481416803, 471.02592016073, -8844.4869124861
5748, 1212.8552414586, 1085.2365701848, -8884.1852818062
5749, 1620.5394632022, 150.35989559864, -10414.611973631
5750, 1620.6159333752, -149.53342934034, -10411.283577948
5751, 1620.5394632022, -150.35989559865, -8920.3880263689
5752, 1267.9940919418, 1020.2682161082, -10067.440014893
5753, 1616.5679209077, -188.31995935725, -9641.8330814537
5754, -1368.82921752, -880.37652357592, -10251.527524256
5755, 1201.1014143249, -1098.2311425682, -10415.270500466
5756, 1410.9476175126, 811.16155643337, -9791.089735363
5757, 1262.9980737483, -1026.446353059, -9206.2689623079
5758, 1165.04069026, 1136.4138506893, -10515.269361011
5759, 1533.4849593268, -545.14230208139, -9480.2122617488
5760, 1394.3531341455, 839.36618188875, -9649.9942578543
5761, 1217.4654086366, -1080.0621411629, -8965.0062406025
5762, 188.61964667536, -1616.5329810703, -10141.237139464
5763, 192.3599713208, -1616.0921667509, -10302.403238428
5764, 57.682884629769, -1626.4774621312, -10339.325733927
5765, 53.918887907874, -1626.6065915048, -10178.159634963
5766, -1408.7190036042, -815.02577804893, -8886.6816007615
5767, -1455.1190834309, -728.96138651859, -8775.9581762415
5768, -1334.1031333409, -932.1615094017, -8778.22342452
5769, 255.28543466947, -1607.3536004394, -9659.5470648011
5770, 421.18160833502, -1572.0567110637, -9549.262834124
5771, 507.87395052283, -1546.2277647165, -9671.3473845864
5772, 344.19510768592, -1590.6872658839, -9781.6316152635
5773, -430.11831330121, -1569.6351444087, -9260.4933754366
5774, -380.63422902703, -1582.3633696762, -9068.4775744899
5775, -240.37178476106, -1609.6514079423, -9088.4955549187
5776, -290.78158575939, -1601.3126863243, -9280.5113558653
5777, -289.82728850991, -1601.4856829941, -9419.0784474573
5778, -230.79988956168, -1611.0517251095, -9583.3650954416
5779, -392.36407283066, -1579.4957057085, -9653.6579580948
5780, -450.12318444816, -1564.0157827919, -9489.3713101104
5781, -723.65755523681, -1457.7640387761, -9690.6220436682
5782, -603.65088068473, -1511.4105544982, -9604.2539221746
5783, -534.98711128542, -1537.0572665839, -9696.6346105433
5784, -657.28752681761, -1488.8684821333, -9783.002732037
5785, -1367.3996348103, -882.5953142412, -10457.324848377
5786, -1312.1351221785, -962.83834112772, -10565.442327375
5787, -1436.0707448395, -765.80484838905, -10559.382521001
5788, -935.09136518649, -1332.0511959957, -9683.0306298715
5789, -809.3076131211, -1412.0118403697, -9583.9518599362
5790, -853.98611325285, -1385.4472087998, -9789.7008136035
5791, -1549.0122376572, -499.31687092289, -9770.8390013673
5792, -1552.2876744035, -489.03908422027, -9590.8476272193
5793, -1495.9407927514, -641.02838828104, -9553.351544975
5794, -1491.659211914, -650.9293706018, -9733.342919123
5795, 1298.315809762, -981.39304466759, -9521.9306252085
5796, 1222.371473974, -1074.5065051523, -9658.3600380036
5797, 1127.0707382491, -1174.0816841186, -9563.1494136061
5798, 1210.6213354593, -1087.7280138576, -9426.720000811
5799, -1120.6756450978, -1180.1874209145, -9648.2496444712
5800, -996.85481385706, -1286.4823085025, -9557.848822492
5801, -1063.78607288, -1231.7124019618, -9773.4314518507
5802, -1156.4312867806, -1145.1737549188, -9500.7717890384
5803, -1244.5189712002, -1048.7748949717, -9727.0571979039
5804, -1276.175722276, -1010.0157305079, -9579.5793424711
5805, -1602.8442440125, -282.21725573723, -9621.5221404238
5806, -1570.7732127712, -425.94338126149, -9518.7745833212
5807, -1590.1376103662, -346.72558327704, -9693.5951843219
5808, -1622.2198790111, -130.99203846499, -9665.8815108311
5809, -1623.7843096954, -109.91253607782, -9514.2859902484
5810, -1606.3743345873, -261.3766385489, -9469.9266198411
5811, -1627.0630586147, 37.710121868105, -9712.6362329155
5812, -1620.5123962562, -150.65133115932, -9771.2073717068
5813, -1627.4006821186, 17.979706338542, -9817.9620937911
5814, -1604.7122814023, 271.39407494769, -9689.3346836426
5815, -1624.5475659115, 97.987020013106, -9604.3192441388
5816, -1613.6682775995, 211.73318084077, -9797.6516724192
5817, 1454.4504497076, 730.29455656295, -10381.419431691
5818, 1433.9269644874, 769.81147725658, -10562.981411054
5819, 1483.7465363181, 668.76936679554, -10569.86932911
5820, 1501.4871057965, 627.92732153247, -10388.307349746
5821, 1454.4055865032, -730.38389902046, -8898.3454234061
5822, 1502.5598874703, -625.35592630532, -8966.6933910649
5823, 1481.3847274383, -673.98482127754, -9056.054065021
5824, 1429.8336569151, -777.38791060371, -8987.7060973622
5825, -1546.220891913, 507.89487437039, -9670.2009288421
5826, -1592.0066186614, 338.04019899761, -9572.2989940971
5827, -1566.0456211924, 443.00943821124, -9787.2366183876
5828, 1425.3677434692, -785.54633592014, -10434.855437263
5829, 1389.4007232951, -847.53871894264, -10279.505420453
5830, 1466.5461440959, -705.69019919327, -10189.023451927
5831, 1496.1932544087, -640.43890845422, -10344.373468736
5832, 1423.0977948556, 789.65113580437, -8866.1306154373
5833, 1392.9785793011, 841.64536926688, -9010.2397164041
5834, 1457.6312243793, 723.92504012119, -9072.8697865287
5835, 1483.3608309527, 669.62444339745, -8928.7606855618
5836, -361.55911992971, 1586.8305683959, -9809.5025438493
5837, -511.83937726619, 1544.9196425315, -9895.6415229937
5838, -428.0012492086, 1570.2137372587, -10017.731468791
5839, -275.68425667944, 1603.980810552, -9931.5924896471
5840, -1611.4263674506, -228.16948149319, -10061.031767516
5841, -1576.4950546786, -404.25189248045, -9901.4846610042
5842, -1548.5509467195, -500.74565940633, -10015.760724138
5843, -1594.2793438673, -327.15382271648, -10175.30783065
5844, -1608.2705958448, -249.44326116595, -9824.2408439588
5845, -1475.7305210622, -686.27667831964, -9902.9909838097
5846, -1440.940991309, -756.60115620147, -10068.634219983
5847, -1522.6183541436, -574.795265834, -10181.403960312
5848, -479.51603564969, -1555.2558058258, -10067.13753005
5849, -306.8734611669, -1598.3068944453, -9961.1356535799
5850, -200.02744334236, -1615.161066863, -10111.2324868
5851, -375.14840577644, -1583.6729219266, -10217.23436327
5852, -5.9246974297296, -1627.4892159275, -10027.137290326
5853, -140.5058928192, -1621.423554807, -10262.254831437
5854, 501.35568165623, 1548.3535547384, -9783.282447466
5855, 408.27732113242, 1575.4573555158, -9628.1782369593
5856, 293.21669590986, 1600.8685827512, -9711.4214928387
5857, 388.0121664736, 1580.5704061093, -9866.5257033454
5858, 736.4131108399, -1451.3621120117, -10189.775944952
5859, 637.02065720114, -1497.6518060948, -10091.871950808
5860, 749.34163894215, -1444.7295103747, -9970.5669498593
5861, 844.91590508123, -1390.9972549724, -10068.470944004
5862, 85.360028799032, -1625.2599532024, -9764.4338614993
5863, -2.3481476352195, -1627.4983060522, -9636.0732915712
5864, 168.29530326043, -1618.7751359903, -9531.186494873
5865, 1430.8691125092, -775.48038844782, -9114.2185525543
5866, 1370.2991344317, -878.08685912937, -9121.5601997347
5867, 1369.1268963729, -879.91351372069, -8995.0477445425
5868, 1121.4515577495, -1179.4501488495, -9326.467341496
5869, 985.20615678848, -1295.4246711508, -9425.7498772682
5870, 921.02911621331, -1341.8128100027, -9265.924225078
5871, 1062.7543740528, -1232.6026896091, -9166.6416893059
5872, 725.03205533713, -1457.0809067219, -9696.5042179079
5873, 578.62711086133, -1521.1663014202, -9788.8048209006
5874, 657.07803072206, -1488.9609503081, -9579.0467815937
5875, 703.47452008247, -1467.610251257, -9220.0894967807
5876, 506.58309530918, -1546.651162204, -9298.9419883824
5877, 457.24532709538, -1561.9484501255, -9167.4478561255
5878, 656.54592760226, -1489.1956536832, -9088.5953645239
5879, 328.37998046176, -1594.0272389241, -9402.9495855547
5880, 596.30386897733, -1514.3242538646, -9445.2552369517
5881, 143.65935195244, -1621.1471989294, -9089.9993755463
5882, 308.69886923711, -1597.9553367137, -9163.7044623352
5883, 218.44174851676, -1612.77383799, -9290.2039847808
5884, 52.359997052879, -1626.6575179517, -9216.4988979919
5885, 57.038064552259, -1626.5002026413, -9418.4408940991
5886, -73.526171925415, -1625.8382920949, -9159.7094483253
5887, -13.613446222297, -1627.4430632381, -9323.1978143268
5888, -139.36296683411, -1621.5221902506, -9266.4083646602
5889, -545.30868815391, -1533.425800169, -9156.6150013428
5890, -535.40749270842, -1536.9108844535, -9366.788528565
5891, -647.88188222653, -1492.9853705521, -9262.9101544713
5892, -741.11346991108, -1448.9675892567, -9155.8176215012
5893, -770.40764186686, -1433.6067505956, -9373.8269835963
5894, -859.63369068, -1381.9501321856, -9266.7344506263
5895, -889.98022708266, -1362.6046548438, -9476.1077029034
5896, -685.81170588928, -1475.9466636926, -9481.6711406292
5897, -971.49648770664, -1305.7376552637, -9188.6209306582
5898, -943.24204725676, -1326.2920833236, -9379.6995230186
5899, -1050.1906666971, -1243.3245005156, -9301.5860030506
5900, -1047.0183116786, -1245.9971528899, -9461.4406426072
5901, -1159.3463111107, -1142.2225619003, -9340.9171494817
5902, -1297.2608906968, -982.78707331169, -9421.2236918454
5903, -1320.0804706715, -951.91585812594, -9264.5643163134
5904, -1185.9647791262, -1114.5599098623, -9184.2577739497
5905, -1612.3140198469, -221.81016975123, -9268.7381223455
5906, -1626.9453708781, -42.485411359253, -9377.2146111438
5907, -1625.5851429791, 78.925236303477, -9205.334964773
5908, -1624.3635711193, -100.99128091361, -9096.8584759747
5909, -1619.0871118055, 165.26697911365, -9467.2478650342
5910, -1608.5258506592, 247.79192432555, -9341.720458391
5911, -1588.2908651612, 355.08925306962, -9218.5725590432
5912, -1616.6346263678, 187.74646422391, -9082.1870654252
5913, -1572.6514393849, 418.95548713527, -9446.7715874538
5914, -1550.7682874284, 493.83597348361, -9326.0529371928
5915, -1519.6110055169, 582.69944389188, -9216.4462861495
5916, -1565.0953176813, 446.35512383312, -9108.9659079999
5917, -1470.3487513827, 697.73261304561, -9295.9382473773
5918, -1444.1272823628, 750.50159382603, -9198.5622066545
5919, -1497.5214234934, 637.32710296851, -9119.0702454266
5920, -695.4986053762, 1471.4067894093, -9475.7181383175
5921, -839.29268389334, 1394.3973754863, -9403.221004891
5922, -890.92324961143, 1361.9882574023, -9506.4069314647
5923, -750.11399314718, 1444.3286493332, -9578.9040648912
5924, -1524.1457680211, 570.73279897287, -9549.1585490006
5925, -1495.0451394586, 643.11451622649, -9428.4398987396
5926, 1609.6405301361, 240.44461679004, -9811.7811771431
5927, 1593.1310021906, 332.70085641468, -9672.2113015344
5928, 1557.4533751643, 472.32958216632, -9764.3301866934
5929, 1582.0594373628, 381.89551797733, -9903.900062302
5930, -1458.2425833361, 722.69275501087, -9645.3276860688
5931, -1486.590292795, 662.42399667267, -9766.3700659104
5932, -1379.45969211, 863.62445996149, -9237.3861054874
5933, -1376.0148479185, 869.10263393215, -9084.4301943501
5934, -1441.131725565, 756.2377930056, -9045.6062955172
5935, -1182.1445978371, 1118.6109242291, -9271.3259431346
5936, -1264.6699117622, 1024.3857985561, -9181.4532893194
5937, -1307.0022339321, 969.7945197291, -9278.8617188733
5938, -1228.5498695118, 1067.4368684482, -9368.7343726885
5939, -1461.6267569272, 715.8236329114, -10103.20099136
5940, -1369.5522397994, 879.25133634268, -10197.580511238
5941, -1335.6303193379, 929.97198886065, -10069.940638001
5942, -1433.7663247553, 770.11062581801, -9975.5611181225
5943, -982.66765248005, 1297.3513536314, -9292.8407787125
5944, -1104.6703866781, 1195.1818216474, -9157.4531775169
5945, -1067.2494790497, 1228.7126594401, -9406.7135443302
5946, 1614.3159941577, 206.73683998385, -8934.5876988253
5947, 1623.729429797, 110.72031796858, -9103.5352570836
5948, 1624.6404653547, 96.434476884854, -8873.5524417416
5949, -1184.3381026679, 1116.288273059, -9488.9183639174
5950, -1122.2216212183, 1178.7174737274, -9626.823812592
5951, -999.2231342376, 1284.6436774469, -9544.6189930048
5952, -1194.8477449366, 1105.0317264313, -10150.143450955
5953, -1163.2094094243, 1138.2882411001, -9993.9249962666
5954, -1308.8728672749, 967.26835330818, -9913.7221833119
5955, -755.03892873664, 1441.7601971522, -9261.6264768159
5956, -903.92187172944, 1353.3962833587, -9151.2462506374
5957, -963.72273470903, 1311.4856997333, -9688.735912852
5958, -853.34846476016, 1385.8400512655, -9650.5238513118
5959, -276.41258111044, 1603.8554595112, -9258.2928948938
5960, -436.40643886694, 1567.8984884601, -9143.009233998
5961, -526.17276109887, 1540.0969045737, -9256.5602238847
5962, -368.52092713053, 1585.228241064, -9371.8438847804
5963, -25.635395405609, 1627.2980908556, -9258.3904263927
5964, -183.83044489854, 1617.0846043199, -9142.0547587913
5965, -119.06538430374, 1623.1388370255, -9374.6285624952
5966, -474.07313060245, 1556.9235423876, -9478.3529469775
5967, -335.89716538419, 1592.4601546936, -9594.6905816062
5968, -228.27163412159, 1611.411899874, -9488.181519409
5969, -224.87783362645, 1611.889019115, -9714.8434160202
5970, -470.51641600027, 1558.0021027824, -9689.3497094353
5971, -1352.806591117, 904.80416501602, -9604.6855606079
5972, -1297.2080328233, 982.85684083627, -9790.2372629847
5973, -1218.2369891451, 1079.1917754869, -9733.620922193
5974, -1279.6423638677, 1005.6200428567, -9548.0692198162
5975, 223.15078816363, 1612.1290195707, -9260.5958663952
5976, 67.100729258306, 1626.1161527188, -9140.7422574179
5977, 130.95802854146, 1622.2226249071, -9378.2440353701
5978, 467.54443172538, 1558.896550244, -9265.9410256992
5979, 316.03444213121, 1596.5207425482, -9142.1966885859
5980, 376.58352395502, 1583.3322770302, -9384.3402035086
5981, 30.464884248033, 1627.2148416321, -9493.9099356049
5982, 171.84472538027, 1618.402187455, -9615.6588649844
5983, 271.5231210902, 1604.6904513686, -9499.9929647496
5984, 180.80598433334, 1617.4255612019, -9847.816324964
5985, 58.50644510794, 1626.4480458597, -9752.0536971098
5986, -555.06053835117, 1529.9228898102, -10105.141121457
5987, -463.78052284189, 1560.0204731453, -10221.333987763
5988, -334.56441390568, 1592.7406891732, -10133.924335098
5989, -154.60792604549, 1620.1396974347, -10183.769872341
5990, -164.67087646201, 1619.1478476178, -10319.114665905
5991, -40.392109580584, 1626.9986869951, -10332.589917967
5992, -30.282780558831, 1627.2182408029, -10197.245124403
5993, 1505.7069483291, 617.74010372779, -10185.225282714
5994, 1483.9290053094, 668.36438953719, -10033.59499615
5995, 1411.7309774106, 809.79744221578, -10096.817569202
5996, 1438.3387845696, 761.53646715237, -10248.447855766
5997, 145.47355523079, 1620.9854085489, -10197.889244277
5998, 152.90840743545, 1620.300980971, -10006.960126025
5999, -22.817485328369, 1627.3400420205, -10006.316006151
6000, 360.71889589498, 1587.0217793541, -10025.669504407
6001, 319.81130452142, 1595.7684604918, -10251.236220351
6002, 469.13499437766, 1558.418623814, -10266.736673247
6003, 509.03332214776, 1545.8464758647, -10041.169957302
6004, 1475.9305919083, -685.84629318031, -9634.5529260281
6005, 1446.7981734168, -745.33971811376, -9804.4971296407
6006, 1384.6350229529, -855.30234608136, -9762.5598303312
6007, 1418.2937548035, -798.24750239842, -9592.6156267187
6008, 860.64886432845, 1381.3181321948, -9014.33069135
6009, 710.77445212992, 1464.0887706008, -8901.5516119015
6010, 635.20152989223, 1498.4242611566, -9024.289060599
6011, 789.10117625725, 1423.4028184704, -9137.0681400475
6012, 473.94122611225, 1556.9637003448, -8904.7511257232
6013, 394.65376508001, 1578.9251583619, -9024.2833529026
6014, 558.66633923846, 1528.6098820176, -9143.8212877784
6015, 225.83126468996, 1611.7557165677, -8904.363159439
6016, 145.79411014994, 1620.9566087485, -9022.2764951223
6017, -27.401062444964, 1627.2693175307, -8904.2719418535
6018, -106.1969121613, 1624.0315470604, -9022.7377041491
6019, -280.53301605335, 1603.1398806417, -8905.3408759058
6020, -356.96636848987, 1587.8700393191, -9024.657930548
6021, -528.28696940769, 1539.3729658384, -8906.5536134603
6022, -605.06996828602, 1510.8430042458, -9024.9049169103
6023, -763.4668440836, 1437.3150761002, -8907.7760506947
6024, -834.00373468965, 1397.5671792525, -9028.4208177554
6025, -679.45961156834, 1478.8816336162, -9145.549683971
6026, -979.75815616948, 1299.5500011232, -8910.1025130112
6027, -1044.50894194, 1248.1014863413, -9032.9279458933
6028, -1172.0040285506, 1129.2310689408, -8917.8106136059
6029, -1226.1605738028, 1070.1805909525, -9042.3358452295
6030, -1343.1382030354, 919.09521680127, -8945.3127502603
6031, -1483.3491325352, 669.65035728137, -8933.9918561719
6032, -1532.6048522482, 547.61173915946, -9007.4558060813
6033, -1572.0355878343, 421.26044269838, -8892.4331243633
6034, -1596.1904373729, 317.69850116011, -8993.9432262819
6035, -1612.7629701135, 218.52197196285, -8879.4906488002
6036, -1625.1431603684, 87.555458468821, -8967.7344879436
6037, -1626.1519552652, 66.227399066339, -8771.4445351007
6038, -1626.8274482129, -46.783584099692, -8774.1723759861
6039, -1627.3012051346, -25.436937070269, -8970.462328829
6040, -1617.2402113108, -182.45643019507, -8887.4621914651
6041, -1607.020491974, -257.37402428274, -9013.8583386108
6042, 1332.7448504518, -934.10246418372, -10141.34647056
6043, 1247.5287261182, -1045.1929618543, -10020.229179032
6044, 1328.240368857, -940.49655636718, -9870.6781674537
6045, 1404.1593587503, -822.85645481703, -9991.7954589812
6046, -1580.2026200062, -389.50729097884, -8894.8549655678
6047, -1543.4502594947, -516.25337428986, -9028.1955383244
6048, -1580.8852853018, -386.72724847929, -9147.1989113674
6049, 1012.7482900492, -1274.0083009943, -9576.0261306744
6050, 848.15972843795, -1389.0217151132, -9642.0652109976
6051, 818.19000490436, -1406.8835651448, -9491.7889575914
6052, -1375.9092114575, -869.26986133565, -8990.5794886029
6053, -1282.5070788874, -1001.9639926683, -8899.1669042441
6054, -1242.6172413685, -1051.0274218372, -9029.7995741108
6055, -1341.1034521829, -922.06170104996, -9121.2121584696
6056, -1117.8739077534, -1182.8415685814, -8915.9045964503
6057, -1054.5001835128, -1239.6715746404, -9070.3627962892
6058, 878.01894693523, -1370.342650151, -9746.0263532576
6059, 756.39287706984, -1441.0503341376, -9800.4653601679
6060, 867.58790768243, -1376.9703963569, -9128.0163089094
6061, 760.60440809922, -1438.8318819028, -9357.9974129494
6062, -915.91647788156, -1345.3078664548, -8920.6352195369
6063, -826.32509070581, -1402.1209271921, -9038.8933539058
6064, -690.48351701314, -1473.7668617299, -8920.2142503138
6065, -601.23556317278, -1512.3729856012, -9037.1385179092
6066, 336.03033909727, -1592.432058584, -9029.9605950563
6067, 483.93811114047, -1553.8855024054, -9033.7039888467
6068, -438.46868549727, -1567.3230240886, -8949.0010910563
6069, -152.72683071371, -1620.3181061693, -8940.2857231026
6070, 14.75107798231, -1627.4331493792, -9011.4996165092
6071, 116.33229363693, -1623.3370098218, -8887.06523624
6072, 244.5965977667, -1609.0148396957, -8965.564995277
6073, -67.880944880372, -1626.0837700814, -9500.2185360245
6074, -165.74025433376, -1619.0387327341, -9719.2198509882
6075, 556.0740968231, -1529.5547877871, -8862.0821744489
6076, 603.88559579114, -1511.3167891597, -8968.134558804
6077, 434.84762087246, -1568.3315327511, -8927.6516044916
6078, 178.93957991378, -1617.633109435, -9920.2167080487
6079, -99.764984317327, -1624.4393487921, -9871.3544437767
6080, 762.62521263803, -1437.7618144355, -8877.9824749027
6081, 812.6067349684, -1410.1157910909, -8998.4432806226
6082, -371.61474314335, -1584.5058323271, -9809.0010607914
6083, 1015.6361940858, -1271.7072663403, -9029.5063673545
6084, 964.69129790701, -1310.7734166295, -8899.9333390677
6085, 1030.9381547972, -1259.3342570515, -10291.204676228
6086, 909.12731604103, -1349.9050978599, -10422.446627483
6087, 822.52526552593, -1404.3533877096, -10303.029208168
6088, 949.78548906975, -1321.6140793562, -10171.787256912
6089, 690.47467430239, -1473.77100465, -10427.072809356
6090, 600.41976553095, -1512.6970467214, -10313.819546141
6091, 463.47043897587, -1560.1126248433, -10427.736371585
6092, 376.56901195829, -1583.3357285278, -10317.35973089
6093, 515.92879786452, -1543.5587859016, -10203.442905446
6094, 249.28811997925, -1608.2946506276, -10404.785341222
6095, 320.44258657106, -1595.6418140396, -10214.977628096
6096, 74.443947098375, -1625.7965274721, -10525.405404017
6097, -56.520528518377, -1626.518269143, -10561.135958889
6098, -73.282073328264, -1625.8493127374, -10375.056288798
6099, -196.79537743568, -1615.5580551066, -10452.583983626
6100, -263.48746829348, -1606.0294530463, -10339.782526264
6101, -398.32664962801, -1578.0025761057, -10445.25899882
6102, -507.69765431146, -1546.2856598335, -10322.710835826
6103, -636.77713726288, -1497.7553630214, -10439.311151539
6104, -757.45953641637, -1440.4899516109, -10322.902871868
6105, -632.79468167895, -1499.4422765945, -10206.302556155
6106, -869.87686082407, -1375.5255348422, -10440.862852128
6107, -988.61930436422, -1292.8217669263, -10331.835544001
6108, -882.41679033092, -1367.5148475033, -10213.875563741
6109, -1075.5851454392, -1221.4224678261, -10448.904244221
6110, -1187.6457539385, -1112.7685352991, -10340.535696514
6111, -1107.9196264613, -1192.1704371867, -10223.466996294
6112, -1495.8309194219, -641.28473434302, -10313.216833678
6113, -1557.3175036488, -472.77737131679, -10429.081913438
6114, -1576.6252424062, -403.74384825984, -10297.269040072
6115, -1611.3341243649, -228.8199940063, -10425.187885996
6116, -1620.5024560183, -150.75821715087, -10303.226676574
6117, -1627.3118855348, 24.744235636318, -10429.015440683
6118, -1624.317130595, 101.73548670704, -10316.737318062
6119, -1625.8216807374, -73.892573674918, -10190.948553954
6120, -1603.6823419507, 277.41520527113, -10435.079292263
6121, -1589.3533355932, 350.30304685921, -10326.04256636
6122, -1617.9829812977, 175.74789395907, -10207.700592159
6123, -1541.2524067632, 522.77841256741, -10439.142078327
6124, -1516.5065053489, 590.7319774945, -10329.261519688
6125, -1572.222113305, 420.56376024887, -10216.16200772
6126, -1441.2684698381, 755.97714770387, -10438.340806032
6127, -1407.2057721134, 817.6357165209, -10323.894708123
6128, -1489.5238350198, 655.80103301832, -10214.815421779
6129, -1303.5413737728, 974.44144865785, -10429.880678249
6130, -1259.0343357394, 1031.3044125908, -10303.566481364
6131, -1125.4038699474, 1175.679539461, -10418.548343631
6132, -1052.7905942083, 1241.1237709216, -10265.125313222
6133, -909.84553523274, 1349.4211173748, -10417.510232472
6134, -800.90331111962, 1416.7957284795, -10301.624354297
6135, -951.92259551104, 1320.0756122872, -10149.239435048
6136, -673.96360003533, 1481.3943822721, -10428.039234938
6137, -561.15617091313, 1527.6976146627, -10323.057794787
6138, -692.57623918073, 1472.7845745126, -10196.642914146
6139, -340.46011774519, 1591.4908602392, -10333.970310308
6140, -227.53652740949, 1611.5158636186, -10413.865043961
6141, -278.28802122536, 1603.5311120282, -10239.219932252
6142, 94.972762281038, 1624.7265691262, -10349.790730358
6143, 270.01064410888, 1604.9456383529, -10403.137706432
6144, 627.35279562583, 1501.7272454812, -10152.018771514
6145, 513.38843050499, 1544.4055715464, -10392.400424338
6146, 669.92510659771, 1483.2250677325, -10277.682522606
6147, 843.94905648994, 1391.5840758106, -10134.625072695
6148, 741.43107421809, 1448.8050980666, -10410.146636341
6149, 910.78093928587, 1348.7899505236, -10267.08918643
6150, 991.80857918794, 1290.3766861848, -9524.3372952234
6151, 854.52640333376, 1385.1140299649, -9381.5828641
6152, 748.43843081204, 1445.1976215326, -9520.43202273
6153, 892.42747162707, 1361.0031072284, -9663.1864538533
6154, 1064.9184146391, 1230.7335293078, -10189.026173422
6155, 953.21191406696, 1319.1449112515, -10424.039008352
6156, 1103.5172330793, 1196.2466160023, -10345.975995345
6157, 1586.8616326899, -361.42275619645, -10005.750663714
6158, 1555.2589902727, -479.50570713581, -10107.312287661
6159, 1530.6143957206, -553.15081272012, -10040.745014025
6160, 1567.8140075088, -436.70984401451, -9939.1833900777
6161, 1574.7742978281, 410.9040774924, -9342.6802317129
6162, 1551.1648320953, 492.58899061063, -9222.8014875072
6163, 1511.5435619313, 603.3177524192, -9314.8717467201
6164, 1540.9901294954, 523.55102024334, -9434.7504909258
6165, 706.82445051351, 1465.9998111038, -9267.4989783907
6166, 931.96102804217, 1334.2431908054, -9251.1520257568
6167, -1420.5978819446, 794.13972814275, -9518.9112665636
6168, -1396.0243026145, 836.58376538739, -9731.1019801131
6169, 619.13708847975, 1505.1330558023, -9389.6187163116
6170, -605.1233319245, 1510.8216318151, -9372.6370167295
6171, -792.17598507965, 1421.6938695314, -9742.4865857894
6172, -686.49191730829, 1475.6304067992, -9670.8667993687
6173, -1390.3905598735, 845.91390874885, -9386.4096152014
6174, -1319.2966832146, 953.00184242154, -9427.8852285873
6175, -1556.2333381236, -476.33396615476, -9257.8732962514
6176, -1597.0243300341, -313.47972706266, -9379.4125072295
6177, -1556.090118969, -476.80162714372, -9428.2604707095
6178, -1504.7994456736, -619.94748027582, -9226.9671471773
6179, -1504.613069808, -620.39967775869, -9397.3543216354
6180, -138.39665333151, -1621.6049507653, -9404.9754562522
6181, 957.83801544133, -1315.7897195887, -9909.3836820276
6182, 1056.5641870932, -1237.9129083066, -10012.699994936
6183, 997.10041731951, -1286.2919605522, -9773.937172938
6184, 836.27487806622, -1396.2093604884, -9881.4728623473
6185, 415.66304810843, -1573.5248585381, -10104.060260017
6186, 539.45486594288, -1535.4949357163, -9992.4893053791
6187, 666.86737995934, -1484.6023533412, -9889.5594476799
6188, 448.44849276111, -1564.4967878971, -9891.7346785998
6189, 285.33215695406, -1602.2926730807, -10030.319771385
6190, -1508.865628109, 609.98423447764, -9887.3442835926
6191, -1405.9322398731, 819.82363157298, -9854.5869004403
6192, -757.00361690799, -1440.7295978039, -10098.209900368
6193, -608.97843890817, -1509.271847927, -9959.0448742631
6194, -514.78210814044, -1543.9415892897, -9851.97771324
6195, -747.81788851257, -1445.51881884, -9890.0698930601
6196, -996.46697335916, -1286.7827404051, -10111.978573254
6197, -877.79624283909, -1370.4853177096, -9996.3129098811
6198, -977.97938930265, -1300.8891436626, -9895.9438304246
6199, 344.6283105117, -1590.593467104, -8863.2560047123
6200, -1224.1652152315, -1072.4624822422, -10130.78960381
6201, -1122.9858819445, -1177.9893713245, -10019.30118077
6202, -1200.1416900708, -1099.2798432402, -9896.7888021962
6203, -1627.4999453759, -0.42166492375309, -10094.106231565
6204, -1620.0839355869, -155.19114553734, -9964.1894451272
6205, -1626.5413182184, -55.853291114676, -9911.1559728752
6206, -1608.1364552964, 250.30659429359, -10109.033798537
6207, -1625.7818049512, 74.764782414502, -9995.4394379433
6208, -1620.7174679934, 148.4289019736, -9902.2455588592
6209, -1552.6484051578, 487.89259059842, -10110.607991929
6210, -1595.8627749454, 319.34034124037, -10003.479782745
6211, -1582.1449310121, 381.54117375828, -9898.8858963053
6212, -1531.5263825243, 550.6207312045, -9998.9935615103
6213, -1040.4964972307, 1251.4484764666, -10019.113835738
6214, -1041.6747758985, 1250.4678769392, -9869.0899463639
6215, -1164.281047951, 1137.192108389, -9843.9011068921
6216, -790.49301703973, 1422.6303244383, -10072.613461107
6217, -886.50594754096, 1364.8675594996, -9942.4878617982
6218, -940.47525901072, 1328.2554487706, -9820.7218619247
6219, -734.5822884333, 1452.289610071, -9864.2525856628
6220, -657.1516742586, 1488.9284492611, -9981.1116684179
6221, -211.54564690626, 1613.6928732801, -10078.474275187
6222, -87.649859593174, 1625.1380717075, -9859.4342206112
6223, 729.38300476827, 1454.907791702, -10028.123241985
6224, 614.38639079673, 1507.0785025352, -9917.2744277731
6225, 942.7685081542, 1326.6287310445, -10008.763165294
6226, 833.10302571037, 1398.1042874379, -9902.2613345846
6227, 1067.186276244, 1228.7675540135, -10010.094496357
6228, 1090.2459536382, 1208.3542570685, -9789.4483570565
6229, 967.70219043451, 1308.5521466981, -9788.1170259941
6230, 244.74218912318, -1608.9927006867, -8768.7404566906
6231, 477.90468455058, -1555.7517033526, -8762.0155480217
6232, 1535.7769926578, 538.65135182511, -9966.8224374356
6233, 1514.8216125706, 595.03926936713, -9845.2043406188
6234, 1458.2153932521, 722.7476163106, -9911.9768993331
6235, 1548.2233208385, 501.75770926994, -10079.464484727
6236, 1590.7425426709, 343.93954837595, -10016.542109593
6237, 1622.2168810955, 131.02915968846, -9928.8648869442
6238, 1623.7734541148, 110.07279278718, -9675.4162901989
6239, 1112.635729269, -1187.7701730361, -9761.0604558696
6240, -1063.5365537357, 1231.9278586297, -9737.1039972911
6241, 1625.7800466296, 74.803007833874, -9453.8289511672
6242, 1624.6090367739, 96.962506324053, -9217.862366918
6243, 1618.4355566458, 171.53016931344, -9379.1913180851
6244, 1182.2905512919, 1118.4566609064, -8775.8426409031
6245, 994.24878876305, 1288.497417942, -8777.7130314109
6246, 1125.3198051822, 1175.7600035997, -8886.0556723141
6247, 1613.5460758985, 212.66243427694, -10037.770853757
6248, 1625.4295931236, 82.066362159963, -10151.405966813
6249, -1386.4723682487, -852.32072723998, -9650.3978548336
6250, -1365.7762893182, -885.10529177963, -9820.0459195203
6251, 1620.8279281126, -147.2177891774, -9912.1401882827
6252, 1624.9077771668, -91.820290257279, -10153.259338945
6253, 1609.9405995121, -238.42717135979, -10022.899527227
6254, -1404.1961831272, -822.79361281619, -9492.0422042079
6255, 1608.9837805821, -244.80082480181, -9311.2020451242
6256, 1624.5914045998, -97.257483519829, -9186.77452908
6257, 1620.7372855656, -148.21235163645, -9416.9275160443
6258, -79.356794913376, 1625.5641325709, -9607.4628925187
6259, 752.99589950564, 1442.828272986, -9777.3307624438
6260, 644.3334997974, 1494.5201875648, -9643.3387821367
6261, 511.11636545597, 1545.1589921309, -9512.5254757183
6262, 795.61898423085, 1419.7699397901, -10541.88229906
6263, 1003.9164797486, 1280.9792940127, -10549.656709292
6264, 1224.092434161, 1072.5455527062, -9822.4440820581
6265, 1249.1996852363, 1043.1952820088, -9639.7399029253
6266, 1118.6136951541, 1182.1419758276, -9606.7441779238
6267, 1596.4987345388, 316.14560034284, -9137.7059693525
6268, 1599.1193782652, 302.61107722087, -9252.0330791868
6269, 1602.9800929453, 281.44461554822, -9469.8384706112
6270, 1601.6006765251, 289.191152967, -10188.413162129
6271, 1572.5770442107, 419.23464792582, -10167.184417964
6272, 1571.9401683411, -421.61636253318, -10171.721117765
6273, 1599.6882457737, -299.58932947211, -10188.869981279
6274, 1597.9428477212, -308.7635105005, -9157.9133654035
6275, 1580.6558911796, -387.66377658894, -9368.6877840217
6276, 1563.9409029964, -450.38328336525, -9215.3991043009
6277, 1500.7745753433, -629.62840152187, -9158.3086237888
6278, 1453.2999144786, -732.58146890049, -9216.4731113222
6279, 1475.8448431798, 686.03079293829, -9177.6413642901
6280, 1537.2699493537, 534.37566637545, -9116.0485978299
6281, 1522.9533009318, 573.90721652635, -9011.2770200685
6282, 1536.2496268573, 537.30190208195, -10272.945215952
6283, 1525.2070845262, -567.89048179308, -10177.588119352
6284, 1545.180011506, -511.05281727271, -10241.996949456
6285, 1525.9319733634, -565.939804809, -9287.9233619513
6286, 1543.6108381041, -515.77304164488, -9085.7843661385
6287, 1587.360958741, 359.22337989737, -9030.9530796752
6288, 1593.0574711979, 333.05276377843, -8837.0458979847
6289, 1554.1937733075, 482.94716586001, -8933.4112788347
6290, 1601.9528381314, 287.23397153341, -10437.878818499
6291, 1619.8957488803, 157.14328735089, -10274.961953629
6292, 1573.0711149063, 417.37694886913, -10351.330026999
6293, 1625.7589345228, 75.26045986597, -10416.055986816
6294, 1601.5254144724, -289.60766011771, -8901.7354176064
6295, 1618.3559742193, -172.27939722645, -9063.2185422644
6296, 1571.233008822, -424.2441301752, -8996.4302407455
6297, 1473.2855000283, -691.51000383673, -10052.1803466
6298, 1365.1601433344, -886.0553216652, -9282.2154892069
6299, 1474.2484482347, -689.45468515169, -9382.8772045372
6300, 1390.667701409, -845.45821556, -9448.6195824219
6301, 1340.7352609759, 922.59699217807, -10307.375436148
6302, 1360.3481699803, 893.42549013963, -10440.347012073
6303, 1438.0479450848, 762.0855317071, -9408.6504615348
6304, 1393.6768204714, 840.48864958479, -9271.4200791048
6305, 1307.1604566389, 969.58124497106, -10544.865601019
6306, 1609.5721115789, -240.90219514873, -9774.3067290096
6307, 1624.7646816196, -94.318499571394, -9654.6665407269
6308, 1364.4037046633, -887.21969133982, -8796.2975621561
6309, 1473.4418269392, -691.17684612991, -8769.54786125
6310, 1625.7589345228, -75.260459865972, -8918.9440131845
6311, 1462.8159124441, 713.39039543595, -8762.4014880849
6312, 1340.8244455081, 922.46737412649, -8771.2291273523
6313, 911.02667094067, -1348.6239857109, -8777.9158484755
6314, 698.16054191946, -1470.1456076548, -8767.5666264272
6315, 1570.1601154004, -428.19792386914, -10338.476108695
6316, 1618.9659362724, -166.44983385261, -10275.151127919
6317, 1600.1602861425, -297.05775305859, -10424.757255335
6318, 1121.8773881658, 1179.0451119114, -9210.3254400701
6319, 998.7685967542, 1284.9970973265, -9116.9527508613
6320, 1060.3111471985, 1234.7050340574, -9344.5247149656
6321, 1062.9199006193, 1232.4599526424, -8995.7903036688
6322, 929.88526272148, 1335.6907007887, -8893.1682441575
6323, 1609.4239835003, -241.88983305232, -9529.0940567711
6324, 1625.7780724269, -74.845903133668, -10414.391788974
6325, -1423.8575945934, -788.28028030565, -10222.165935143
6326, -1395.8707852678, -836.83988960604, -10351.396283129
6327, -1472.8628623806, -692.40973319271, -10442.447181664
6328, 1269.1347175828, -1018.8490165996, -9774.0450066277
6329, 1330.5620949179, -937.20902768147, -9665.9266695052
6330, 1285.3871537305, -998.26655509672, -10420.753525881
6331, 1219.3648786937, -1077.9172243768, -10282.594575987
6332, 1545.3922367081, 510.41070200619, -10466.692160793
6333, 1465.9449537944, -706.93821685118, -10555.487161615
6334, 1339.4170832272, -924.50966850501, -10546.868275648
6335, 1560.3598276264, 462.63750207882, -10564.322831683
6336, 1528.119992268, -560.00494571988, -10440.852627976
6337, 1557.3713674763, -472.59990876534, -10552.865466361
6338, 1536.6874646132, -536.04839902819, -8877.3392656719
6339, 1559.6725114748, -464.94935955435, -8775.2914044219
6340, 1520.3242698621, 580.83591871395, -8850.894944328
6341, 1552.9282198025, 487.00122601604, -8755.9934562431
6342, 1614.8423946722, 202.58403285924, -10541.055986816
6343, 1614.8939993268, -202.17225560964, -10539.391788974
6344, 1614.8423946722, -202.58403285924, -8793.9440131845
6345, 1612.066079143, 223.60502337059, -8748.5524417416
6346, 1400.5405548679, 829.00084690569, -9950.6971699307
6347, 1444.4009232833, 749.9748147893, -9806.9640329424
6348, 1384.7430501082, 855.12743797463, -9845.68430354
6349, 1326.9901229503, 942.2597643921, -10129.979842576
6350, 1313.9986669936, 960.29357653744, -9983.8594433048
6351, 781.3139125722, 1427.6921306854, -8782.9552127466
6352, 548.76459992697, 1532.1924369566, -8786.096399155
6353, 302.86978622083, 1599.0703995117, -8786.1547265683
6354, 49.732387925609, 1626.7399729493, -8785.7084328707
6355, -204.42465181275, 1614.6104210401, -8786.0635089828
6356, -454.32779915634, 1562.7995715746, -8786.7773669231
6357, -693.76453057883, 1472.2251954476, -8787.2762465372
6358, -915.84020435571, 1345.3597920578, -8787.9998041574
6359, -1115.5227042907, 1185.0592163314, -8789.6027088538
6360, -1287.6486370824, 995.34779721459, -8795.7079047521
6361, -1434.5960824119, 768.56381018658, -8817.1048455082
6362, 1292.25147685, 989.36462973918, -8879.5717682555
6363, 1234.2562871578, 1060.8334777954, -8991.461644635
6364, 1343.1728826659, 919.0445349769, -9122.1295927837
6365, -1542.3387704911, 519.56459371292, -8784.3870106637
6366, -1603.342736578, 279.37129248084, -8775.5461136996
6367, -1606.1552199766, -262.71973534938, -8780.789815479
6368, -1547.3409250178, -504.4723102064, -8781.5651500888
6369, -1415.3762743533, -803.40914358605, -9336.0449808683
6370, -1179.447389823, -1121.4544594586, -8788.4434797241
6371, -989.37742310147, -1292.2416819841, -8794.9611167262
6372, -771.80925584229, -1432.8526520882, -8793.1741028106
6373, -537.76800984739, -1536.0865267246, -8794.5401475031
6374, -277.98667800572, -1603.5833800746, -8821.9609435532
6375, -1.4189985477789, -1627.4993813956, -8785.8247795494
6376, 1233.6836982152, 1061.4993088826, -10468.750281524
6377, 1157.9508804793, 1143.6371838993, -10591.384680505
6378, -440.06377409668, 1566.875912358, -10435.694117332
6379, 1106.0419904934, -1193.912628824, -8789.5174905922
6380, 565.58612976235, 1526.0630982435, -10535.764337281
6381, 325.92252656216, 1594.5315163644, -10524.136087057
6382, 70.92471018984, 1625.9538540452, -10546.501619375
6383, -290.07391946803, 1601.4410295869, -10552.064236977
6384, -64.458961670827, 1626.2230143066, -10529.300806983
6385, -592.41728292067, 1515.8489413187, -9778.7824402386
6386, -527.7339967603, 1539.5626257686, -10551.129880354
6387, -765.13029983701, 1436.4302538833, -10544.409354583
6388, -989.57085579276, 1292.0935613823, -10540.600877888
6389, 1164.5662860209, -1136.9000024028, -9876.7454244938
6390, 1147.5082760763, -1154.114815058, -10156.183749475
6391, -1186.417364056, 1114.0781338247, -10545.447465743
6392, -1347.9796309123, 911.97980495488, -10551.933212506
6393, -1473.8425709705, 690.32190027189, -10553.907593526
6394, -1563.3613537738, 452.39090124212, -10552.734484801
6395, 984.25709180083, -1296.1459127891, -10543.730252507
6396, 770.25910496628, -1433.6865631011, -10546.216374976
6397, -1614.7542065307, 203.28576559, -10549.844807462
6398, -1626.6931548044, -51.240902728655, -10546.67063322
6399, 539.41983408116, -1535.5072427702, -10548.35643438
6400, -1598.7888802696, -304.35237197389, -10546.017252776
6401, 301.868753787, -1599.259674189, -10546.879937204
6402, -1533.1092860025, -546.19791941478, -10550.564660662
6403, -1328.0552554028, -940.75793305024, -9989.7775238125
6404, -267.35251524369, -1605.3905701084, -10558.948024737
6405, -967.80217746646, -1308.4781982483, -10555.362674672
6406, -1158.4047993479, -1143.177401302, -10561.041569548
6407, -508.64821620073, -1545.9732346182, -10553.810974083
6408, -746.98228174405, -1445.950801639, -10553.000177456
6409, 1274.0045818138, -1012.752968654, -9015.0033026876
6410, 1268.5726479457, -1019.5487663099, -8816.2531203012
6411, 1583.4746880602, -375.98425801173, -9766.6769632599
6412, 1583.2436743609, -376.95585629652, -9521.4642910214
6413, 1494.7467870809, 643.80765179616, -9526.4126029828
6414, 1531.4884308195, 550.72628071119, -9646.9666428365
6415, 1570.2536088128, 427.85494505783, -9555.3045307795
6416, 1482.6868710032, 671.1154092663, -9727.840796762
6417, -1435.0749115668, -767.66936124312, -9067.8465546776
6418, -1463.8829988675, -711.19815496584, -8963.9486668362
6419, 1176.2527436997, -1124.8047532523, -10541.385250233
6420, 1109.8038564496, -1190.416586834, -10417.61550274
6421, 1508.6849129586, -610.43106360266, -9864.8820172598
6422, 1531.0822491488, -551.85450649745, -9692.375590442
6423, 1380.1488793813, 862.52264940838, -9523.6566189802
6424, 1445.1237412379, 748.58107277082, -9641.4187604282
6425, 1341.9295270491, 920.85905242545, -9696.3036019987
6426, 1321.9208897102, 949.35842090737, -9821.44590893
6427, 1402.7212666948, 825.30557853576, -9720.5419966086
6428, 1292.7453035274, 988.71928787088, -9467.0929199068
6429, -1506.4305272859, -615.97347058236, -9102.1208788304
6430, -1433.0436840587, -771.45450259844, -9192.6928230245
6431, 1544.8326601841, -512.10184732011, -9400.6163988518
6432, 1497.5105992906, -637.35253589544, -9495.5702414378
6433, 1548.2635522378, -501.63355431228, -9553.3929058516
6434, 1289.8323311044, -992.51640169709, -9296.2899530126
6435, 1295.5928430232, -984.98499232585, -9135.6346635403
6436, 1108.7568430848, 1191.3918385286, -10473.541389798
6437, 1229.0129737491, 1066.9036321789, -10341.184887071
6438, 1141.2018206719, -1160.3510910476, -8938.2706108934
6439, 1184.0423187099, -1116.6020049705, -9075.4059328448
6440, 1207.895785137, -1090.7538779433, -9196.0372936976
6441, -1239.5513650071, -1054.6414857709, -10458.983896924
6442, -1302.9066148214, -975.2900097175, -10385.977429871
6443, -1254.7268494051, -1036.5407774816, -10267.529229461
6444, -1507.2139623675, -614.05400547878, -8890.0233263302
6445, 1177.661978603, 1123.3292100506, -9101.1962759897
6446, 1257.7597404415, 1032.8585020827, -9182.1145196886
6447, 1314.9325335983, 959.01443267802, -9331.4050060098
6448, 1213.1528325776, 1084.9038919688, -10163.789293499
6449, 1215.1515085845, 1082.6647963173, -9984.8576164329
6450, -1334.4820373269, -931.61898974415, -10280.048864624
6451, -1306.9271261972, -969.89573501992, -10143.309238973
6452, 1206.2626479979, 1092.5596890079, -9291.2436837689
6453, 1181.0615017707, 1119.7544280043, -9426.931597666
6454, 1616.9982832354, 184.58819575962, -9586.745241366
6455, -567.48052542572, 1525.3596635753, -9581.4340685655
******* E L E M E N T S *************
*ELEMENT, type=S8R, ELSET=Surface1
81, 407, 33, 34, 406, 2006, 73, 2007, 2008
82, 445, 444, 476, 475, 2009, 2010, 2011, 2012
83, 471, 469, 477, 470, 2013, 2014, 2015, 2016
84, 478, 479, 95, 94, 2017, 2018, 128, 2019
85, 489, 490, 492, 491, 2020, 2021, 2022, 2023
86, 455, 456, 499, 457, 2024, 2025, 2026, 2027
87, 500, 501, 503, 502, 2028, 2029, 2030, 2031
88, 515, 516, 518, 517, 2032, 2033, 2034, 2035
89, 475, 540, 472, 445, 2036, 2037, 2038, 2012
90, 548, 185, 184, 547, 2039, 224, 2040, 2041
91, 545, 406, 34, 35, 2042, 2007, 74, 2043
92, 521, 553, 555, 554, 2044, 2045, 2046, 2047
93, 569, 567, 573, 568, 2048, 2049, 2050, 2051
94, 422, 574, 576, 575, 2052, 2053, 2054, 2055
95, 582, 580, 583, 581, 2056, 2057, 2058, 2059
96, 572, 570, 600, 571, 2060, 2061, 2062, 2063
97, 598, 599, 504, 494, 2064, 2065, 2066, 2067
98, 586, 584, 611, 585, 2068, 2069, 2070, 2071
99, 622, 109, 108, 621, 2072, 142, 2073, 2074
100, 408, 410, 624, 623, 2075, 2076, 2077, 2078
101, 614, 106, 105, 627, 2079, 139, 2080, 2081
102, 543, 1329, 628, 542, 2082, 2083, 2084, 2085
103, 507, 506, 633, 514, 2086, 2087, 2088, 2089
104, 630, 631, 638, 632, 2090, 2091, 2092, 2093
105, 637, 636, 639, 577, 2094, 2095, 2096, 2097
106, 509, 13, 14, 510, 2098, 53, 2099, 2100
107, 645, 643, 646, 644, 2101, 2102, 2103, 2104
108, 495, 493, 647, 494, 2105, 2106, 2107, 2108
109, 656, 657, 660, 658, 2109, 2110, 2111, 2112
110, 647, 651, 598, 494, 2113, 2114, 2067, 2107
111, 677, 97, 98, 676, 2115, 131, 2116, 2117
112, 678, 679, 690, 680, 2118, 2119, 2120, 2121
113, 585, 616, 685, 586, 2122, 2123, 2124, 2071
114, 571, 608, 706, 572, 2125, 2126, 2127, 2063
115, 696, 694, 707, 695, 2128, 2129, 2130, 2131
116, 708, 710, 716, 711, 2132, 2133, 2134, 2135
117, 715, 713, 722, 714, 2136, 2137, 2138, 2139
118, 408, 726, 728, 727, 2140, 2141, 2142, 2143
119, 735, 733, 737, 734, 2144, 2145, 2146, 2147
120, 738, 739, 741, 740, 2148, 2149, 2150, 2151
121, 578, 710, 709, 579, 2152, 2153, 2154, 2155
122, 731, 732, 749, 730, 2156, 2157, 2158, 2159
123, 754, 755, 639, 756, 2160, 2161, 2162, 2163
124, 757, 758, 760, 759, 2164, 2165, 2166, 2167
125, 671, 672, 761, 673, 2168, 2169, 2170, 2171
126, 775, 776, 777, 1350, 2172, 2173, 2174, 2175
127, 500, 86, 87, 501, 2176, 120, 2177, 2028
128, 764, 762, 781, 763, 2178, 2179, 2180, 2181
129, 430, 429, 789, 587, 2182, 2183, 2184, 2185
130, 453, 113, 114, 454, 2186, 147, 2187, 2188
131, 455, 114, 113, 456, 2189, 147, 2190, 2024
132, 458, 87, 86, 459, 2191, 120, 2192, 2193
133, 803, 801, 804, 802, 2194, 2195, 2196, 2197
134, 116, 806, 151, 2, 2198, 2199, 190, 150
135, 189, 807, 116, 2, 2200, 2201, 150, 229
136, 84, 808, 43, 1, 2202, 2203, 83, 117
137, 84, 1, 5, 809, 117, 44, 2204, 2205
138, 812, 16, 17, 820, 2206, 56, 2207, 2208
139, 799, 776, 30, 31, 2209, 2210, 70, 2211
140, 608, 571, 600, 457, 2125, 2062, 2212, 2213
141, 826, 827, 828, 526, 2214, 2215, 2216, 2217
142, 616, 585, 611, 502, 2122, 2070, 2218, 2219
143, 457, 600, 835, 455, 2212, 2220, 2221, 2027
144, 835, 115, 114, 455, 2222, 148, 2189, 2221
145, 502, 611, 836, 500, 2218, 2223, 2224, 2031
146, 836, 85, 86, 500, 2225, 119, 2176, 2224
147, 570, 806, 835, 600, 2226, 2227, 2220, 2061
148, 815, 424, 837, 807, 2228, 2229, 2230, 2231
149, 584, 808, 836, 611, 2232, 2233, 2223, 2069
150, 818, 435, 838, 809, 2234, 2235, 2236, 2237
151, 436, 434, 838, 435, 2238, 2239, 2235, 2240
152, 425, 423, 837, 424, 2241, 2242, 2229, 2243
153, 570, 814, 153, 152, 2244, 2245, 192, 2246
154, 188, 816, 700, 815, 2247, 2248, 2249, 2250
155, 584, 817, 41, 42, 2251, 2252, 81, 2253
156, 818, 6, 7, 819, 2254, 46, 2255, 2256
157, 809, 838, 85, 84, 2236, 2257, 118, 2205
158, 806, 116, 115, 835, 2198, 149, 2222, 2227
159, 807, 837, 115, 116, 2230, 2258, 149, 2201
160, 451, 452, 839, 450, 2259, 2260, 2261, 2262
161, 808, 84, 85, 836, 2202, 118, 2225, 2233
162, 838, 434, 86, 85, 2239, 2263, 119, 2257
163, 837, 423, 114, 115, 2242, 2264, 148, 2258
164, 818, 809, 5, 6, 2237, 2204, 45, 2254
165, 584, 42, 43, 808, 2253, 82, 2203, 2232
166, 815, 807, 189, 188, 2231, 2200, 228, 2250
167, 570, 152, 151, 806, 2246, 191, 2199, 2226
168, 441, 443, 848, 847, 2265, 2266, 2267, 2268
169, 844, 842, 850, 843, 2269, 2270, 2271, 2272
170, 865, 779, 97, 96, 2273, 2274, 130, 2275
171, 870, 868, 628, 869, 2276, 2277, 2278, 2279
172, 749, 732, 886, 794, 2157, 2280, 2281, 2282
173, 895, 893, 896, 894, 2283, 2284, 2285, 2286
174, 607, 898, 655, 899, 2287, 2288, 2289, 2290
175, 904, 905, 907, 906, 2291, 2292, 2293, 2294
176, 913, 914, 109, 110, 2295, 2296, 143, 2297
177, 178, 177, 917, 805, 217, 2298, 2299, 2300
178, 928, 94, 95, 929, 2301, 128, 2302, 2303
179, 931, 932, 91, 90, 2304, 2305, 124, 2306
180, 936, 902, 937, 519, 2307, 2308, 2309, 2310
181, 936, 554, 938, 573, 2311, 2312, 2313, 2314
182, 940, 939, 941, 747, 2315, 2316, 2317, 2318
183, 944, 945, 169, 168, 2319, 2320, 208, 2321
184, 875, 99, 100, 876, 2322, 133, 2323, 2324
185, 954, 825, 955, 953, 2325, 2326, 2327, 2328
186, 969, 970, 972, 971, 2329, 2330, 2331, 2332
187, 978, 976, 979, 977, 2333, 2334, 2335, 2336
188, 964, 965, 968, 966, 2337, 2338, 2339, 2340
189, 854, 853, 984, 550, 2341, 2342, 2343, 2344
190, 724, 723, 985, 729, 2345, 2346, 2347, 2348
191, 562, 560, 637, 561, 2349, 2350, 2351, 2352
192, 950, 993, 996, 994, 2353, 2354, 2355, 2356
193, 1000, 1001, 1009, 999, 2357, 2358, 2359, 2360
194, 951, 994, 924, 923, 2361, 2362, 2363, 2364
195, 924, 994, 996, 1019, 2362, 2355, 2365, 2366
196, 1025, 1026, 1028, 1027, 2367, 2368, 2369, 2370
197, 183, 1023, 547, 184, 2371, 2372, 2040, 223
198, 582, 846, 547, 1023, 2373, 2374, 2372, 2375
199, 448, 724, 461, 446, 2376, 2377, 2378, 2379
200, 1033, 1030, 10, 11, 2380, 2381, 50, 2382
201, 9, 10, 1030, 549, 49, 2381, 2383, 2384
202, 901, 902, 936, 903, 2385, 2307, 2386, 2387
203, 567, 903, 936, 573, 2388, 2386, 2314, 2049
204, 177, 176, 1037, 917, 216, 2389, 2390, 2298
205, 1039, 1041, 1042, 1040, 2391, 2392, 2393, 2394
206, 1045, 1043, 1046, 1044, 2395, 2396, 2397, 2398
207, 690, 1047, 1052, 1048, 2399, 2400, 2401, 2402
208, 1054, 1055, 961, 963, 2403, 2404, 2405, 2406
209, 1058, 36, 37, 849, 2407, 76, 2408, 2409
210, 416, 417, 1068, 418, 2410, 2411, 2412, 2413
211, 637, 992, 1069, 636, 2414, 2415, 2416, 2094
212, 1070, 1047, 1072, 1071, 2417, 2418, 2419, 2420
213, 1075, 1074, 904, 906, 2421, 2422, 2294, 2423
214, 519, 520, 1077, 521, 2424, 2425, 2426, 2427
215, 162, 859, 1078, 163, 2428, 2429, 2430, 202
216, 724, 729, 1079, 461, 2348, 2431, 2432, 2377
217, 1080, 1081, 1083, 1082, 2433, 2434, 2435, 2436
218, 780, 779, 865, 897, 2437, 2273, 2438, 2439
219, 1085, 1086, 1087, 1084, 2440, 2441, 2442, 2443
220, 1100, 1360, 1101, 1099, 2444, 2445, 2446, 2447
221, 1035, 989, 1105, 1034, 2448, 2449, 2450, 2451
222, 990, 988, 1105, 989, 2452, 2453, 2449, 2454
223, 1106, 1107, 935, 1062, 2455, 2456, 2457, 2458
224, 608, 457, 499, 609, 2213, 2026, 2459, 2460
225, 616, 502, 503, 617, 2219, 2030, 2461, 2462
226, 1116, 158, 157, 841, 2463, 197, 2464, 2465
227, 23, 24, 1121, 1120, 63, 2466, 2467, 2468
228, 1098, 1096, 1127, 1097, 2469, 2470, 2471, 2472
229, 1094, 711, 1073, 1095, 2473, 2474, 2475, 2476
230, 875, 876, 785, 987, 2324, 2477, 2478, 2479
231, 1142, 1143, 1140, 1139, 2480, 2481, 2482, 2483
232, 1146, 1144, 1147, 1145, 2484, 2485, 2486, 2487
233, 853, 1207, 1152, 984, 2488, 2489, 2490, 2342
234, 788, 1150, 659, 786, 2491, 2492, 2493, 2494
235, 505, 1153, 1156, 1154, 2495, 2496, 2497, 2498
236, 548, 845, 1157, 986, 2499, 2500, 2501, 2502
237, 1020, 555, 1159, 1021, 2503, 2504, 2505, 2506
238, 721, 720, 1170, 1160, 2507, 2508, 2509, 2510
239, 441, 38, 39, 442, 2511, 78, 2512, 2513
240, 1113, 511, 1180, 1112, 2514, 2515, 2516, 2517
241, 1179, 1177, 907, 1178, 2518, 2519, 2520, 2521
242, 1182, 1183, 1176, 1175, 2522, 2523, 2524, 2525
243, 1189, 1190, 1193, 1188, 2526, 2527, 2528, 2529
244, 830, 832, 1195, 831, 2530, 2531, 2532, 2533
245, 1199, 1197, 1200, 1198, 2534, 2535, 2536, 2537
246, 450, 156, 155, 451, 2538, 195, 2539, 2262
247, 1208, 1209, 1088, 1003, 2540, 2541, 2542, 2543
248, 545, 833, 407, 406, 2544, 2545, 2008, 2042
249, 857, 855, 1210, 856, 2546, 2547, 2548, 2549
250, 857, 856, 1214, 858, 2549, 2550, 2551, 2552
251, 998, 824, 1021, 997, 2553, 2554, 2555, 2556
252, 1022, 1021, 824, 823, 2557, 2554, 2558, 2559
253, 699, 693, 815, 700, 2560, 2561, 2249, 2562
254, 815, 693, 425, 424, 2561, 2563, 2243, 2228
255, 949, 1215, 1153, 860, 2564, 2565, 2566, 2567
256, 1181, 587, 1186, 1187, 2568, 2569, 2570, 2571
257, 681, 683, 818, 819, 2572, 2573, 2256, 2574
258, 818, 683, 436, 435, 2573, 2575, 2240, 2234
259, 411, 467, 484, 466, 2576, 2577, 2578, 2579
260, 1230, 891, 1233, 1229, 2580, 2581, 2582, 2583
261, 188, 187, 701, 816, 227, 2584, 2585, 2247
262, 1228, 1238, 748, 746, 2586, 2587, 2588, 2589
263, 1235, 701, 187, 186, 2590, 2584, 226, 2591
264, 819, 7, 8, 682, 2255, 47, 2592, 2593
265, 730, 100, 99, 1134, 2594, 133, 2595, 2596
266, 1040, 1239, 887, 1038, 2597, 2598, 2599, 2600
267, 814, 705, 154, 153, 2601, 2602, 193, 2245
268, 817, 684, 40, 41, 2603, 2604, 80, 2252
269, 644, 1244, 728, 645, 2605, 2606, 2607, 2104
270, 409, 635, 1212, 634, 2608, 2609, 2610, 2611
271, 1200, 1197, 1213, 1201, 2535, 2612, 2613, 2614
272, 421, 419, 1250, 420, 2615, 2616, 2617, 2618
273, 1253, 1254, 1256, 1255, 2619, 2620, 2621, 2622
274, 633, 506, 103, 104, 2087, 2623, 137, 2624
275, 935, 920, 921, 934, 2625, 2626, 2627, 2628
276, 486, 488, 1264, 487, 2629, 2630, 2631, 2632
277, 1260, 1259, 961, 1055, 2633, 2634, 2404, 2635
278, 1265, 675, 609, 499, 2636, 2637, 2459, 2638
279, 1260, 1266, 1267, 1259, 2639, 2640, 2641, 2633
280, 694, 696, 1268, 1258, 2128, 2642, 2643, 2644
281, 637, 560, 1270, 992, 2350, 2645, 2646, 2414
282, 459, 86, 434, 687, 2192, 2263, 2647, 2648
283, 950, 952, 1277, 1276, 2649, 2650, 2651, 2652
284, 486, 485, 513, 1281, 2653, 2654, 2655, 2656
285, 686, 687, 434, 436, 2657, 2647, 2238, 2658
286, 454, 114, 423, 692, 2187, 2264, 2659, 2660
287, 691, 692, 423, 425, 2661, 2659, 2241, 2662
288, 560, 1272, 1283, 1270, 2663, 2664, 2665, 2645
289, 791, 792, 1284, 790, 2666, 2667, 2668, 2669
290, 88, 544, 535, 89, 2670, 2671, 2672, 122
291, 535, 931, 90, 89, 2673, 2306, 123, 2672
292, 112, 546, 539, 111, 2674, 2675, 2676, 145
293, 539, 913, 110, 111, 2677, 2297, 144, 2676
294, 859, 829, 1286, 1078, 2678, 2679, 2680, 2429
295, 1003, 1004, 1287, 1002, 2681, 2682, 2683, 2684
296, 963, 1056, 1289, 1054, 2685, 2686, 2687, 2406
297, 486, 487, 1289, 485, 2632, 2688, 2689, 2653
298, 1042, 1290, 1292, 574, 2690, 2691, 2692, 2693
299, 1293, 1294, 1297, 1295, 2694, 2695, 2696, 2697
300, 1301, 663, 1302, 1108, 2698, 2699, 2700, 2701
301, 1270, 1283, 1304, 1303, 2665, 2702, 2703, 2704
302, 1209, 1305, 1306, 1085, 2705, 2706, 2707, 2708
303, 410, 409, 634, 411, 2709, 2611, 2710, 2711
304, 414, 413, 1315, 415, 2712, 2713, 2714, 2715
305, 1311, 1312, 1313, 1309, 2716, 2717, 2718, 2719
306, 717, 718, 1316, 497, 2720, 2721, 2722, 2723
307, 629, 509, 1321, 1323, 2724, 2725, 2726, 2727
308, 1013, 1012, 893, 1037, 2728, 2729, 2730, 2731
309, 473, 472, 1328, 474, 2732, 2733, 2734, 2735
310, 507, 505, 1288, 506, 2736, 2737, 2738, 2086
311, 1099, 1101, 1331, 1102, 2446, 2739, 2740, 2741
312, 545, 1058, 1057, 1137, 2742, 2743, 2744, 2745
313, 113, 1265, 499, 456, 2746, 2638, 2025, 2190
314, 1131, 1137, 1057, 1132, 2747, 2744, 2748, 2749
315, 665, 664, 932, 922, 2750, 2751, 2752, 2753
316, 669, 668, 914, 930, 2754, 2755, 2756, 2757
317, 996, 993, 1335, 995, 2354, 2758, 2759, 2760
318, 638, 631, 1186, 1336, 2091, 2761, 2762, 2763
319, 1144, 1146, 1345, 1148, 2484, 2764, 2765, 2766
320, 408, 623, 934, 726, 2078, 2767, 2768, 2140
321, 1059, 1063, 1349, 1060, 2769, 2770, 2771, 2772
322, 480, 482, 791, 1206, 2773, 2774, 2775, 2776
323, 87, 1271, 503, 501, 2777, 2778, 2029, 2177
324, 1059, 1060, 1352, 1061, 2772, 2779, 2780, 2781
325, 650, 649, 1073, 1348, 2782, 2783, 2784, 2785
326, 1355, 1359, 1358, 1354, 2786, 2787, 2788, 2789
327, 91, 619, 689, 620, 2790, 2791, 2792, 2793
328, 1371, 1372, 1373, 1370, 2794, 2795, 2796, 2797
329, 1376, 1375, 1378, 899, 2798, 2799, 2800, 2801
330, 1346, 476, 444, 1347, 2802, 2010, 2803, 2804
331, 550, 984, 1388, 1379, 2343, 2805, 2806, 2807
332, 757, 1381, 1389, 1092, 2808, 2809, 2810, 2811
333, 1392, 1390, 1393, 1391, 2812, 2813, 2814, 2815
334, 957, 959, 481, 958, 2816, 2817, 2818, 2819
335, 1007, 1008, 1284, 1006, 2820, 2821, 2822, 2823
336, 1341, 1368, 1406, 1402, 2824, 2825, 2826, 2827
337, 1342, 1343, 1407, 1344, 2828, 2829, 2830, 2831
338, 1223, 1224, 1165, 1158, 2832, 2833, 2834, 2835
339, 948, 768, 770, 661, 2836, 2837, 2838, 2839
340, 1417, 1415, 1352, 1416, 2840, 2841, 2842, 2843
341, 1419, 1418, 1420, 1338, 2844, 2845, 2846, 2847
342, 662, 663, 1301, 661, 2848, 2698, 2849, 2850
343, 1231, 1232, 1169, 1152, 2851, 2852, 2853, 2854
344, 1287, 1427, 1428, 1426, 2855, 2856, 2857, 2858
345, 1429, 955, 722, 713, 2859, 2860, 2137, 2861
346, 952, 950, 994, 951, 2649, 2356, 2361, 2862
347, 574, 1292, 559, 576, 2692, 2863, 2864, 2053
348, 1131, 1132, 1437, 1133, 2749, 2865, 2866, 2867
349, 1431, 1655, 1439, 1438, 2868, 2869, 2870, 2871
350, 1192, 1190, 1440, 1191, 2872, 2873, 2874, 2875
351, 460, 447, 1263, 488, 2876, 2877, 2878, 2879
352, 1441, 1442, 1443, 1440, 2880, 2881, 2882, 2883
353, 1117, 1118, 408, 727, 2884, 2885, 2143, 2886
354, 410, 408, 1118, 409, 2075, 2885, 2887, 2709
355, 810, 813, 508, 811, 2888, 2889, 2890, 2891
356, 431, 433, 897, 865, 2892, 2893, 2438, 2894
357, 980, 1447, 622, 1444, 2895, 2896, 2897, 2898
358, 609, 610, 706, 608, 2899, 2900, 2126, 2460
359, 1089, 1090, 1446, 1091, 2901, 2902, 2903, 2904
360, 621, 1353, 1444, 622, 2905, 2906, 2897, 2074
361, 488, 486, 1281, 460, 2629, 2656, 2907, 2879
362, 617, 618, 685, 616, 2908, 2909, 2123, 2462
363, 447, 449, 725, 448, 2910, 2911, 2912, 2913
364, 762, 1288, 505, 1154, 2914, 2737, 2498, 2915
365, 1450, 1451, 888, 889, 2916, 2917, 2918, 2919
366, 1434, 167, 166, 1454, 2920, 206, 2921, 2922
367, 108, 1459, 1353, 621, 2923, 2924, 2905, 2073
368, 791, 1356, 1053, 1206, 2925, 2926, 2927, 2775
369, 108, 107, 615, 1459, 141, 2928, 2929, 2923
370, 1434, 1433, 1356, 944, 2930, 2931, 2932, 2933
371, 1463, 1464, 427, 1465, 2934, 2935, 2936, 2937
372, 845, 846, 582, 581, 2938, 2373, 2059, 2939
373, 853, 854, 1029, 852, 2341, 2940, 2941, 2942
374, 849, 37, 38, 441, 2408, 77, 2511, 2943
375, 1472, 1471, 1473, 1423, 2944, 2945, 2946, 2947
376, 841, 157, 156, 450, 2464, 196, 2538, 2948
377, 1285, 620, 689, 872, 2949, 2792, 2950, 2951
378, 863, 1249, 1477, 1475, 2952, 2953, 2954, 2955
379, 1077, 1410, 1486, 1409, 2956, 2957, 2958, 2959
380, 112, 111, 982, 912, 145, 2960, 2961, 2962
381, 982, 111, 110, 1447, 2960, 144, 2963, 2964
382, 88, 89, 1487, 915, 122, 2965, 2966, 2967
383, 1487, 89, 90, 1285, 2965, 123, 2968, 2969
384, 1412, 1411, 1490, 1414, 2970, 2971, 2972, 2973
385, 1431, 1034, 1105, 1655, 2974, 2450, 2975, 2868
386, 723, 724, 448, 725, 2345, 2376, 2912, 2976
387, 180, 179, 803, 802, 219, 2977, 2197, 2978
388, 1452, 1079, 729, 1357, 2979, 2431, 2980, 2981
389, 805, 803, 179, 178, 2982, 2977, 218, 2300
390, 1491, 1492, 1493, 1404, 2983, 2984, 2985, 2986
391, 1494, 962, 961, 1259, 2987, 2988, 2634, 2989
392, 431, 432, 1482, 433, 2990, 2991, 2992, 2892
393, 1273, 1274, 1497, 1330, 2993, 2994, 2995, 2996
394, 1495, 1394, 1498, 1417, 2997, 2998, 2999, 3000
395, 484, 483, 1062, 466, 3001, 3002, 3003, 2578
396, 181, 498, 497, 1317, 3004, 3005, 3006, 3007
397, 416, 418, 476, 1346, 2413, 3008, 2802, 3009
398, 1035, 1034, 1506, 1505, 2451, 3010, 3011, 3012
399, 802, 498, 181, 180, 3013, 3004, 220, 2978
400, 729, 892, 1315, 1357, 3014, 3015, 3016, 2980
401, 1508, 1509, 851, 1510, 3017, 3018, 3019, 3020
402, 1516, 1517, 1518, 1514, 3021, 3022, 3023, 3024
403, 1215, 1110, 1519, 1193, 3025, 3026, 3027, 3028
404, 1446, 1349, 1063, 1091, 3029, 2770, 3030, 2903
405, 1346, 1089, 1091, 416, 3031, 2904, 3032, 3009
406, 1108, 1109, 1519, 1110, 3033, 3034, 3026, 3035
407, 624, 410, 411, 466, 2076, 2711, 2579, 3036
408, 1520, 1523, 1525, 1524, 3037, 3038, 3039, 3040
409, 1522, 1520, 1524, 1521, 3041, 3040, 3042, 3043
410, 1158, 1157, 1527, 1223, 3044, 3045, 3046, 2835
411, 1152, 1207, 1528, 1231, 2489, 3047, 3048, 2854
412, 1529, 1061, 1352, 1530, 3049, 2780, 3050, 3051
413, 1531, 1195, 1398, 1397, 3052, 3053, 3054, 3055
414, 923, 1532, 437, 951, 3056, 3057, 3058, 2364
415, 1072, 1533, 647, 1071, 3059, 3060, 3061, 2419
416, 1163, 1224, 1535, 1534, 3062, 3063, 3064, 3065
417, 466, 1062, 935, 624, 3003, 2457, 3066, 3036
418, 1163, 1534, 1537, 541, 3065, 3067, 3068, 3069
419, 1540, 1418, 1237, 1539, 3070, 3071, 3072, 3073
420, 1540, 1345, 1178, 1541, 3074, 3075, 3076, 3077
421, 1544, 1542, 880, 1543, 3078, 3079, 3080, 3081
422, 589, 590, 1547, 588, 3082, 3083, 3084, 3085
423, 1232, 1545, 536, 1167, 3086, 3087, 3088, 3089
424, 1548, 1549, 1341, 1402, 3090, 3091, 2827, 3092
425, 1294, 1296, 1551, 1297, 3093, 3094, 3095, 2695
426, 933, 929, 95, 96, 3096, 2302, 129, 3097
427, 981, 983, 912, 982, 3098, 3099, 2961, 3100
428, 912, 983, 675, 1265, 3099, 3101, 2636, 3102
429, 1271, 915, 1487, 751, 3103, 2966, 3104, 3105
430, 503, 1271, 751, 704, 2778, 3105, 3106, 3107
431, 1163, 1164, 1552, 1162, 3108, 3109, 3110, 3111
432, 1167, 1168, 1553, 1166, 3112, 3113, 3114, 3115
433, 1018, 1554, 569, 1017, 3116, 3117, 3118, 3119
434, 1265, 113, 112, 912, 2746, 146, 2962, 3102
435, 1271, 87, 88, 915, 2777, 121, 2967, 3103
436, 1451, 1556, 1307, 1208, 3120, 3121, 3122, 3123
437, 1284, 792, 1557, 1006, 2667, 3124, 3125, 2822
438, 791, 482, 1557, 792, 2774, 3126, 3124, 2666
439, 1564, 1558, 1538, 1536, 3127, 3128, 3129, 3130
440, 480, 481, 1557, 482, 3131, 3132, 3126, 2773
441, 1570, 1571, 1573, 1572, 3133, 3134, 3135, 3136
442, 586, 685, 772, 684, 2124, 3137, 3138, 3139
443, 845, 548, 547, 846, 2499, 2041, 2374, 2938
444, 1030, 854, 550, 549, 3140, 2344, 3141, 2383
445, 572, 706, 766, 705, 2127, 3142, 3143, 3144
446, 464, 463, 1581, 468, 3145, 3146, 3147, 3148
447, 682, 8, 9, 1240, 2592, 48, 3149, 3150
448, 765, 154, 705, 766, 3151, 2602, 3143, 3152
449, 451, 155, 154, 765, 2539, 194, 3151, 3153
450, 771, 40, 684, 772, 3154, 2604, 3138, 3155
451, 442, 39, 40, 771, 2512, 79, 3154, 3156
452, 546, 112, 113, 453, 2674, 146, 2186, 3157
453, 1162, 1552, 692, 691, 3110, 3158, 2661, 3159
454, 544, 88, 87, 458, 2670, 121, 2191, 3160
455, 1166, 1553, 687, 686, 3114, 3161, 2657, 3162
456, 981, 982, 1447, 980, 3100, 2964, 2895, 3163
457, 706, 610, 632, 1448, 2900, 3164, 3165, 3166
458, 638, 1161, 1448, 632, 3167, 3168, 3165, 2092
459, 1579, 1577, 1875, 1578, 3169, 3170, 3171, 3172
460, 650, 1155, 1449, 649, 3173, 3174, 3175, 2782
461, 584, 586, 684, 817, 2068, 3139, 2603, 2251
462, 441, 442, 771, 443, 2513, 3156, 3176, 2265
463, 570, 572, 705, 814, 2060, 3144, 2601, 2244
464, 947, 895, 894, 1586, 3177, 2286, 3178, 3179
465, 699, 700, 816, 701, 2562, 2248, 2585, 3180
466, 1257, 1261, 728, 726, 3181, 3182, 2141, 3183
467, 921, 1257, 726, 934, 3184, 3183, 2768, 2627
468, 932, 931, 534, 922, 2304, 3185, 3186, 2752
469, 914, 913, 538, 930, 2295, 3187, 3188, 2756
470, 1130, 1588, 1476, 440, 3189, 3190, 3191, 3192
471, 548, 986, 701, 1235, 2502, 3193, 2590, 3194
472, 1441, 1550, 1589, 1442, 3195, 3196, 3197, 2880
473, 550, 1379, 682, 1240, 2807, 3198, 3150, 3199
474, 1592, 1591, 1593, 740, 3200, 3201, 3202, 3203
475, 1481, 1408, 1590, 1414, 3204, 3205, 3206, 3207
476, 1242, 1243, 1158, 1165, 3208, 3209, 2834, 3210
477, 1601, 1599, 1602, 1600, 3211, 3212, 3213, 3214
478, 1145, 1147, 1109, 1111, 2486, 3215, 3216, 3217
479, 1251, 1252, 1152, 1169, 3218, 3219, 2853, 3220
480, 1111, 1603, 1604, 1145, 3221, 3222, 3223, 3217
481, 687, 1553, 458, 459, 3161, 3224, 2193, 2648
482, 692, 1552, 453, 454, 3158, 3225, 2188, 2660
483, 1071, 1609, 1610, 1070, 3226, 3227, 3228, 2420
484, 506, 1288, 102, 103, 2738, 3229, 136, 2623
485, 1511, 1583, 1611, 991, 3230, 3231, 3232, 3233
486, 765, 766, 1161, 767, 3152, 3234, 3235, 3236
487, 1613, 1486, 1410, 1612, 3237, 2957, 3238, 3239
488, 1161, 766, 706, 1448, 3234, 3142, 3166, 3168
489, 773, 772, 1449, 1155, 3240, 3241, 3174, 3242
490, 618, 1449, 772, 685, 3243, 3241, 3137, 2909
491, 427, 688, 872, 689, 3244, 3245, 2950, 3246
492, 752, 872, 688, 873, 3247, 3245, 3248, 3249
493, 1232, 1546, 1375, 1545, 3250, 3251, 3252, 3086
494, 628, 1329, 1484, 869, 2083, 3253, 3254, 2278
495, 535, 544, 1168, 533, 2671, 3255, 3256, 3257
496, 544, 458, 1553, 1168, 3160, 3224, 3113, 3255
497, 539, 546, 1164, 537, 2675, 3258, 3259, 3260
498, 546, 453, 1552, 1164, 3157, 3225, 3109, 3258
499, 827, 826, 563, 793, 2214, 3261, 3262, 3263
500, 562, 561, 793, 563, 2352, 3264, 3262, 3265
501, 1336, 1337, 840, 638, 3266, 3267, 3268, 2763
502, 1351, 848, 1155, 650, 3269, 3270, 3173, 3271
503, 1337, 1622, 1568, 1580, 3272, 3273, 3274, 3275
504, 650, 1348, 1623, 1351, 2785, 3276, 3277, 3271
505, 1351, 1623, 1437, 1624, 3277, 3278, 3279, 3280
506, 659, 1150, 1533, 1151, 2492, 3281, 3282, 3283
507, 1626, 820, 17, 1625, 3284, 2207, 3285, 3286
508, 509, 510, 811, 508, 2100, 3287, 2890, 3288
509, 675, 983, 1314, 674, 3101, 3289, 3290, 3291
510, 704, 702, 1324, 703, 3292, 3293, 3294, 3295
511, 875, 1450, 889, 676, 3296, 2919, 3297, 3298
512, 533, 534, 931, 535, 3299, 3185, 2673, 3257
513, 537, 538, 913, 539, 3300, 3187, 2677, 3260
514, 511, 513, 485, 1180, 3301, 2654, 3302, 2515
515, 1637, 1399, 1398, 1470, 3303, 3304, 3305, 3306
516, 610, 609, 675, 674, 2899, 2637, 3291, 3307
517, 1582, 407, 833, 641, 3308, 2545, 3309, 3310
518, 1138, 1980, 723, 725, 3311, 3312, 2976, 3313
519, 1229, 1234, 1639, 1230, 3314, 3315, 3316, 2583
520, 503, 704, 703, 617, 3107, 3295, 3317, 2461
521, 1642, 1282, 562, 1643, 3318, 3319, 3320, 3321
522, 1243, 699, 701, 986, 3322, 3180, 3193, 3323
523, 1167, 536, 533, 1168, 3088, 3324, 3256, 3112
524, 819, 682, 1379, 681, 2593, 3198, 3325, 2574
525, 1163, 541, 537, 1164, 3069, 3326, 3259, 3108
526, 533, 536, 867, 534, 3324, 3327, 3328, 3299
527, 537, 541, 1537, 538, 3326, 3068, 3329, 3300
528, 451, 765, 767, 452, 3153, 3236, 3330, 2259
529, 772, 773, 443, 771, 3240, 3331, 3176, 3155
530, 418, 525, 529, 476, 3332, 3333, 3334, 3008
531, 1160, 1170, 1648, 1276, 2509, 3335, 3336, 3337
532, 914, 668, 108, 109, 2755, 3338, 142, 2296
533, 932, 664, 92, 91, 2751, 3339, 125, 2305
534, 1157, 1158, 1243, 986, 3044, 3209, 3323, 2501
535, 1252, 1388, 984, 1152, 3340, 2805, 2490, 3219
536, 1306, 1305, 1652, 1651, 2706, 3341, 3342, 3343
537, 750, 751, 1487, 752, 3344, 3104, 3345, 3346
538, 186, 185, 548, 1235, 225, 2039, 3194, 2591
539, 549, 550, 1240, 9, 3141, 3199, 3149, 2384
540, 1654, 1543, 880, 1653, 3347, 3080, 3348, 3349
541, 833, 834, 911, 641, 3350, 3351, 3352, 3309
542, 1439, 1655, 1656, 1586, 2869, 3353, 3354, 3355
543, 1180, 1657, 1658, 1112, 3356, 3357, 3358, 2516
544, 1634, 1635, 1632, 1631, 3359, 3360, 3361, 3362
545, 545, 1137, 834, 833, 2745, 3363, 3350, 2544
546, 757, 910, 943, 1381, 3364, 3365, 3366, 2808
547, 605, 606, 1659, 607, 3367, 3368, 3369, 3370
548, 494, 504, 1321, 495, 2066, 3371, 3372, 2108
549, 508, 495, 1321, 509, 3373, 3372, 2725, 3288
550, 1065, 1066, 996, 995, 3374, 3375, 2760, 3376
551, 1204, 1322, 1321, 504, 3377, 3378, 3371, 3379
552, 1663, 1661, 1664, 1662, 3380, 3381, 3382, 3383
553, 900, 428, 427, 1464, 3384, 3385, 2935, 3386
554, 1361, 1665, 1101, 1360, 3387, 3388, 2445, 3389
555, 1666, 1667, 1669, 1668, 3390, 3391, 3392, 3393
556, 1222, 1962, 1516, 1515, 3394, 3395, 3396, 3397
557, 425, 693, 1242, 691, 2563, 3398, 3399, 2662
558, 436, 683, 1251, 686, 2575, 3400, 3401, 2658
559, 1547, 27, 28, 588, 3402, 67, 3403, 3084
560, 919, 1677, 1405, 1676, 3404, 3405, 3406, 3407
561, 1305, 1209, 1208, 1307, 2705, 2540, 3122, 3408
562, 607, 1659, 1453, 898, 3369, 3409, 3410, 2287
563, 1064, 654, 898, 1453, 3411, 3412, 3410, 3413
564, 703, 1324, 1095, 648, 3294, 3414, 3415, 3416
565, 674, 1314, 1187, 630, 3290, 3417, 3418, 3419
566, 875, 987, 1585, 1450, 2479, 3420, 3421, 3296
567, 981, 1617, 1314, 983, 3422, 3423, 3289, 3098
568, 750, 874, 1324, 702, 3424, 3425, 3293, 3426
569, 523, 524, 688, 426, 3427, 3428, 3429, 3430
570, 428, 426, 688, 427, 3431, 3429, 3244, 3385
571, 980, 1444, 1389, 850, 2898, 3432, 3433, 3434
572, 1092, 1389, 1444, 1353, 2810, 3432, 2906, 3435
573, 909, 557, 556, 908, 3436, 3437, 3438, 3439
574, 1521, 1424, 1422, 1522, 3440, 3441, 3442, 3043
575, 1250, 419, 1682, 1123, 2616, 3443, 3444, 3445
576, 1685, 1684, 527, 1627, 3446, 3447, 3448, 3449
577, 1236, 1419, 1686, 1508, 3450, 3451, 3452, 3453
578, 850, 1617, 981, 980, 3454, 3422, 3163, 3434
579, 1487, 1285, 872, 752, 2969, 2951, 3247, 3345
580, 671, 869, 1484, 1687, 3455, 3254, 3456, 3457
581, 873, 874, 750, 752, 3458, 3424, 3346, 3249
582, 718, 717, 491, 492, 2720, 3459, 2022, 3460
583, 1533, 1150, 651, 647, 3281, 3461, 2113, 3060
584, 1048, 1052, 1320, 1697, 2401, 3462, 3463, 3464
585, 1123, 1124, 886, 885, 3465, 3466, 3467, 3468
586, 770, 1649, 1698, 1650, 3469, 3470, 3471, 3472
587, 1698, 1699, 1700, 1650, 3473, 3474, 3475, 3471
588, 1134, 1618, 731, 730, 3476, 3477, 2159, 2596
589, 1701, 1704, 1615, 1570, 3478, 3479, 3480, 3481
590, 1688, 731, 1618, 542, 3482, 3477, 3483, 3484
591, 1706, 1707, 1007, 1708, 3485, 3486, 3487, 3488
592, 873, 688, 524, 1616, 3248, 3428, 3489, 3490
593, 1706, 1710, 1173, 1172, 3491, 3492, 3493, 3494
594, 999, 1009, 1712, 1711, 2359, 3495, 3496, 3497
595, 862, 863, 1241, 861, 3498, 3499, 3500, 3501
596, 1714, 1713, 1573, 1612, 3502, 3503, 3504, 3505
597, 1619, 543, 542, 1618, 3506, 2085, 3483, 3507
598, 1714, 1076, 1717, 1715, 3508, 3509, 3510, 3511
599, 1723, 1724, 1726, 1725, 3512, 3513, 3514, 3515
600, 1728, 1614, 1615, 1729, 3516, 3517, 3518, 3519
601, 679, 1151, 1533, 1072, 3520, 3282, 3059, 3521
602, 669, 670, 1504, 668, 3522, 3523, 3524, 2754
603, 1730, 1731, 1732, 882, 3525, 3526, 3527, 3528
604, 1730, 1733, 741, 739, 3529, 3530, 2149, 3531
605, 668, 1504, 107, 108, 3524, 3532, 141, 3338
606, 665, 666, 1503, 664, 3533, 3534, 3535, 2750
607, 664, 1503, 93, 92, 3535, 3536, 126, 3339
608, 479, 478, 1277, 1734, 2017, 3537, 3538, 3539
609, 1503, 666, 1277, 478, 3534, 3540, 3537, 3541
610, 779, 780, 1619, 778, 2437, 3542, 3543, 3544
611, 461, 1079, 1452, 1513, 2432, 2979, 3545, 3546
612, 711, 716, 1348, 1073, 2134, 3547, 2784, 2474
613, 1682, 1683, 1124, 1123, 3548, 3549, 3465, 3444
614, 760, 421, 575, 759, 3550, 3551, 3552, 2166
615, 1659, 1660, 1736, 1735, 3553, 3554, 3555, 3556
616, 805, 917, 895, 947, 2299, 3557, 3177, 3558
617, 576, 1432, 759, 575, 3559, 3560, 3552, 2054
618, 1017, 569, 568, 1555, 3118, 2051, 3561, 3562
619, 520, 519, 937, 522, 2424, 2309, 3563, 3564
620, 1609, 1071, 647, 493, 3226, 3061, 2106, 3565
621, 1202, 1203, 845, 581, 3566, 3567, 2939, 3568
622, 845, 1203, 1527, 1157, 3567, 3569, 3045, 2500
623, 1205, 1207, 853, 852, 3570, 2488, 2942, 3571
624, 1012, 1013, 1739, 1011, 2728, 3572, 3573, 3574
625, 420, 422, 575, 421, 3575, 2055, 3551, 2618
626, 1058, 849, 1458, 1057, 2409, 3576, 3577, 2743
627, 849, 441, 847, 1458, 2943, 2268, 3578, 3576
628, 1460, 1413, 1412, 1462, 3579, 3580, 3581, 3582
629, 788, 1149, 651, 1150, 3583, 3584, 3461, 2491
630, 653, 654, 1335, 652, 3585, 3586, 3587, 3588
631, 1401, 1284, 1008, 1400, 3589, 2821, 3590, 3591
632, 1591, 1641, 1742, 1593, 3592, 3593, 3594, 3201
633, 528, 475, 476, 529, 3595, 2011, 3334, 3596
634, 1746, 1745, 1669, 1667, 3597, 3598, 3391, 3599
635, 1750, 1751, 1258, 1752, 3600, 3601, 3602, 3603
636, 1750, 1753, 1755, 1754, 3604, 3605, 3606, 3607
637, 929, 933, 516, 515, 3096, 3608, 2032, 3609
638, 718, 580, 582, 1316, 3610, 2056, 3611, 2721
639, 1321, 1322, 1029, 1323, 3378, 3612, 3613, 2726
640, 1115, 1455, 1456, 1116, 3614, 3615, 3616, 3617
641, 1246, 644, 646, 1245, 3618, 2103, 3619, 3620
642, 1504, 531, 106, 107, 3621, 3622, 140, 3532
643, 1503, 478, 94, 93, 3541, 2019, 127, 3536
644, 567, 569, 1554, 1757, 2048, 3117, 3623, 3624
645, 903, 567, 1757, 916, 2388, 3624, 3625, 3626
646, 1699, 930, 538, 1537, 3627, 3188, 3329, 3628
647, 760, 614, 627, 712, 3629, 2081, 3630, 3631
648, 1408, 640, 642, 1590, 3632, 3633, 3634, 3205
649, 1758, 1354, 1358, 1759, 3635, 2788, 3636, 3637
650, 1758, 672, 1313, 1312, 3638, 3639, 2717, 3640
651, 1590, 642, 1679, 1462, 3634, 3641, 3642, 3643
652, 1000, 1050, 1053, 1760, 3644, 3645, 3646, 3647
653, 497, 1316, 1024, 1317, 2722, 3648, 3649, 3006
654, 582, 1023, 1024, 1316, 2375, 3650, 3648, 3611
655, 854, 1030, 1323, 1029, 3140, 3651, 3613, 2940
656, 629, 1323, 1030, 1033, 2727, 3651, 2380, 3652
657, 1766, 1499, 1493, 1765, 3653, 3654, 3655, 3656
658, 1769, 1767, 1474, 1768, 3657, 3658, 3659, 3660
659, 1769, 1710, 1512, 1694, 3661, 3662, 3663, 3664
660, 530, 633, 104, 105, 3665, 2624, 138, 3666
661, 105, 104, 1682, 627, 138, 3667, 3668, 2080
662, 633, 530, 532, 514, 3665, 3669, 3670, 2088
663, 1773, 1657, 1289, 1056, 3671, 3672, 2686, 3673
664, 557, 558, 1778, 556, 3674, 3675, 3676, 3437
665, 1776, 1777, 1779, 1579, 3677, 3678, 3679, 3680
666, 1617, 1181, 1187, 1314, 3681, 2571, 3417, 3423
667, 419, 712, 627, 1682, 3682, 3630, 3668, 3443
668, 874, 1094, 1095, 1324, 3683, 2476, 3414, 3425
669, 654, 1064, 995, 1335, 3411, 3684, 2759, 3586
670, 1409, 553, 521, 1077, 3685, 2044, 2426, 2959
671, 1117, 1119, 1783, 1118, 3686, 3687, 3688, 2884
672, 1783, 635, 409, 1118, 3689, 2608, 2887, 3688
673, 977, 979, 1677, 714, 2335, 3690, 3691, 3692
674, 977, 1784, 998, 978, 3693, 3694, 3695, 2336
675, 1786, 1702, 1703, 1785, 3696, 3697, 3698, 3699
676, 1786, 1787, 1469, 1766, 3700, 3701, 3702, 3703
677, 1788, 1578, 1875, 1789, 3704, 3171, 3705, 3706
678, 1788, 1790, 1792, 1791, 3707, 3708, 3709, 3710
679, 1788, 1789, 1793, 1790, 3706, 3711, 3712, 3707
680, 719, 736, 1170, 720, 3713, 3714, 2508, 3715
681, 830, 831, 1286, 829, 2533, 3716, 2679, 3717
682, 493, 813, 810, 1609, 3718, 2888, 3719, 3565
683, 1568, 1569, 1115, 1567, 3720, 3721, 3722, 3723
684, 693, 699, 1243, 1242, 2560, 3322, 3208, 3398
685, 1794, 1589, 1550, 1606, 3724, 3196, 3725, 3726
686, 1165, 1162, 691, 1242, 3727, 3159, 3399, 3210
687, 683, 681, 1252, 1251, 2572, 3728, 3218, 3400
688, 1169, 1166, 686, 1251, 3729, 3162, 3401, 3220
689, 1794, 1606, 1605, 1795, 3726, 3730, 3731, 3732
690, 1796, 1603, 1111, 1302, 3733, 3221, 3734, 3735
691, 755, 754, 597, 1133, 2160, 3736, 3737, 3738
692, 831, 1195, 1531, 1196, 2532, 3052, 3739, 3740
693, 709, 561, 637, 579, 3741, 2351, 3742, 2154
694, 36, 1058, 545, 35, 2407, 2742, 2043, 75
695, 1797, 1255, 1256, 1718, 3743, 2621, 3744, 3745
696, 1799, 1304, 1283, 1646, 3746, 2702, 3747, 3748
697, 1456, 1457, 160, 159, 3749, 3750, 199, 3751
698, 904, 1074, 1036, 1809, 2422, 3752, 3753, 3754
699, 1065, 1067, 1810, 1066, 3755, 3756, 3757, 3374
700, 1811, 1719, 1256, 1363, 3758, 3759, 3760, 3761
701, 1105, 1812, 1656, 1655, 3762, 3763, 3353, 2975
702, 1674, 1813, 462, 1672, 3764, 3765, 3766, 3767
703, 1644, 1815, 1084, 1814, 3768, 3769, 3770, 3771
704, 651, 1149, 1816, 598, 3584, 3772, 3773, 2114
705, 614, 615, 107, 106, 3774, 2928, 140, 2079
706, 1636, 832, 857, 858, 3775, 3776, 2552, 3777
707, 1511, 1819, 625, 1583, 3778, 3779, 3780, 3230
708, 1380, 558, 559, 1292, 3781, 3782, 2863, 3783
709, 488, 1263, 1821, 1264, 2878, 3784, 3785, 2630
710, 728, 1244, 1117, 727, 2606, 3786, 2886, 2142
711, 1015, 1016, 592, 1014, 3787, 3788, 3789, 3790
712, 1129, 1117, 1244, 1128, 3791, 3786, 3792, 3793
713, 1462, 1679, 595, 1680, 3642, 3794, 3795, 3796
714, 594, 595, 1679, 596, 3797, 3794, 3798, 3799
715, 498, 802, 804, 496, 3013, 2196, 3800, 3801
716, 568, 1689, 1822, 1555, 3802, 3803, 3804, 3561
717, 938, 1020, 1822, 1689, 3805, 3806, 3803, 3807
718, 1504, 670, 1649, 769, 3523, 3808, 3809, 3810
719, 858, 1214, 1823, 1470, 2551, 3811, 3812, 3813
720, 1824, 1026, 1384, 1825, 3814, 3815, 3816, 3817
721, 1824, 964, 1028, 1026, 3818, 3819, 2368, 3814
722, 944, 168, 167, 1434, 2321, 207, 2920, 2933
723, 1827, 1342, 1725, 1826, 3820, 3821, 3822, 3823
724, 1831, 1829, 1832, 1830, 3824, 3825, 3826, 3827
725, 1831, 1833, 1726, 1600, 3828, 3829, 3830, 3831
726, 1831, 1830, 1834, 1833, 3827, 3832, 3833, 3828
727, 859, 162, 1210, 855, 2428, 3834, 2547, 3835
728, 865, 96, 95, 1496, 2275, 129, 3836, 3837
729, 716, 710, 578, 753, 2133, 2152, 3838, 3839
730, 593, 591, 1014, 592, 3840, 3841, 3789, 3842
731, 720, 721, 926, 719, 2507, 3843, 3844, 3715
732, 1377, 719, 926, 867, 3845, 3844, 3846, 3847
733, 762, 1154, 1332, 1654, 2915, 3848, 3849, 3850
734, 1146, 1179, 1178, 1345, 3851, 2521, 3075, 2764
735, 1631, 1633, 1836, 1835, 3852, 3853, 3854, 3855
736, 1379, 1388, 1252, 681, 2806, 3340, 3728, 3325
737, 695, 1093, 1837, 756, 3856, 3857, 3858, 3859
738, 1456, 1455, 1823, 1214, 3615, 3860, 3811, 3861
739, 1342, 1827, 1015, 1343, 3820, 3862, 3863, 2828
740, 1043, 1802, 1217, 1803, 3864, 3865, 3866, 3867
741, 704, 751, 750, 702, 3106, 3344, 3426, 3292
742, 1840, 1044, 1046, 1997, 3868, 2397, 3869, 3870
743, 1841, 742, 1842, 1754, 3871, 3872, 3873, 3874
744, 1575, 960, 1843, 1576, 3875, 3876, 3877, 3878
745, 1098, 1733, 883, 1096, 3879, 3880, 3881, 2469
746, 1839, 1838, 1035, 1505, 3882, 3883, 3012, 3884
747, 1353, 1459, 1849, 1092, 2924, 3885, 3886, 3435
748, 757, 1092, 1849, 758, 2811, 3886, 3887, 2164
749, 1850, 1634, 1852, 1776, 3888, 3889, 3890, 3891
750, 1855, 1853, 1856, 1854, 3892, 3893, 3894, 3895
751, 1551, 1001, 1858, 1297, 3896, 3897, 3898, 3095
752, 1398, 1195, 832, 1636, 3053, 2531, 3775, 3899
753, 1047, 1070, 1581, 1052, 2417, 3900, 3901, 2400
754, 1075, 991, 990, 1074, 3902, 3903, 3904, 2421
755, 101, 100, 730, 749, 134, 2594, 2158, 3905
756, 1400, 1008, 1862, 1740, 3590, 3906, 3907, 3908
757, 928, 929, 515, 517, 2303, 3609, 2035, 3909
758, 663, 667, 1796, 1302, 3910, 3911, 3735, 2699
759, 1042, 574, 422, 1291, 2693, 2052, 3912, 3913
760, 422, 420, 1239, 1291, 3575, 3914, 3915, 3912
761, 1659, 606, 1816, 1660, 3368, 3916, 3917, 3553
762, 1361, 1360, 1819, 1511, 3389, 3918, 3778, 3919
763, 852, 1029, 1322, 1204, 2941, 3612, 3377, 3920
764, 910, 757, 759, 1432, 3364, 2167, 3560, 3921
765, 990, 991, 1611, 988, 3903, 3232, 3922, 2452
766, 411, 634, 1247, 467, 2710, 3923, 3924, 2576
767, 1863, 1864, 1087, 1865, 3925, 3926, 3927, 3928
768, 1739, 1013, 175, 174, 3572, 3929, 214, 3930
769, 658, 1102, 1331, 1796, 3931, 2740, 3932, 3933
770, 489, 988, 1611, 490, 3934, 3922, 3935, 2020
771, 1623, 1348, 716, 753, 3276, 3547, 3839, 3936
772, 1812, 489, 491, 804, 3937, 2023, 3938, 3939
773, 900, 1464, 1463, 928, 3386, 2934, 3940, 3941
774, 781, 1653, 1867, 785, 3942, 3943, 3944, 3945
775, 805, 947, 801, 803, 3558, 3946, 2194, 2982
776, 1699, 1537, 1534, 1373, 3628, 3067, 3947, 3948
777, 1535, 1370, 1373, 1534, 3949, 2796, 3947, 3064
778, 536, 1545, 1377, 867, 3087, 3950, 3847, 3327
779, 1376, 1377, 1545, 1375, 3951, 3950, 3252, 2798
780, 710, 708, 827, 709, 2132, 3952, 3953, 2153
781, 1871, 1869, 1847, 1870, 3954, 3955, 3956, 3957
782, 695, 707, 1680, 1093, 2130, 3958, 3959, 3856
783, 509, 629, 12, 13, 2724, 3960, 52, 2098
784, 1394, 1495, 1515, 1395, 2997, 3961, 3962, 3963
785, 498, 496, 717, 497, 3801, 3964, 2723, 3005
786, 897, 1868, 1619, 780, 3965, 3966, 3542, 2439
787, 945, 1874, 170, 169, 3967, 3968, 209, 2320
788, 897, 433, 1482, 1868, 2893, 2992, 3969, 3965
789, 1370, 1374, 601, 1371, 3970, 3971, 3972, 2797
790, 885, 887, 1250, 1123, 3973, 3974, 3445, 3468
791, 1745, 1875, 1577, 1876, 3975, 3170, 3976, 3977
792, 1875, 1745, 1793, 1789, 3975, 3978, 3711, 3705
793, 1453, 1659, 1735, 1678, 3409, 3556, 3979, 3980
794, 524, 523, 826, 526, 3427, 3981, 2217, 3982
795, 1680, 595, 1837, 1093, 3795, 3983, 3857, 3959
796, 1109, 1108, 1302, 1111, 3033, 2700, 3734, 3216
797, 594, 597, 1837, 595, 3984, 3985, 3983, 3797
798, 850, 1389, 1381, 843, 3433, 2809, 3986, 2271
799, 1699, 1698, 669, 930, 3473, 3987, 2757, 3627
800, 922, 926, 721, 665, 3988, 3843, 3989, 2753
801, 928, 1463, 93, 94, 3940, 3990, 127, 2301
802, 965, 967, 1678, 968, 3991, 3992, 3993, 2338
803, 601, 602, 1100, 603, 3994, 3995, 3996, 3997
804, 1100, 1099, 660, 603, 2447, 3998, 3999, 3996
805, 1877, 968, 1678, 1735, 4000, 3993, 3979, 4001
806, 789, 901, 903, 916, 4002, 2387, 3626, 4003
807, 640, 641, 911, 642, 4004, 3352, 4005, 3633
808, 888, 516, 933, 889, 4006, 3608, 4007, 2918
809, 14, 15, 811, 510, 54, 4008, 3287, 2099
810, 508, 813, 493, 495, 2889, 3718, 2105, 3373
811, 561, 709, 827, 793, 3741, 3953, 3263, 3264
812, 1135, 1136, 21, 22, 4009, 4010, 61, 4011
813, 1456, 1214, 856, 1457, 3861, 2550, 4012, 3749
814, 1665, 1177, 1331, 1101, 4013, 4014, 2739, 3388
815, 568, 573, 938, 1689, 2050, 2313, 3807, 3802
816, 1017, 1555, 1822, 1637, 3562, 3804, 4015, 4016
817, 774, 948, 1881, 949, 4017, 4018, 4019, 4020
818, 661, 1301, 1881, 948, 2849, 4021, 4018, 2839
819, 1679, 642, 911, 596, 3641, 4005, 4022, 3798
820, 594, 596, 911, 834, 3799, 4022, 3351, 4023
821, 639, 636, 695, 756, 2095, 4024, 3859, 2162
822, 799, 800, 777, 776, 4025, 4026, 2173, 2209
823, 1653, 781, 762, 1654, 3942, 2179, 3850, 3349
824, 1807, 1038, 887, 1883, 4027, 2599, 4028, 4029
825, 630, 1187, 1186, 631, 3418, 2570, 2761, 2090
826, 648, 1095, 1073, 649, 3415, 2475, 2783, 4030
827, 1057, 1458, 1437, 1132, 3577, 4031, 2865, 2748
828, 676, 889, 933, 677, 3297, 4007, 4032, 2117
829, 1232, 1231, 1884, 1546, 2851, 4033, 4034, 3250
830, 479, 1734, 866, 864, 3539, 4035, 4036, 4037
831, 1273, 1885, 1886, 1804, 4038, 4039, 4040, 4041
832, 1224, 1223, 1887, 1535, 2832, 4042, 4043, 3063
833, 1160, 1276, 1277, 666, 3337, 2651, 3540, 4044
834, 768, 769, 1649, 770, 4045, 3809, 3469, 2837
835, 933, 96, 97, 677, 3097, 130, 2115, 4032
836, 1890, 1872, 1525, 1523, 4046, 4047, 3038, 4048
837, 1892, 1890, 1523, 1891, 4049, 4048, 4050, 4051
838, 1173, 1768, 1438, 1895, 4052, 4053, 4054, 4055
839, 626, 492, 1583, 625, 4056, 4057, 3780, 4058
840, 811, 15, 16, 812, 4008, 55, 2206, 4059
841, 1611, 1583, 492, 490, 3231, 4057, 2021, 3935
842, 426, 428, 1738, 523, 3431, 4060, 4061, 3430
843, 602, 604, 1897, 1819, 4062, 4063, 4064, 4065
844, 606, 612, 1898, 1816, 4066, 4067, 4068, 3916
845, 1737, 1738, 428, 900, 4069, 4060, 3384, 4070
846, 1408, 822, 821, 640, 4071, 4072, 4073, 3632
847, 821, 822, 777, 800, 4072, 4074, 4026, 4075
848, 1582, 641, 640, 821, 3310, 4004, 4073, 4076
849, 1845, 1844, 1870, 1847, 4077, 4078, 3956, 4079
850, 1902, 1574, 1755, 1903, 4080, 4081, 4082, 4083
851, 625, 583, 580, 626, 4084, 2057, 4085, 4058
852, 492, 626, 580, 718, 4056, 4085, 3610, 3460
853, 852, 1204, 1898, 1205, 3920, 4086, 4087, 3571
854, 430, 942, 946, 429, 4088, 4089, 4090, 2182
855, 821, 800, 799, 1582, 4075, 4025, 4091, 4076
856, 1764, 1904, 1673, 1905, 4092, 4093, 4094, 4095
857, 464, 1625, 1818, 465, 4096, 4097, 4098, 4099
858, 17, 18, 1818, 1625, 57, 4100, 4097, 3285
859, 1812, 1105, 988, 489, 3762, 2453, 3934, 3937
860, 1656, 1812, 804, 801, 3763, 3939, 2195, 4101
861, 557, 909, 943, 910, 3436, 4102, 3365, 4103
862, 1518, 1906, 1395, 1514, 4104, 4105, 4106, 3023
863, 1816, 1149, 1736, 1660, 3772, 4107, 3554, 3917
864, 769, 768, 948, 774, 4045, 2836, 4017, 4108
865, 949, 860, 532, 774, 2567, 4109, 4110, 4020
866, 521, 554, 936, 519, 2047, 2311, 2310, 2427
867, 652, 736, 1376, 653, 4111, 4112, 4113, 3588
868, 656, 1700, 1372, 657, 4114, 4115, 4116, 2109
869, 558, 557, 910, 559, 3674, 4103, 4117, 3782
870, 576, 559, 910, 1432, 2864, 4117, 3921, 3559
871, 1398, 1636, 858, 1470, 3899, 3777, 3813, 3305
872, 942, 909, 908, 946, 4118, 3439, 4119, 4089
873, 1398, 1399, 954, 1397, 3304, 4120, 4121, 3054
874, 522, 937, 946, 908, 3563, 4122, 4119, 4123
875, 1682, 104, 103, 1683, 3667, 137, 4124, 3548
876, 1436, 1466, 1518, 1517, 4125, 4126, 3022, 4127
877, 504, 599, 1898, 1204, 2065, 4128, 4086, 3379
878, 1819, 1360, 1100, 602, 3918, 2444, 3995, 4065
879, 1018, 1017, 1823, 1455, 3119, 4129, 3860, 4130
880, 1478, 1817, 465, 1818, 4131, 4132, 4098, 4133
881, 1554, 1568, 1622, 1757, 4134, 3273, 4135, 3623
882, 943, 844, 843, 1381, 4136, 2272, 3986, 3366
883, 917, 1037, 893, 895, 2390, 2730, 2283, 3557
884, 934, 623, 624, 935, 2767, 2077, 3066, 2628
885, 587, 1181, 842, 430, 2568, 4137, 4138, 2185
886, 1192, 1191, 1544, 1332, 2875, 4139, 4140, 4141
887, 1112, 1114, 1911, 1113, 4142, 4143, 4144, 2517
888, 581, 583, 1897, 1202, 2058, 4145, 4146, 3568
889, 1661, 1705, 1327, 1664, 4147, 4148, 4149, 3381
890, 1665, 1361, 1075, 906, 3387, 4150, 2423, 4151
891, 1456, 159, 158, 1116, 3751, 198, 2463, 3616
892, 762, 764, 102, 1288, 2178, 4152, 3229, 2914
893, 602, 601, 1692, 604, 3994, 4153, 4154, 4062
894, 606, 605, 1696, 612, 3367, 4155, 4156, 4066
895, 859, 855, 830, 829, 3835, 4157, 3717, 2678
896, 1626, 468, 1610, 1912, 4158, 4159, 4160, 4161
897, 653, 1376, 899, 655, 4113, 2801, 2289, 4162
898, 794, 886, 1124, 1820, 2281, 3466, 4163, 4164
899, 181, 1317, 1024, 182, 3007, 3649, 4165, 221
900, 95, 479, 864, 1496, 2018, 4037, 4166, 3836
901, 1276, 1648, 993, 950, 3336, 4167, 2353, 2652
902, 597, 754, 756, 1837, 3736, 2163, 3858, 3985
903, 1133, 597, 594, 1131, 3737, 3984, 4168, 2867
904, 1137, 1131, 594, 834, 2747, 4168, 4023, 3363
905, 1426, 1425, 1002, 1287, 4169, 4170, 2683, 2858
906, 1005, 1002, 1425, 890, 4171, 4170, 4172, 4173
907, 1372, 1371, 660, 657, 2794, 4174, 2110, 4116
908, 91, 92, 1465, 619, 125, 4175, 4176, 2790
909, 1463, 1465, 92, 93, 2937, 4175, 126, 3990
910, 524, 526, 828, 1616, 3982, 2216, 4177, 3489
911, 1116, 841, 1567, 1115, 2465, 4178, 3722, 3617
912, 841, 450, 839, 1567, 2948, 2261, 4179, 4178
913, 1671, 1914, 1171, 1915, 4180, 4181, 4182, 4183
914, 995, 1064, 967, 1065, 3684, 4184, 4185, 3376
915, 161, 160, 1457, 856, 200, 3750, 4012, 4186
916, 1625, 464, 468, 1626, 4096, 3148, 4158, 3286
917, 951, 437, 866, 952, 3058, 4187, 4188, 2862
918, 1568, 1554, 1018, 1569, 4134, 3116, 4189, 3720
919, 1115, 1569, 1018, 1455, 3721, 4189, 4130, 3614
920, 652, 1335, 993, 1648, 3587, 2758, 4167, 4190
921, 923, 1908, 432, 1532, 4191, 4192, 4193, 3056
922, 431, 437, 1532, 432, 4194, 3057, 4193, 2990
923, 1437, 1623, 753, 1913, 3278, 3936, 4195, 4196
924, 760, 758, 1849, 614, 2165, 3887, 4197, 3629
925, 31, 32, 1916, 799, 71, 4198, 4199, 2211
926, 1437, 1913, 755, 1133, 4196, 4200, 3738, 2866
927, 578, 579, 637, 577, 2155, 3742, 2097, 4201
928, 1378, 605, 607, 899, 4202, 3370, 2290, 2800
929, 578, 577, 1913, 753, 4201, 4203, 4195, 3838
930, 563, 826, 523, 1621, 3261, 3981, 4204, 4205
931, 1216, 1217, 1802, 1218, 4206, 3865, 4207, 4208
932, 902, 901, 789, 429, 2385, 4002, 2183, 4209
933, 565, 1218, 1802, 1638, 4210, 4207, 4211, 4212
934, 1757, 1622, 1920, 916, 4135, 4213, 4214, 3625
935, 1186, 1185, 1920, 1336, 4215, 4216, 4217, 2762
936, 1337, 1336, 1920, 1622, 3266, 4217, 4213, 3272
937, 505, 507, 860, 1153, 2736, 4218, 2566, 2495
938, 1193, 1519, 1501, 1188, 3027, 4219, 4220, 2528
939, 601, 603, 660, 1371, 3997, 3999, 4174, 3972
940, 850, 842, 1181, 1617, 2270, 4137, 3681, 3454
941, 1184, 1094, 874, 1709, 4221, 3683, 4222, 4223
942, 1616, 1709, 874, 873, 4224, 4222, 3458, 3490
943, 523, 1428, 1427, 1621, 4225, 2856, 4226, 4204
944, 736, 652, 1648, 1170, 4111, 4190, 3335, 3714
945, 523, 1738, 1426, 1428, 4061, 4227, 2857, 4225
946, 1700, 656, 662, 1650, 4114, 4228, 4229, 3475
947, 698, 1948, 1921, 697, 4230, 4231, 4232, 4233
948, 103, 1820, 1124, 1683, 4234, 4163, 3549, 4124
949, 1021, 1022, 1822, 1020, 2557, 4235, 3806, 2506
950, 1637, 1822, 1022, 1399, 4015, 4235, 4236, 3303
951, 1528, 1207, 1205, 1696, 3047, 3570, 4237, 4238
952, 1913, 577, 639, 755, 4203, 2096, 2161, 4200
953, 1527, 1203, 1202, 1692, 3569, 3566, 4239, 4240
954, 789, 916, 1920, 1185, 4003, 4214, 4216, 4241
955, 1897, 604, 1692, 1202, 4063, 4154, 4239, 4146
956, 1017, 1637, 1470, 1823, 4016, 3306, 3812, 4129
957, 996, 1066, 1922, 1019, 3375, 4242, 4243, 2365
958, 1898, 612, 1696, 1205, 4067, 4156, 4237, 4087
959, 614, 1849, 1459, 615, 4197, 3885, 2929, 3774
960, 908, 556, 1717, 522, 3438, 4244, 4245, 4123
961, 698, 697, 1925, 1924, 4233, 4246, 4247, 4248
962, 1217, 1219, 1246, 1245, 4249, 4250, 3620, 4251
963, 507, 514, 532, 860, 2089, 3670, 4109, 4218
964, 1193, 1156, 1153, 1215, 4252, 2496, 2565, 3028
965, 991, 1075, 1361, 1511, 3902, 4150, 3919, 3233
966, 1257, 1262, 1926, 1261, 4253, 4254, 4255, 3181
967, 653, 655, 898, 654, 4162, 2288, 3412, 3585
968, 1650, 662, 661, 770, 4229, 2850, 2838, 3472
969, 949, 1881, 1110, 1215, 4019, 4256, 3025, 2564
970, 1713, 1782, 1930, 1781, 4257, 4258, 4259, 4260
971, 1110, 1881, 1301, 1108, 4256, 4021, 2701, 3035
972, 99, 875, 676, 98, 2322, 3298, 2116, 132
973, 1270, 1303, 1069, 992, 2704, 4261, 2415, 2646
974, 1425, 1426, 1738, 1737, 4169, 4227, 4069, 4262
975, 1796, 667, 656, 658, 3911, 4263, 2112, 3933
976, 583, 625, 1819, 1897, 4084, 3779, 4064, 4145
977, 598, 1816, 1898, 599, 3773, 4068, 4128, 2064
978, 1425, 518, 516, 890, 4264, 2033, 4265, 4172
979, 1928, 851, 783, 797, 4266, 4267, 4268, 4269
980, 784, 782, 795, 783, 4270, 4271, 4272, 4273
981, 796, 797, 783, 795, 4274, 4268, 4272, 4275
982, 1094, 1184, 708, 711, 4221, 4276, 2135, 2473
983, 663, 662, 656, 667, 2848, 4228, 4263, 3910
984, 429, 946, 937, 902, 4090, 4122, 2308, 4209
985, 1906, 591, 593, 1909, 4277, 3840, 4278, 4279
986, 613, 1933, 1909, 593, 4280, 4281, 4278, 4282
987, 1906, 1518, 1014, 591, 4104, 4283, 3841, 4277
988, 781, 785, 876, 763, 3945, 2477, 4284, 2180
989, 518, 900, 928, 517, 4285, 3941, 3909, 2034
990, 101, 763, 876, 100, 4286, 4284, 2323, 134
991, 530, 531, 1935, 532, 4287, 4288, 4289, 3669
992, 1015, 1014, 1518, 1466, 3790, 4283, 4126, 4290
993, 828, 1184, 1709, 1616, 4291, 4223, 4224, 4177
994, 1184, 828, 827, 708, 4291, 2215, 3952, 4276
995, 799, 1916, 407, 1582, 4199, 4292, 3308, 4091
996, 801, 947, 1586, 1656, 3946, 3179, 3354, 4101
997, 842, 844, 942, 430, 2269, 4293, 4088, 4138
998, 407, 1916, 32, 33, 4292, 4198, 72, 2006
999, 778, 1619, 1618, 1134, 3543, 3507, 3476, 4294
1000, 431, 865, 1496, 864, 2894, 3837, 4166, 4295
1001, 909, 942, 844, 943, 4118, 4293, 4136, 4102
1002, 1484, 1329, 1868, 1482, 3253, 4296, 3969, 4297
1003, 543, 1619, 1868, 1329, 3506, 3966, 4296, 2082
1004, 1186, 587, 789, 1185, 2569, 2184, 4241, 4215
1005, 1395, 1396, 1937, 1394, 4298, 4299, 4300, 3963
1006, 1691, 1430, 1429, 1690, 4301, 4302, 4303, 4304
1007, 1120, 1135, 22, 23, 4305, 4011, 62, 2468
1008, 1801, 1800, 1791, 1792, 4306, 4307, 3709, 4308
1009, 1801, 1799, 1647, 1800, 4309, 4310, 4311, 4306
1010, 1112, 1658, 1630, 1114, 3358, 4312, 4313, 4142
1011, 1627, 527, 1385, 1386, 3448, 4314, 4315, 4316
1012, 1627, 1386, 1387, 1628, 4316, 4317, 4318, 4319
1013, 417, 1114, 1630, 1068, 4320, 4313, 4321, 2411
1014, 1670, 1629, 1630, 1658, 4322, 4323, 4312, 4324
1015, 1640, 1591, 1592, 1938, 4325, 3200, 4326, 4327
1016, 1285, 90, 91, 620, 2968, 124, 2793, 2949
1017, 1447, 110, 109, 622, 2963, 143, 2072, 2896
1018, 1275, 1176, 1497, 1274, 4328, 4329, 2994, 4330
1019, 1559, 1558, 1564, 1561, 4331, 3127, 4332, 4333
1020, 1806, 1126, 1039, 1807, 4334, 4335, 4336, 4337
1021, 1939, 1781, 1856, 1853, 4338, 4339, 3893, 4340
1022, 1364, 1363, 1940, 1366, 4341, 4342, 4343, 4344
1023, 1806, 1808, 1125, 1126, 4345, 4346, 4347, 4334
1024, 1886, 1693, 1942, 1804, 4348, 4349, 4350, 4040
1025, 735, 1718, 1256, 1719, 4351, 3744, 3759, 4352
1026, 1558, 1560, 1383, 1538, 4353, 4354, 4355, 3128
1027, 1431, 1474, 1506, 1034, 4356, 4357, 3010, 2974
1028, 1575, 1576, 1755, 1574, 3878, 4358, 4081, 4359
1029, 418, 1068, 1385, 525, 2412, 4360, 4361, 3332
1030, 1943, 748, 1530, 1587, 4362, 4363, 4364, 4365
1031, 529, 525, 1385, 527, 3333, 4361, 4314, 4366
1032, 832, 830, 855, 857, 2530, 4157, 2546, 3776
1033, 1901, 1945, 1871, 1870, 4367, 4368, 3957, 4369
1034, 1691, 1531, 953, 1430, 4370, 4371, 4372, 4301
1035, 613, 1946, 1598, 1597, 4373, 4374, 4375, 4376
1036, 1403, 1405, 1491, 1404, 4377, 4378, 2986, 4379
1037, 1926, 645, 728, 1261, 4380, 2607, 3182, 4255
1038, 1921, 1359, 1355, 697, 4381, 2786, 4382, 4232
1039, 1923, 1855, 1854, 1104, 4383, 3895, 4384, 4385
1040, 1719, 1811, 1298, 1300, 3758, 4386, 4387, 4388
1041, 1392, 1944, 1298, 1811, 4389, 4390, 4386, 4391
1042, 678, 1565, 1080, 1620, 4392, 4393, 4394, 4395
1043, 1516, 1514, 1395, 1515, 3024, 4106, 3962, 3396
1044, 1546, 1884, 1378, 1375, 4034, 4396, 2799, 3251
1045, 1485, 1486, 1613, 1951, 4397, 3237, 4398, 4399
1046, 1535, 1887, 1374, 1370, 4043, 4400, 3970, 3949
1047, 1467, 1404, 1493, 1499, 4401, 2985, 3654, 4402
1048, 1633, 1931, 1929, 1836, 4403, 4404, 4405, 3853
1049, 1134, 99, 98, 778, 2595, 132, 4406, 4294
1050, 1450, 1585, 1556, 1451, 3421, 4407, 3120, 2916
1051, 1311, 1761, 1925, 1968, 4408, 4409, 4410, 4411
1052, 474, 1328, 1664, 1327, 2734, 4412, 4149, 4413
1053, 1584, 1596, 1307, 1556, 4414, 4415, 3121, 4416
1054, 1520, 1522, 1681, 1893, 3041, 4417, 4418, 4419
1055, 763, 101, 102, 764, 4286, 135, 4152, 2181
1056, 1418, 1419, 1236, 1237, 2844, 3450, 4420, 3071
1057, 1343, 1436, 1888, 1407, 4421, 4422, 4423, 2829
1058, 1268, 1269, 1752, 1258, 4424, 4425, 3602, 2643
1059, 1876, 1577, 1579, 1779, 3976, 3169, 3679, 4426
1060, 734, 737, 1937, 1396, 2146, 4427, 4299, 4428
1061, 1704, 1882, 1766, 1765, 4429, 4430, 3656, 4431
1062, 163, 1078, 1294, 164, 2430, 4432, 4433, 203
1063, 1293, 165, 164, 1294, 4434, 204, 4433, 2694
1064, 1191, 1440, 1542, 1544, 2874, 4435, 3078, 4139
1065, 877, 880, 1542, 878, 4436, 3079, 4437, 4438
1066, 891, 415, 1315, 892, 4439, 2714, 3015, 4440
1067, 743, 744, 1842, 742, 4441, 4442, 3872, 4443
1068, 1844, 1845, 1836, 1846, 4077, 4444, 4445, 4446
1069, 1393, 1233, 1956, 1391, 4447, 4448, 4449, 2814
1070, 856, 1210, 162, 161, 2548, 3834, 201, 4186
1071, 1872, 1759, 1358, 1873, 4450, 3636, 4451, 4452
1072, 420, 1250, 887, 1239, 2617, 3974, 2598, 3914
1073, 1749, 1949, 960, 1575, 4453, 4454, 3875, 4455
1074, 1591, 1640, 1957, 1641, 4325, 4456, 4457, 3592
1075, 1041, 1104, 1854, 1103, 4458, 4384, 4459, 4460
1076, 1586, 894, 1438, 1439, 3178, 4461, 2870, 3355
1077, 1001, 1010, 1690, 1009, 4462, 4463, 4464, 2358
1078, 1429, 1712, 1009, 1690, 4465, 3495, 4464, 4303
1079, 1218, 565, 1140, 1143, 4210, 4466, 2481, 4467
1080, 566, 564, 1140, 565, 4468, 4469, 4466, 4470
1081, 1501, 1500, 1607, 1608, 4471, 4472, 4473, 4474
1082, 531, 530, 105, 106, 4287, 3666, 139, 3622
1083, 480, 1206, 1049, 483, 2776, 4475, 4476, 4477
1084, 1050, 1049, 1206, 1053, 4478, 4475, 2927, 3645
1085, 1587, 1498, 1936, 1943, 4479, 4480, 4481, 4365
1086, 1414, 1490, 1762, 1481, 2972, 4482, 4483, 3207
1087, 1865, 1866, 1744, 1863, 4484, 4485, 4486, 3928
1088, 1864, 1279, 1642, 1814, 4487, 4488, 4489, 4490
1089, 1278, 1282, 1642, 1279, 4491, 3318, 4488, 4492
1090, 1863, 1744, 1645, 1280, 4486, 4493, 4494, 4495
1091, 1327, 1325, 439, 1959, 4496, 4497, 4498, 4499
1092, 1743, 1647, 1645, 1744, 4500, 4501, 4493, 4502
1093, 1279, 1280, 1645, 1278, 4503, 4494, 4504, 4492
1094, 778, 98, 97, 779, 4406, 131, 2274, 3544
1095, 1710, 1769, 1768, 1173, 3661, 3660, 4052, 3492
1096, 1431, 1438, 1768, 1474, 2871, 4053, 3659, 4356
1097, 746, 747, 941, 745, 4505, 2317, 4506, 4507
1098, 1746, 1667, 1666, 1775, 3599, 3390, 4508, 4509
1099, 636, 1069, 696, 695, 2416, 4510, 2131, 4024
1100, 1468, 643, 1502, 1467, 4511, 4512, 4513, 4514
1101, 1597, 1595, 1933, 613, 4515, 4516, 4280, 4376
1102, 1562, 1594, 1933, 1595, 4517, 4518, 4516, 4519
1103, 904, 1369, 1720, 905, 4520, 4521, 4522, 2291
1104, 560, 562, 1282, 1272, 2349, 3319, 4523, 2663
1105, 415, 891, 1230, 1365, 4439, 2580, 4524, 4525
1106, 552, 1960, 1199, 1961, 4526, 4527, 4528, 4529
1107, 1516, 1962, 1894, 1517, 3395, 4530, 4531, 3021
1108, 1879, 1880, 1267, 1878, 4532, 4533, 4534, 4535
1109, 998, 1784, 825, 824, 3694, 4536, 4537, 2553
1110, 1129, 1128, 1963, 1130, 3793, 4538, 4539, 4540
1111, 1802, 1043, 1045, 1638, 3864, 2395, 4541, 4211
1112, 769, 1935, 531, 1504, 4542, 4288, 3621, 3810
1113, 1727, 1728, 976, 978, 4543, 4544, 2333, 4545
1114, 1774, 1056, 963, 1949, 4546, 2685, 4547, 4548
1115, 961, 960, 1949, 963, 4549, 4454, 4547, 2405
1116, 532, 1935, 769, 774, 4289, 4542, 4108, 4110
1117, 414, 412, 1965, 413, 4550, 4551, 4552, 2712
1118, 1067, 1065, 967, 965, 3755, 4185, 3991, 4553
1119, 1135, 1120, 1965, 412, 4305, 4554, 4551, 4555
1120, 1805, 1274, 1273, 1804, 4556, 2993, 4041, 4557
1121, 1614, 1571, 1570, 1615, 4558, 3133, 3480, 3517
1122, 1796, 1331, 1604, 1603, 3932, 4559, 3222, 3733
1123, 1183, 782, 1548, 1896, 4560, 4561, 4562, 4563
1124, 1135, 412, 1966, 1136, 4555, 4564, 4565, 4009
1125, 1356, 1433, 1760, 1053, 2931, 4566, 3646, 2926
1126, 1070, 1610, 468, 1581, 3228, 4159, 3147, 3900
1127, 1000, 1760, 1433, 1435, 3647, 4566, 4567, 4568
1128, 783, 851, 1509, 784, 4267, 3018, 4569, 4273
1129, 1508, 1686, 784, 1509, 3452, 4570, 4569, 3017
1130, 1257, 921, 1676, 1262, 3184, 4571, 4572, 4253
1131, 1926, 1502, 643, 645, 4573, 4512, 2101, 4380
1132, 1084, 1004, 1003, 1088, 4574, 2681, 2542, 4575
1133, 485, 1289, 1657, 1180, 2689, 3672, 3356, 3302
1134, 1702, 1701, 1473, 1471, 4576, 4577, 2945, 4578
1135, 1020, 938, 554, 555, 3805, 2312, 2046, 2503
1136, 1702, 1471, 1472, 1703, 4578, 2944, 4579, 3697
1137, 103, 102, 794, 1820, 136, 4580, 4164, 4234
1138, 1011, 1739, 1740, 1862, 3573, 4581, 3907, 4582
1139, 1721, 1703, 1472, 1722, 4583, 4579, 4584, 4585
1140, 1621, 1643, 562, 563, 4586, 3320, 3265, 4205
1141, 881, 882, 1732, 879, 4587, 3527, 4588, 4589
1142, 1742, 738, 740, 1593, 4590, 2151, 3202, 3594
1143, 1851, 1592, 740, 741, 4591, 3203, 2150, 4592
1144, 679, 678, 1620, 1151, 2118, 4395, 4593, 3520
1145, 1064, 1453, 1678, 967, 3413, 3980, 3992, 4184
1146, 1752, 1269, 1304, 1953, 4425, 4594, 4595, 4596
1147, 1303, 1304, 1269, 1268, 2703, 4594, 4424, 4597
1148, 1888, 1889, 1638, 1045, 4598, 4599, 4541, 4600
1149, 1931, 1932, 1510, 1929, 4601, 4602, 4603, 4404
1150, 1928, 1929, 1510, 851, 4604, 4603, 3019, 4266
1151, 1928, 797, 798, 1846, 4269, 4605, 4606, 4607
1152, 1888, 1894, 566, 1889, 4608, 4609, 4610, 4598
1153, 1021, 1159, 1485, 997, 2505, 4611, 4612, 2555
1154, 565, 1638, 1889, 566, 4212, 4599, 4610, 4470
1155, 1041, 1103, 1290, 1042, 4460, 4613, 2690, 2392
1156, 1292, 1290, 1103, 1380, 2691, 4613, 4614, 3783
1157, 1008, 1007, 1707, 1862, 2820, 3486, 4615, 3906
1158, 1223, 1527, 1692, 1887, 3046, 4240, 4616, 4042
1159, 1706, 1011, 1862, 1707, 4617, 4582, 4615, 3485
1160, 1829, 1359, 1921, 1832, 4618, 4381, 4619, 3825
1161, 1076, 1714, 1612, 1410, 3508, 3505, 3238, 4620
1162, 1440, 1190, 1189, 1441, 2873, 2526, 4621, 2883
1163, 1571, 1613, 1612, 1573, 4622, 3239, 3504, 3134
1164, 1587, 1530, 1352, 1415, 4364, 3050, 2841, 4623
1165, 1677, 979, 1491, 1405, 3690, 4624, 4378, 3405
1166, 1621, 1427, 1644, 1643, 4226, 4625, 4626, 4586
1167, 1231, 1528, 1696, 1884, 3048, 4238, 4627, 4033
1168, 1001, 1551, 1910, 1010, 3896, 4628, 4629, 4462
1169, 1587, 1415, 1417, 1498, 4623, 2840, 2999, 4479
1170, 1672, 1671, 1915, 1673, 4630, 4183, 4631, 4632
1171, 1765, 1729, 1615, 1704, 4633, 3518, 3479, 4431
1172, 1467, 1499, 1766, 1469, 4402, 3653, 3702, 4634
1173, 1066, 1810, 1917, 1922, 3757, 4635, 4636, 4242
1174, 673, 870, 869, 671, 4637, 2279, 3455, 2171
1175, 1896, 1771, 1330, 1497, 4638, 4639, 2995, 4640
1176, 920, 1211, 1711, 918, 4641, 4642, 4643, 4644
1177, 1233, 1393, 1899, 1229, 4447, 4645, 4646, 2582
1178, 1298, 939, 733, 1300, 4647, 4648, 4649, 4387
1179, 1229, 1899, 1489, 1234, 4646, 4650, 4651, 3314
1180, 1488, 1489, 1319, 1318, 4652, 4653, 4654, 4655
1181, 1653, 880, 1584, 1867, 3348, 4656, 4657, 3943
1182, 1556, 1585, 1867, 1584, 4407, 4658, 4657, 4416
1183, 1040, 1038, 1807, 1039, 2600, 4027, 4336, 2394
1184, 1421, 1780, 1781, 1939, 4659, 4660, 4338, 4661
1185, 1429, 713, 715, 1712, 2861, 2136, 4662, 4465
1186, 1937, 1936, 1498, 1394, 4663, 4480, 2998, 4300
1187, 1175, 1973, 1326, 1974, 4664, 4665, 4666, 4667
1188, 1937, 737, 940, 1936, 4427, 4668, 4669, 4663
1189, 1429, 1430, 953, 955, 4302, 4372, 2327, 2859
1190, 1688, 1967, 1883, 884, 4670, 4671, 4672, 4673
1191, 885, 884, 1883, 887, 4674, 4672, 4028, 3973
1192, 1953, 1801, 1969, 1753, 4675, 4676, 4677, 4678
1193, 477, 1121, 24, 25, 4679, 2466, 64, 4680
1194, 1852, 1835, 1836, 1845, 4681, 3854, 4444, 4682
1195, 1334, 956, 1975, 1333, 4683, 4684, 4685, 4686
1196, 957, 958, 1975, 956, 2819, 4687, 4684, 4688
1197, 1510, 1932, 1236, 1508, 4602, 4689, 3453, 3020
1198, 954, 1399, 1022, 823, 4120, 4236, 2559, 4690
1199, 1433, 1434, 1454, 1435, 2930, 2922, 4691, 4567
1200, 551, 1333, 1977, 552, 4692, 4693, 4694, 4695
1201, 634, 1212, 1977, 1247, 2610, 4696, 4697, 3923
1202, 1900, 1899, 1393, 1390, 4698, 4645, 2813, 4699
1203, 1063, 1059, 1113, 1911, 2769, 4700, 4144, 4701
1204, 1425, 1737, 900, 518, 4262, 4070, 4285, 4264
1205, 1811, 1362, 1390, 1392, 4702, 4703, 2812, 4391
1206, 629, 1033, 11, 12, 3652, 2382, 51, 3960
1207, 1910, 1691, 1690, 1010, 4704, 4304, 4463, 4629
1208, 483, 484, 1978, 480, 3001, 4705, 4706, 4477
1209, 785, 1867, 1585, 987, 3944, 4658, 3420, 2478
1210, 1023, 183, 182, 1024, 2371, 222, 4165, 3650
1211, 888, 1451, 1208, 1005, 2917, 3123, 4707, 4708
1212, 1645, 1646, 1283, 1278, 4709, 3747, 4710, 4504
1213, 1645, 1647, 1799, 1646, 4501, 4310, 3748, 4709
1214, 1981, 1979, 1956, 1980, 4711, 4712, 4713, 4714
1215, 866, 1734, 1277, 952, 4035, 3538, 2650, 4188
1216, 1002, 1005, 1208, 1003, 4171, 4707, 2543, 2684
1217, 1032, 1982, 1481, 1762, 4715, 4716, 4483, 4717
1218, 1643, 1644, 1814, 1642, 4626, 3771, 4489, 3321
1219, 1260, 1055, 1054, 1264, 2635, 2403, 4718, 4719
1220, 1719, 1300, 733, 735, 4388, 4649, 2144, 4352
1221, 939, 940, 737, 733, 2315, 4668, 2145, 4648
1222, 1571, 1614, 1951, 1613, 4558, 4720, 4398, 4622
1223, 1928, 1846, 1836, 1929, 4607, 4445, 4405, 4604
1224, 1245, 646, 1983, 1756, 3619, 4721, 4722, 4723
1225, 1803, 1756, 1983, 1955, 4724, 4722, 4725, 4726
1226, 775, 1350, 1031, 1848, 2175, 4727, 4728, 4729
1227, 1724, 1601, 1600, 1726, 4730, 3214, 3830, 3513
1228, 1467, 1469, 1983, 1468, 4634, 4731, 4732, 4514
1229, 1781, 1780, 1573, 1713, 4660, 4733, 3503, 4260
1230, 1983, 646, 643, 1468, 4721, 2102, 4511, 4732
1231, 1629, 1670, 1775, 1666, 4322, 4734, 4508, 4735
1232, 1657, 1773, 1670, 1658, 3671, 4736, 4324, 3357
1233, 471, 1171, 1914, 1716, 4737, 4181, 4738, 4739
1234, 1513, 1716, 1914, 1671, 4740, 4738, 4180, 4741
1235, 1565, 1253, 1561, 1564, 4742, 4743, 4332, 4744
1236, 1810, 1067, 1824, 1919, 3756, 4745, 4746, 4747
1237, 1342, 1828, 1723, 1725, 4748, 4749, 3515, 3821
1238, 1369, 1857, 1406, 1368, 4750, 4751, 2825, 4752
1239, 1711, 1712, 715, 918, 3496, 4662, 4753, 4643
1240, 1869, 1777, 1776, 1852, 4754, 3677, 3890, 4755
1241, 1373, 1372, 1700, 1699, 2795, 4115, 3474, 3948
1242, 1377, 1376, 736, 719, 3951, 4112, 3713, 3845
1243, 1000, 999, 1984, 1050, 2360, 4756, 4757, 3644
1244, 1125, 1923, 1104, 1126, 4758, 4385, 4759, 4347
1245, 1049, 1050, 1984, 1051, 4478, 4757, 4760, 4761
1246, 1801, 1953, 1304, 1799, 4675, 4595, 3746, 4309
1247, 1765, 1493, 1492, 1729, 3655, 2984, 4762, 4633
1248, 979, 976, 1492, 1491, 2334, 4763, 2983, 4624
1249, 1237, 969, 1985, 1950, 4764, 4765, 4766, 4767
1250, 1606, 1607, 1985, 1605, 4768, 4769, 4770, 3730
1251, 971, 1605, 1985, 969, 4771, 4770, 4765, 2332
1252, 1500, 1950, 1985, 1607, 4772, 4766, 4769, 4472
1253, 1001, 1000, 1435, 1858, 2357, 4568, 4773, 3897
1254, 1297, 1858, 1435, 1295, 3898, 4773, 4774, 2696
1255, 1199, 1198, 1174, 1986, 2537, 4775, 4776, 4777
1256, 1282, 1278, 1283, 1272, 4491, 4710, 2664, 4523
1257, 1649, 670, 669, 1698, 3808, 3522, 3987, 3470
1258, 1160, 666, 665, 721, 4044, 3533, 3989, 2510
1259, 674, 630, 632, 610, 3419, 2093, 3164, 3307
1260, 617, 703, 648, 618, 3317, 3416, 4778, 2908
1261, 1449, 618, 648, 649, 3243, 4778, 4030, 3175
1262, 738, 1742, 1866, 1859, 4590, 4779, 4780, 4781
1263, 1641, 1741, 1866, 1742, 4782, 4783, 4779, 3593
1264, 971, 972, 1632, 1127, 2331, 4784, 4785, 4786
1265, 1801, 1792, 1903, 1969, 4308, 4787, 4788, 4676
1266, 847, 848, 1351, 1624, 2267, 3269, 3280, 4789
1267, 1631, 1632, 972, 1633, 3361, 4784, 4790, 3852
1268, 1829, 1831, 1600, 1602, 3824, 3831, 3213, 4791
1269, 1479, 1478, 19, 20, 4792, 4793, 59, 4794
1270, 839, 840, 1337, 1580, 4795, 3267, 3275, 4796
1271, 1406, 1857, 1838, 1839, 4751, 4797, 3882, 4798
1272, 1479, 1480, 1817, 1478, 4799, 4800, 4131, 4792
1273, 1797, 1561, 1253, 1255, 4801, 4743, 2622, 3743
1274, 1421, 1572, 1573, 1780, 4802, 3135, 4733, 4659
1275, 1501, 1147, 1144, 1500, 4803, 2485, 4804, 4471
1276, 999, 1711, 1211, 1984, 3497, 4642, 4805, 4756
1277, 1148, 1950, 1500, 1144, 4806, 4772, 4804, 2766
1278, 1724, 1723, 1722, 1526, 3512, 4807, 4808, 4809
1279, 1140, 564, 1221, 1141, 4469, 4810, 4811, 4812
1280, 922, 534, 867, 926, 3186, 3328, 3846, 3988
1281, 1220, 1090, 1141, 1221, 4813, 4814, 4811, 4815
1282, 1724, 1526, 1524, 1601, 4809, 4816, 4817, 4730
1283, 1599, 1601, 1524, 1525, 3211, 4817, 3039, 4818
1284, 1762, 1490, 1879, 1764, 4482, 4819, 4820, 4821
1285, 635, 1213, 1960, 1212, 4822, 4823, 4824, 2609
1286, 1411, 744, 1879, 1490, 4825, 4826, 4819, 2971
1287, 1977, 1212, 1960, 552, 4696, 4824, 4526, 4694
1288, 1879, 744, 743, 1880, 4826, 4441, 4827, 4532
1289, 1262, 1403, 1502, 1926, 4828, 4829, 4573, 4254
1290, 1494, 1880, 743, 1971, 4830, 4827, 4831, 4832
1291, 1166, 1169, 1232, 1167, 3729, 2852, 3089, 3115
1292, 1249, 1476, 1588, 1477, 4833, 3190, 4834, 2953
1293, 1162, 1165, 1224, 1163, 3727, 2833, 3062, 3111
1294, 1390, 1362, 1364, 1900, 4703, 4835, 4836, 4699
1295, 690, 1048, 1364, 1366, 2402, 4837, 4344, 4838
1296, 1130, 1963, 1477, 1588, 4539, 4839, 4834, 3189
1297, 882, 881, 1589, 883, 4587, 4840, 4841, 4842
1298, 1096, 883, 1589, 1794, 3881, 4841, 3724, 4843
1299, 784, 1686, 1340, 1549, 4570, 4844, 4845, 4846
1300, 1339, 1341, 1549, 1340, 4847, 3091, 4845, 4848
1301, 1419, 1338, 1340, 1686, 2847, 4849, 4844, 3451
1302, 1015, 1827, 1834, 1016, 3862, 4850, 4851, 3787
1303, 440, 1194, 1129, 1130, 4852, 4853, 4540, 3192
1304, 1854, 1856, 1380, 1103, 3894, 4854, 4614, 4459
1305, 1860, 1865, 1087, 1086, 4855, 3927, 2441, 4856
1306, 1032, 973, 975, 1031, 4857, 4858, 4859, 4860
1307, 974, 590, 589, 975, 4861, 3082, 4862, 4863
1308, 1848, 1031, 975, 589, 4728, 4859, 4862, 4864
1309, 1489, 1488, 1639, 1234, 4652, 4865, 3315, 4651
1310, 1480, 1479, 1988, 1958, 4799, 4866, 4867, 4868
1311, 20, 21, 1988, 1479, 60, 4869, 4866, 4794
1312, 1346, 1347, 1989, 1089, 2804, 4870, 4871, 3031
1313, 920, 918, 715, 919, 4644, 4753, 4872, 4873
1314, 1233, 1990, 985, 1956, 4874, 4875, 4876, 4448
1315, 511, 512, 1991, 513, 4877, 4878, 4879, 3301
1316, 21, 1136, 1966, 1988, 4010, 4565, 4880, 4869
1317, 1513, 1452, 1964, 1716, 3545, 4881, 4882, 4740
1318, 1247, 1977, 1333, 1975, 4697, 4693, 4685, 4883
1319, 1936, 940, 747, 1943, 4669, 2318, 4884, 4481
1320, 746, 748, 1943, 747, 2588, 4362, 4884, 4505
1321, 1984, 1211, 1107, 1051, 4805, 4885, 4886, 4760
1322, 475, 528, 1994, 540, 3595, 4887, 4888, 2036
1323, 935, 1107, 1211, 920, 2456, 4885, 4641, 2625
1324, 1572, 1473, 1701, 1570, 4889, 4577, 3481, 3136
1325, 1921, 1948, 1995, 1598, 4231, 4890, 4891, 4892
1326, 1575, 1574, 1902, 1749, 4359, 4080, 4893, 4455
1327, 1194, 1119, 1117, 1129, 4894, 3686, 3791, 4853
1328, 788, 786, 1082, 787, 2494, 4895, 4896, 4897
1329, 542, 628, 1967, 1688, 2084, 4898, 4670, 3484
1330, 1413, 1460, 707, 1461, 3579, 4899, 4900, 4901
1331, 1640, 1938, 1579, 1578, 4327, 4902, 3172, 4903
1332, 1462, 1680, 707, 1460, 3796, 3958, 4899, 3582
1333, 1437, 1458, 847, 1624, 4031, 3578, 4789, 3279
1334, 1800, 1647, 1743, 1791, 4311, 4500, 4904, 4307
1335, 1641, 1957, 1743, 1741, 4457, 4905, 4906, 4782
1336, 1568, 1567, 839, 1580, 3723, 4179, 4796, 3274
1337, 1851, 1850, 1938, 1592, 4907, 4908, 4326, 4591
1338, 804, 491, 717, 496, 3938, 3459, 3964, 3800
1339, 1952, 1885, 1273, 1330, 4909, 4038, 2996, 4910
1340, 1327, 1705, 1998, 1325, 4148, 4911, 4912, 4496
1341, 1958, 1488, 1318, 1480, 4913, 4655, 4914, 4868
1342, 1412, 1413, 1992, 1411, 3580, 4915, 4916, 2970
1343, 1842, 744, 1411, 1992, 4442, 4825, 4916, 4917
1344, 1274, 1805, 1986, 1275, 4556, 4918, 4919, 4330
1345, 1762, 1764, 1905, 1763, 4821, 4095, 4920, 4921
1346, 1915, 1970, 1905, 1673, 4922, 4923, 4094, 4631
1347, 1821, 1263, 447, 2000, 3784, 2877, 4924, 4925
1348, 1829, 1602, 1358, 1359, 4791, 4926, 2787, 4618
1349, 1217, 1216, 1475, 1219, 4206, 4927, 4928, 4249
1350, 1241, 863, 1475, 1216, 3499, 2955, 4927, 4929
1351, 797, 796, 1661, 798, 4274, 4930, 4931, 4605
1352, 1246, 1219, 1475, 1477, 4250, 4928, 2954, 4932
1353, 1630, 1629, 1387, 1386, 4323, 4933, 4317, 4934
1354, 1952, 1506, 1886, 1885, 4935, 4936, 4039, 4909
1355, 1630, 1386, 1385, 1068, 4934, 4315, 4360, 4321
1356, 1670, 1774, 1747, 1775, 4937, 4938, 4939, 4734
1357, 1949, 1749, 1747, 1774, 4453, 4940, 4938, 4548
1358, 1748, 1746, 1775, 1747, 4941, 4509, 4939, 4942
1359, 1013, 1037, 176, 175, 2731, 2389, 215, 3929
1360, 1401, 1400, 172, 171, 3591, 4943, 211, 4944
1361, 419, 421, 760, 712, 2615, 3550, 3631, 3682
1362, 443, 773, 1155, 848, 3331, 3242, 3270, 2266
1363, 839, 452, 767, 840, 2260, 3330, 4945, 4795
1364, 638, 840, 767, 1161, 3268, 4945, 3235, 3167
1365, 1847, 1869, 1852, 1845, 3955, 4755, 4682, 4079
1366, 1559, 1798, 1933, 1594, 4946, 4947, 4518, 4948
1367, 173, 172, 1400, 1740, 212, 4943, 3908, 4949
1368, 513, 1991, 1227, 1281, 4879, 4950, 4951, 2655
1369, 522, 1717, 1076, 520, 4245, 3509, 4952, 3564
1370, 1478, 1818, 18, 19, 4133, 4100, 58, 4793
1371, 1759, 761, 672, 1758, 4953, 2169, 3638, 3637
1372, 1384, 698, 1924, 1825, 4954, 4248, 4955, 3816
1373, 1542, 1440, 1443, 878, 4435, 2882, 4956, 4437
1374, 881, 879, 878, 1443, 4589, 4957, 4956, 4958
1375, 1824, 1825, 1924, 1919, 3817, 4955, 4959, 4746
1376, 924, 927, 1308, 925, 4960, 4961, 4962, 4963
1377, 1925, 1918, 1919, 1924, 4964, 4965, 4959, 4247
1378, 1917, 1918, 1925, 1761, 4966, 4964, 4409, 4967
1379, 906, 907, 1177, 1665, 2293, 2519, 4013, 4151
1380, 659, 1151, 1620, 786, 3283, 4593, 4968, 2493
1381, 1968, 1355, 1354, 1954, 4969, 2789, 4970, 4971
1382, 1312, 1954, 1354, 1758, 4972, 4970, 3635, 3640
1383, 1082, 786, 1620, 1080, 4895, 4968, 4394, 2436
1384, 1705, 1999, 1974, 1998, 4973, 4974, 4975, 4911
1385, 1245, 1756, 1803, 1217, 4723, 4724, 3866, 4251
1386, 1955, 1046, 1043, 1803, 4976, 2396, 3867, 4726
1387, 1894, 1962, 564, 566, 4530, 4977, 4468, 4609
1388, 1059, 1061, 1991, 512, 2781, 4978, 4878, 4979
1389, 1227, 1991, 1061, 1529, 4950, 4978, 3049, 4980
1390, 1994, 528, 1684, 1976, 4887, 4981, 4982, 4983
1391, 529, 527, 1684, 528, 4366, 3447, 4981, 3596
1392, 1368, 1367, 1720, 1369, 4984, 4985, 4521, 4752
1393, 680, 1940, 1254, 1566, 4986, 4987, 4988, 4989
1394, 1363, 1256, 1254, 1940, 3760, 2620, 4987, 4342
1395, 1565, 1566, 1254, 1253, 4990, 4988, 2619, 4742
1396, 520, 1076, 1410, 1077, 4952, 4620, 2956, 2425
1397, 1333, 551, 1695, 1334, 4692, 4991, 4992, 4686
1398, 551, 1942, 1693, 1695, 4993, 4349, 4994, 4991
1399, 1311, 1968, 1954, 1312, 4411, 4971, 4972, 2716
1400, 1857, 1809, 1036, 1838, 4995, 3753, 4996, 4797
1401, 1857, 1369, 904, 1809, 4750, 4520, 3754, 4995
1402, 1725, 1726, 1833, 1826, 3514, 3829, 4997, 3822
1403, 1140, 1141, 1989, 1139, 4812, 4998, 4999, 2482
1404, 885, 886, 732, 884, 3467, 2280, 5000, 4674
1405, 1688, 884, 732, 731, 4673, 5000, 2156, 3482
1406, 1089, 1989, 1141, 1090, 4871, 4998, 4814, 2901
1407, 1988, 1966, 2001, 1958, 4880, 5001, 5002, 4867
1408, 516, 888, 1005, 890, 4006, 4708, 4173, 4265
1409, 1084, 1815, 1287, 1004, 3769, 5003, 2682, 4574
1410, 1287, 1815, 1644, 1427, 5003, 3768, 4625, 2855
1411, 1279, 1864, 1863, 1280, 4487, 3925, 4495, 4503
1412, 1084, 1087, 1864, 1814, 2442, 3926, 4490, 3770
1413, 1604, 1331, 1177, 1179, 4559, 4014, 2518, 5004
1414, 1565, 1564, 1536, 1080, 4744, 3130, 5005, 4393
1415, 1027, 1081, 1080, 1536, 5006, 2433, 5005, 5007
1416, 412, 414, 2001, 1966, 4550, 5008, 5001, 4564
1417, 1579, 1938, 1850, 1776, 4902, 4908, 3891, 3680
1418, 171, 170, 1874, 1401, 210, 3968, 5009, 4944
1419, 1969, 1903, 1755, 1753, 4788, 4082, 3605, 4677
1420, 1310, 1308, 927, 1309, 5010, 4961, 5011, 5012
1421, 1761, 1311, 1309, 927, 4408, 2719, 5011, 5013
1422, 1676, 1405, 1403, 1262, 3406, 4377, 4828, 4572
1423, 1467, 1502, 1403, 1404, 4513, 4829, 4379, 4401
1424, 734, 1947, 1718, 735, 5014, 5015, 4351, 2147
1425, 1445, 1446, 1090, 1220, 5016, 2902, 4813, 5017
1426, 1664, 1328, 1994, 1662, 4412, 5018, 5019, 3382
1427, 1640, 1578, 1788, 1957, 4903, 3704, 5020, 4456
1428, 472, 540, 1994, 1328, 2037, 4888, 5018, 2733
1429, 1663, 1662, 1994, 1976, 3383, 5019, 4983, 5021
1430, 1883, 1967, 1806, 1807, 4671, 5022, 4337, 4029
1431, 1176, 1174, 1973, 1175, 5023, 5024, 4664, 2524
1432, 1326, 1973, 1174, 1198, 4665, 5024, 4775, 5025
1433, 1435, 1454, 1293, 1295, 4691, 5026, 2697, 4774
1434, 165, 1293, 1454, 166, 4434, 5026, 2921, 205
1435, 1492, 976, 1728, 1729, 4763, 4544, 3519, 4762
1436, 870, 1808, 1806, 868, 5027, 4345, 5028, 2276
1437, 628, 868, 1806, 1967, 2277, 5028, 5022, 4898
1438, 1627, 1628, 1972, 1945, 4319, 5029, 5030, 5031
1439, 1495, 1417, 1416, 1445, 3000, 2843, 5032, 5033
1440, 1668, 1972, 1628, 1387, 5034, 5029, 4318, 5035
1441, 1446, 1445, 1416, 1349, 5016, 5032, 5036, 3029
1442, 1286, 1910, 1551, 1296, 5037, 4628, 3094, 5038
1443, 1531, 1691, 1910, 1196, 4370, 4704, 5039, 3739
1444, 1670, 1773, 1056, 1774, 4736, 3673, 4546, 4937
1445, 1888, 1436, 1517, 1894, 4422, 4127, 4531, 4608
1446, 1084, 1088, 1209, 1085, 4575, 2541, 2708, 2443
1447, 1668, 1387, 1629, 1666, 5035, 4933, 4735, 3393
1448, 882, 883, 1733, 1730, 4842, 3880, 3529, 3528
1449, 1851, 741, 1733, 1098, 4592, 3530, 3879, 5040
1450, 446, 461, 1513, 462, 2378, 3546, 5041, 5042
1451, 1114, 417, 1934, 1911, 4320, 5043, 5044, 4143
1452, 1672, 462, 1513, 1671, 3766, 5041, 4741, 4630
1453, 1576, 1841, 1754, 1755, 5045, 3874, 3606, 4358
1454, 1877, 1735, 1736, 787, 4001, 3555, 5046, 5047
1455, 1549, 1548, 782, 784, 3090, 4561, 4270, 4846
1456, 739, 738, 1859, 1987, 2148, 4781, 5048, 5049
1457, 467, 1247, 1975, 1225, 3924, 4883, 5050, 5051
1458, 1156, 1192, 1332, 1154, 5052, 4141, 3848, 2497
1459, 1006, 1557, 481, 959, 3125, 3132, 2817, 5053
1460, 1956, 985, 723, 1980, 4876, 2346, 3312, 4713
1461, 924, 925, 1908, 923, 4963, 5054, 4191, 2363
1462, 1907, 1482, 432, 1908, 5055, 2991, 4192, 5056
1463, 1294, 1078, 1286, 1296, 4432, 2680, 5038, 3093
1464, 1910, 1286, 831, 1196, 5037, 3716, 3740, 5039
1465, 1599, 1525, 1872, 1873, 4818, 4047, 4452, 5057
1466, 1759, 1872, 1890, 761, 4450, 4046, 5058, 4953
1467, 1480, 1318, 465, 1817, 4914, 5059, 4132, 4800
1468, 1332, 1544, 1543, 1654, 4140, 3081, 3347, 3849
1469, 1284, 1401, 1874, 790, 3589, 5009, 5060, 2668
1470, 871, 1248, 1476, 1249, 5061, 5062, 4833, 5063
1471, 1986, 1174, 1176, 1275, 4776, 5023, 4328, 4919
1472, 474, 438, 1248, 473, 5064, 5065, 5066, 2735
1473, 440, 1476, 1248, 438, 3191, 5062, 5065, 5067
1474, 739, 1987, 1731, 1730, 5049, 5068, 3525, 3531
1475, 1975, 958, 1978, 1225, 4687, 5069, 5070, 5050
1476, 1891, 1125, 1808, 1892, 5071, 4346, 5072, 4051
1477, 467, 1225, 1978, 484, 5051, 5070, 4705, 2577
1478, 480, 1978, 958, 481, 4706, 5069, 2818, 3131
1479, 1652, 1732, 1731, 1651, 5073, 3526, 5074, 3342
1480, 1565, 678, 680, 1566, 4392, 2121, 4989, 4990
1481, 1940, 680, 690, 1366, 4986, 2120, 4838, 4343
1482, 1833, 1834, 1827, 1826, 3833, 4850, 3823, 4997
1483, 1661, 1663, 2002, 798, 3380, 5075, 5076, 4931
1484, 1486, 1485, 1159, 1409, 4397, 4611, 5077, 2958
1485, 555, 553, 1409, 1159, 2045, 3685, 5077, 2504
1486, 1147, 1501, 1519, 1109, 4803, 4219, 3034, 3215
1487, 1762, 1763, 973, 1032, 4921, 5078, 4857, 4717
1488, 1905, 1970, 973, 1763, 4923, 5079, 5078, 4920
1489, 1879, 1878, 1904, 1764, 4535, 5080, 4092, 4820
1490, 1672, 1673, 1904, 1674, 4632, 4093, 5081, 3767
1491, 1267, 1674, 1904, 1878, 5082, 5081, 5080, 4534
1492, 1383, 1560, 1594, 1562, 4354, 5083, 4517, 5084
1493, 1423, 1421, 1939, 1422, 5085, 4661, 5086, 5087
1494, 1522, 1422, 1939, 1681, 3442, 5086, 5088, 4417
1495, 1122, 2003, 413, 1965, 5089, 5090, 4552, 5091
1496, 1121, 1122, 1965, 1120, 5092, 5091, 4554, 2467
1497, 1096, 1794, 1795, 1127, 4843, 3732, 5093, 2470
1498, 1886, 1767, 1769, 1693, 5094, 3657, 5095, 4348
1499, 1886, 1506, 1474, 1767, 4936, 4357, 3658, 5094
1500, 1127, 1795, 1605, 971, 5093, 3731, 4771, 4786
1501, 1743, 1744, 1866, 1741, 4502, 4485, 4783, 4906
1502, 1752, 1953, 1753, 1750, 4596, 4678, 3604, 3603
1503, 605, 1378, 1884, 1696, 4202, 4396, 4627, 4155
1504, 1172, 896, 893, 1012, 5096, 2284, 2729, 5097
1505, 1138, 745, 1981, 1980, 5098, 5099, 4714, 3311
1506, 601, 1374, 1887, 1692, 3971, 4400, 4616, 4153
1507, 1860, 1861, 1987, 1859, 5100, 5101, 5048, 5102
1508, 1860, 1306, 1651, 1861, 5103, 3343, 5104, 5100
1509, 1731, 1987, 1861, 1651, 5068, 5101, 5104, 5074
1510, 472, 473, 862, 445, 2732, 5105, 5106, 2038
1511, 1870, 1844, 2002, 1901, 4078, 5107, 5108, 4369
1512, 444, 445, 862, 861, 2009, 5106, 3501, 5109
1513, 1452, 1357, 2003, 1964, 2981, 5110, 5111, 4881
1514, 1315, 413, 2003, 1357, 2713, 5090, 5110, 3016
1515, 1745, 1746, 1748, 1793, 3597, 4941, 5112, 3978
1516, 1747, 1749, 1902, 1748, 4940, 4893, 5113, 4942
1517, 511, 1113, 1059, 512, 2514, 4700, 4979, 4877
1518, 1395, 1906, 1909, 1396, 4105, 4279, 5114, 4298
1519, 1896, 1548, 1402, 1771, 4562, 3092, 5115, 4638
1520, 1772, 1771, 1402, 1406, 5116, 5115, 2826, 5117
1521, 955, 825, 1784, 722, 2326, 4536, 5118, 2860
1522, 1244, 1941, 1963, 1128, 5119, 5120, 4538, 3792
1523, 1244, 644, 1246, 1941, 2605, 3618, 5121, 5119
1524, 1477, 1963, 1941, 1246, 4839, 5120, 5121, 4932
1525, 1072, 1047, 690, 679, 2418, 2399, 2119, 3521
1526, 1172, 1173, 1895, 896, 3493, 4055, 5122, 5096
1527, 1438, 894, 896, 1895, 4461, 2285, 5122, 4054
1528, 1607, 1606, 1550, 1608, 4768, 3725, 5123, 4473
1529, 734, 1396, 1909, 1947, 4428, 5114, 5124, 5014
1530, 1485, 1951, 1727, 997, 4399, 5125, 5126, 4612
1531, 978, 998, 997, 1727, 3695, 2556, 5126, 4545
1532, 1614, 1728, 1727, 1951, 3516, 4543, 5125, 4720
1533, 749, 794, 102, 101, 2282, 4580, 135, 3905
1534, 2002, 1663, 1976, 1901, 5075, 5021, 5127, 5108
1535, 1710, 1706, 1708, 1512, 3491, 3488, 5128, 3662
1536, 1006, 959, 1708, 1007, 5053, 5129, 3487, 2823
1537, 1201, 1194, 440, 1927, 5130, 4852, 5131, 5132
1538, 1121, 477, 469, 1122, 4679, 2014, 5133, 5092
1539, 471, 1716, 1964, 469, 4739, 4882, 5134, 2013
1540, 1908, 925, 1308, 1907, 5054, 4962, 5135, 5056
1541, 1484, 1482, 1907, 1483, 4297, 5055, 5136, 5137
1542, 775, 1848, 1675, 29, 4729, 5138, 5139, 5140
1543, 588, 1675, 1848, 589, 5141, 5138, 4864, 3085
1544, 588, 28, 29, 1675, 3403, 68, 5139, 5141
1545, 1221, 1222, 1445, 1220, 5142, 5143, 5017, 4815
1546, 1599, 1873, 1358, 1602, 5057, 4451, 4926, 3212
1547, 1515, 1495, 1445, 1222, 3961, 5033, 5143, 3397
1548, 1199, 1960, 1213, 1197, 4527, 4823, 2612, 2534
1549, 2003, 1122, 469, 1964, 5089, 5133, 5134, 5111
1550, 1846, 798, 2002, 1844, 4606, 5076, 5107, 4446
1551, 1907, 1308, 1310, 1483, 5135, 5010, 5144, 5136
1552, 1179, 1146, 1145, 1604, 3851, 2487, 3223, 5004
1553, 1309, 1313, 1687, 1310, 2718, 5145, 5146, 5012
1554, 1352, 1060, 1349, 1416, 2779, 2771, 5036, 2842
1555, 25, 26, 470, 477, 65, 5147, 2015, 4680
1556, 590, 471, 470, 1547, 5148, 2016, 5149, 3083
1557, 27, 1547, 470, 26, 3402, 5149, 5147, 66
1558, 1190, 1192, 1156, 1193, 2872, 5052, 4252, 2527
1559, 919, 715, 714, 1677, 4872, 2139, 3691, 3404
1560, 1784, 977, 714, 722, 3693, 3692, 2138, 5118
1561, 1143, 1241, 1216, 1218, 5150, 4929, 4208, 4467
1562, 1319, 1320, 463, 1318, 5151, 5152, 5153, 4654
1563, 464, 465, 1318, 463, 4099, 5059, 5153, 3145
1564, 1052, 1581, 463, 1320, 3901, 3146, 5152, 3462
1565, 1956, 1979, 1299, 1944, 4712, 5154, 5155, 5156
1566, 939, 1299, 1979, 941, 5157, 5154, 5158, 2316
1567, 939, 1298, 1944, 1299, 4647, 4390, 5155, 5157
1568, 1903, 1792, 1790, 1902, 4787, 3708, 5159, 4083
1569, 782, 1183, 1182, 795, 4560, 2522, 5160, 4271
1570, 1804, 1942, 1961, 1805, 4350, 5161, 5162, 4557
1571, 1986, 1805, 1961, 1199, 4918, 5162, 4528, 4777
1572, 551, 552, 1961, 1942, 4695, 4529, 5161, 4993
1573, 1107, 1106, 1049, 1051, 2455, 5163, 4761, 4886
1574, 1049, 1106, 1062, 483, 5163, 2458, 3002, 4476
1575, 1748, 1902, 1790, 1793, 5113, 5159, 3712, 5112
1576, 729, 985, 1990, 892, 2347, 4875, 5164, 3014
1577, 1233, 891, 892, 1990, 2581, 4440, 5164, 4874
1578, 1264, 1821, 1266, 1260, 3785, 5165, 2639, 4719
1579, 1995, 1948, 1382, 1563, 4890, 5166, 5167, 5168
1580, 1704, 1701, 1702, 1882, 3478, 4576, 5169, 4429
1581, 1813, 1674, 1267, 1266, 3764, 5082, 2640, 5170
1582, 698, 1384, 1382, 1948, 4954, 5171, 5166, 4230
1583, 1562, 1563, 1382, 1383, 5172, 5167, 5173, 5084
1584, 1529, 1530, 748, 1238, 3051, 4363, 2587, 5174
1585, 1740, 1739, 174, 173, 4581, 3930, 213, 4949
1586, 1382, 1384, 1026, 1025, 5171, 3815, 2367, 5175
1587, 1418, 1540, 1541, 1420, 3070, 3077, 5176, 2845
1588, 1367, 1541, 1178, 1720, 5177, 3076, 5178, 4985
1589, 1307, 1596, 1652, 1305, 4415, 5179, 3341, 3408
1590, 1695, 1693, 1769, 1694, 4994, 5095, 3664, 5180
1591, 1695, 1694, 1512, 1334, 5180, 3663, 5181, 4992
1592, 1853, 1855, 1681, 1939, 3892, 5182, 5088, 4340
1593, 862, 871, 1249, 863, 5183, 5063, 2952, 3498
1594, 1248, 871, 862, 473, 5061, 5183, 5105, 5066
1595, 1956, 1944, 1392, 1391, 5156, 4389, 2815, 4449
1596, 1422, 1424, 1472, 1423, 3441, 5184, 2947, 5087
1597, 1627, 1945, 1901, 1685, 5031, 4367, 5185, 3449
1598, 1572, 1421, 1423, 1473, 4802, 5085, 2946, 4889
1599, 1684, 1685, 1901, 1976, 3446, 5185, 5127, 4982
1600, 1241, 1143, 1142, 861, 5150, 2480, 5186, 3500
1601, 1880, 1494, 1259, 1267, 4830, 2989, 2641, 4533
1602, 1777, 1869, 1871, 1779, 4754, 3954, 5187, 3678
1603, 1104, 1041, 1039, 1126, 4458, 2391, 4335, 4759
1604, 743, 742, 1841, 1971, 4443, 3871, 5188, 4831
1605, 1472, 1424, 1521, 1722, 5184, 3440, 5189, 4584
1606, 1745, 1876, 2004, 1669, 3977, 5190, 5191, 3598
1607, 1524, 1526, 1722, 1521, 4816, 4808, 5189, 3042
1608, 1896, 1497, 1176, 1183, 4640, 4329, 2523, 4563
1609, 1228, 746, 745, 1138, 2589, 4507, 5098, 5192
1610, 1891, 1523, 1520, 1893, 4050, 3037, 4419, 5193
1611, 1198, 1200, 2005, 1326, 2536, 5194, 5195, 5025
1612, 440, 439, 2005, 1927, 5196, 5197, 5198, 5131
1613, 1325, 1326, 2005, 439, 5199, 5195, 5197, 4497
1614, 1489, 1899, 1900, 1319, 4650, 4698, 5200, 4653
1615, 1201, 1927, 2005, 1200, 5132, 5198, 5194, 2614
1616, 635, 1783, 1201, 1213, 3689, 5201, 2613, 4822
1617, 989, 1036, 1074, 990, 5202, 3752, 3904, 2454
1618, 444, 861, 1142, 1347, 5109, 5186, 5203, 2803
1619, 1119, 1194, 1201, 1783, 4894, 5130, 5201, 3687
1620, 1989, 1347, 1142, 1139, 4870, 5203, 2483, 4999
1621, 1722, 1723, 1828, 1721, 4807, 4749, 5204, 4585
1622, 1779, 1871, 2004, 1876, 5187, 5205, 5190, 4426
1623, 1668, 1669, 2004, 1972, 3392, 5191, 5206, 5034
1624, 1488, 1958, 2001, 1639, 4913, 5002, 5207, 4865
1625, 1239, 1040, 1042, 1291, 2597, 2393, 3913, 3915
1626, 1785, 1703, 1721, 1996, 3698, 4583, 5208, 5209
1627, 415, 1365, 2001, 414, 4525, 5210, 5008, 2715
1628, 1083, 966, 968, 1877, 5211, 2339, 4000, 5212
1629, 1082, 1083, 1877, 787, 2435, 5212, 5047, 4896
1630, 776, 775, 29, 30, 2172, 5140, 69, 2210
1631, 1012, 1011, 1706, 1172, 3574, 4617, 3494, 5097
1632, 1222, 1221, 564, 1962, 5142, 4810, 4977, 3394
1633, 1230, 1639, 2001, 1365, 3316, 5207, 5210, 4524
1634, 1266, 1821, 2000, 1813, 5165, 4925, 5213, 5170
1635, 448, 446, 2000, 447, 2379, 5214, 4924, 2913
1636, 462, 1813, 2000, 446, 3765, 5213, 5214, 5042
1637, 1182, 1999, 796, 795, 5215, 5216, 4275, 5160
1638, 1998, 1974, 1326, 1325, 4975, 4666, 5199, 4912
1639, 1182, 1175, 1974, 1999, 2525, 4667, 4974, 5215
1640, 556, 1778, 1715, 1717, 3676, 5217, 3510, 4244
1641, 1713, 1714, 1715, 1782, 3502, 3511, 5218, 4257
1642, 672, 671, 1687, 1313, 2168, 3457, 5145, 3639
1643, 1915, 1171, 974, 1970, 4182, 5219, 5220, 4922
1644, 975, 973, 1970, 974, 4858, 5079, 5220, 4863
1645, 471, 590, 974, 1171, 5148, 4861, 5219, 4737
1646, 1851, 1098, 1097, 1635, 5040, 2472, 5221, 5222
1647, 1310, 1687, 1484, 1483, 5146, 3456, 5137, 5144
1648, 1798, 1947, 1909, 1933, 5223, 5124, 4281, 4947
1649, 558, 1380, 1930, 1778, 3781, 5224, 5225, 3675
1650, 1781, 1930, 1380, 1856, 4259, 5224, 4854, 4339
1651, 1715, 1778, 1930, 1782, 5217, 5225, 4258, 5218
1652, 1364, 1048, 1697, 1900, 4837, 3464, 5226, 4836
1653, 1992, 1993, 1751, 1842, 5227, 5228, 5229, 4917
1654, 989, 1035, 1838, 1036, 2448, 3883, 4996, 5202
1655, 1125, 1891, 1893, 1923, 5071, 5193, 5230, 4758
1656, 1320, 1319, 1900, 1697, 5151, 5200, 5226, 3463
1657, 1798, 1797, 1718, 1947, 5231, 3745, 5015, 5223
1658, 905, 1720, 1178, 907, 4522, 5178, 2520, 2292
1659, 660, 1099, 1102, 658, 3998, 2741, 3931, 2111
1660, 1743, 1957, 1788, 1791, 4905, 5020, 3710, 4904
1661, 1289, 487, 1264, 1054, 2688, 2631, 4718, 2687
1662, 1364, 1362, 1811, 1363, 4835, 4702, 3761, 4341
1663, 864, 866, 437, 431, 4036, 4187, 4194, 4295
1664, 1702, 1786, 1766, 1882, 3696, 3703, 4430, 5169
1665, 593, 592, 1946, 613, 3842, 5232, 4373, 4282
1666, 1890, 1892, 673, 761, 4049, 5233, 2170, 5058
1667, 1414, 1590, 1462, 1412, 3206, 3643, 3581, 2973
1668, 870, 673, 1892, 1808, 4637, 5233, 5072, 5027
1669, 1983, 1469, 1787, 1955, 4731, 3701, 5234, 4725
1670, 1921, 1598, 1946, 1832, 4892, 4374, 5235, 4619
1671, 1016, 1507, 1946, 592, 5236, 5237, 5232, 3788
1672, 1997, 1046, 1955, 1787, 3869, 4976, 5234, 5238
1673, 1584, 880, 877, 1596, 4656, 4436, 5239, 4414
1674, 1238, 1228, 1227, 1529, 2586, 5240, 4980, 5174
1675, 811, 812, 1912, 810, 4059, 5241, 5242, 2891
1676, 1226, 460, 1281, 1227, 5243, 2907, 4951, 5244
1677, 1721, 1828, 1840, 1996, 5204, 5245, 5246, 5208
1678, 1785, 1996, 1840, 1997, 5209, 5246, 3870, 5247
1679, 1754, 1842, 1751, 1750, 3873, 5229, 3600, 3607
1680, 820, 1626, 1912, 812, 3284, 4161, 5241, 2208
1681, 1633, 972, 970, 1931, 4790, 2330, 5248, 4403
1682, 1589, 881, 1443, 1442, 4840, 4958, 2881, 3197
1683, 1237, 1236, 970, 969, 4420, 5249, 2329, 4764
1684, 696, 1069, 1303, 1268, 4510, 4261, 4597, 2642
1685, 1932, 1931, 970, 1236, 4601, 5248, 5249, 4689
1686, 1189, 1188, 1501, 1608, 2529, 4220, 4474, 5250
1687, 1342, 1344, 1840, 1828, 2831, 5251, 5245, 4748
1688, 1992, 1413, 1461, 1993, 4915, 4901, 5252, 5227
1689, 1751, 1993, 1461, 1258, 5228, 5252, 5253, 3601
1690, 1771, 1772, 1952, 1330, 5116, 5254, 4910, 4639
1691, 1406, 1839, 1952, 1772, 4798, 5255, 5254, 5117
1692, 1798, 1559, 1561, 1797, 4946, 4333, 4801, 5231
1693, 1149, 788, 787, 1736, 3583, 4897, 5046, 4107
1694, 1558, 1559, 1594, 1560, 4331, 4948, 5083, 4353
1695, 1979, 1981, 745, 941, 4711, 5099, 4506, 5158
1696, 1083, 1028, 964, 966, 5256, 3819, 2340, 5211
1697, 1835, 1852, 1634, 1631, 4681, 3889, 3362, 3855
1698, 1851, 1635, 1634, 1850, 5222, 3359, 3888, 4907
1699, 1597, 1598, 1995, 1595, 4375, 4891, 5257, 4515
1700, 1562, 1595, 1995, 1563, 4519, 5257, 5168, 5172
1701, 1334, 1512, 957, 956, 5181, 5258, 4688, 4683
1702, 1531, 1397, 954, 953, 3055, 4121, 2328, 4371
1703, 1512, 1708, 959, 957, 5128, 5129, 2816, 5258
1704, 1344, 1407, 1044, 1840, 2830, 5259, 3868, 5251
1705, 824, 825, 954, 823, 4537, 2325, 4690, 2558
1706, 1888, 1045, 1044, 1407, 4600, 2398, 5259, 4423
1707, 1015, 1466, 1436, 1343, 4290, 4125, 4421, 3863
1708, 1609, 810, 1912, 1610, 3719, 5242, 4160, 3227
1709, 1839, 1505, 1506, 1952, 3884, 3011, 4935, 5255
1710, 1946, 1507, 1830, 1832, 5237, 5260, 3826, 5235
1711, 1016, 1834, 1830, 1507, 4851, 3832, 5260, 5236
1712, 1922, 927, 924, 1019, 5261, 4960, 2366, 4243
1713, 1494, 1971, 1843, 962, 4832, 5262, 5263, 2987
1714, 1576, 1843, 1971, 1841, 3877, 5262, 5188, 5045
1715, 961, 962, 1843, 960, 2988, 5263, 3876, 4549
1716, 447, 460, 1226, 449, 2876, 5243, 5264, 2910
1717, 1227, 1228, 1138, 1226, 5240, 5192, 5265, 5244
1718, 1596, 877, 1732, 1652, 5239, 5266, 5073, 5179
1719, 1536, 1538, 1025, 1027, 3129, 5267, 2370, 5007
1720, 1083, 1081, 1027, 1028, 2434, 5006, 2369, 5256
1721, 1408, 1481, 1982, 822, 3204, 4716, 5268, 4071
1722, 1031, 1350, 1982, 1032, 4727, 5269, 4715, 4860
1723, 777, 822, 1982, 1350, 4074, 5268, 5269, 2174
1724, 1340, 1338, 1420, 1339, 4849, 2846, 5270, 4848
1725, 1368, 1341, 1339, 1367, 2824, 4847, 5271, 4984
1726, 1541, 1367, 1339, 1420, 5177, 5271, 5270, 5176
1727, 1067, 965, 964, 1824, 4553, 2337, 3818, 4745
1728, 878, 879, 1732, 877, 4957, 4588, 5266, 4438
1729, 1922, 1917, 1761, 927, 4636, 4967, 5013, 5261
1730, 1681, 1855, 1923, 1893, 5182, 4383, 5230, 4418
1731, 1918, 1917, 1810, 1919, 4966, 4635, 4747, 4965
1732, 725, 449, 1226, 1138, 2911, 5264, 5265, 3313
1733, 1148, 1539, 1237, 1950, 5272, 3072, 4767, 4806
1734, 1345, 1540, 1539, 1148, 3074, 3073, 5272, 2765
1735, 427, 689, 619, 1465, 3246, 2791, 4176, 2936
1736, 1661, 796, 1999, 1705, 4930, 5216, 4973, 4147
1737, 1127, 1632, 1635, 1097, 4785, 3360, 5221, 2471
1738, 1258, 1461, 707, 694, 5253, 4900, 2129, 2644
1739, 1382, 1025, 1538, 1383, 5175, 5267, 4355, 5173
1740, 1874, 945, 1770, 790, 3967, 5273, 5274, 5060
1741, 1356, 1770, 945, 944, 5275, 5273, 2319, 2932
1742, 1356, 791, 790, 1770, 2925, 2669, 5274, 5275
1743, 1785, 1997, 1787, 1786, 5247, 5238, 3700, 3699
1744, 1865, 1860, 1859, 1866, 4855, 5102, 4780, 4484
1745, 1355, 1968, 1925, 697, 4969, 4410, 4246, 4382
1746, 440, 438, 1959, 439, 5067, 5276, 4498, 5196
1747, 438, 474, 1327, 1959, 5064, 4413, 4499, 5276
1748, 1085, 1306, 1860, 1086, 2707, 5103, 4856, 2440
1749, 920, 919, 1676, 921, 4873, 3407, 4571, 2626
1750, 1911, 1934, 1091, 1063, 5044, 5277, 3030, 4701
1751, 2004, 1871, 1945, 1972, 5205, 4368, 5030, 5206
1752, 1091, 1934, 417, 416, 5277, 5043, 2410, 3032
1753, 1441, 1189, 1608, 1550, 4621, 5250, 5123, 3195
*ELEMENT, type=S8R, ELSET=Surface2
1754, 43, 5278, 309, 1, 5318, 5319, 311, 83
1755, 309, 5278, 268, 3, 5319, 5320, 308, 310
1756, 309, 5279, 5, 1, 5321, 5322, 44, 311
1757, 309, 3, 230, 5279, 310, 269, 5323, 5321
1758, 42, 5280, 267, 5281, 5324, 5325, 5326, 5327
1759, 5317, 231, 232, 5316, 5328, 271, 5329, 5330
1760, 5317, 5316, 7, 6, 5330, 5331, 46, 5332
1761, 5316, 232, 233, 5315, 5329, 272, 5333, 5334
1762, 5316, 5315, 8, 7, 5334, 5335, 47, 5331
1763, 5315, 233, 234, 5314, 5333, 273, 5336, 5337
1764, 5315, 5314, 9, 8, 5337, 5338, 48, 5335
1765, 5314, 234, 235, 5313, 5336, 274, 5339, 5340
1766, 5314, 5313, 10, 9, 5340, 5341, 49, 5338
1767, 5313, 235, 236, 5312, 5339, 275, 5342, 5343
1768, 5313, 5312, 11, 10, 5343, 5344, 50, 5341
1769, 5312, 236, 237, 5311, 5342, 276, 5345, 5346
1770, 5312, 5311, 12, 11, 5346, 5347, 51, 5344
1771, 5311, 237, 238, 5310, 5345, 277, 5348, 5349
1772, 5311, 5310, 13, 12, 5349, 5350, 52, 5347
1773, 5309, 239, 240, 5308, 5351, 279, 5352, 5353
1774, 5309, 5308, 15, 14, 5353, 5354, 54, 5355
1775, 5310, 238, 239, 5309, 5348, 278, 5351, 5356
1776, 5310, 5309, 14, 13, 5356, 5355, 53, 5350
1777, 5308, 240, 241, 5307, 5352, 280, 5357, 5358
1778, 5308, 5307, 16, 15, 5358, 5359, 55, 5354
1779, 5307, 241, 242, 5306, 5357, 281, 5360, 5361
1780, 5307, 5306, 17, 16, 5361, 5362, 56, 5359
1781, 5306, 242, 243, 5305, 5360, 282, 5363, 5364
1782, 5306, 5305, 18, 17, 5364, 5365, 57, 5362
1783, 5304, 5303, 20, 19, 5366, 5367, 59, 5368
1784, 5304, 244, 245, 5303, 5369, 284, 5370, 5366
1785, 5305, 243, 244, 5304, 5363, 283, 5369, 5371
1786, 5305, 5304, 19, 18, 5371, 5368, 58, 5365
1787, 5302, 5301, 22, 21, 5372, 5373, 61, 5374
1788, 5302, 246, 247, 5301, 5375, 286, 5376, 5372
1789, 5303, 245, 246, 5302, 5370, 285, 5375, 5377
1790, 5303, 5302, 21, 20, 5377, 5374, 60, 5367
1791, 5300, 248, 249, 5299, 5378, 288, 5379, 5380
1792, 5300, 5299, 24, 23, 5380, 5381, 63, 5382
1793, 5301, 247, 248, 5300, 5376, 287, 5378, 5383
1794, 5301, 5300, 23, 22, 5383, 5382, 62, 5373
1795, 5299, 249, 250, 5298, 5379, 289, 5384, 5385
1796, 5299, 5298, 25, 24, 5385, 5386, 64, 5381
1797, 5298, 5297, 26, 25, 5387, 5388, 65, 5386
1798, 5298, 250, 251, 5297, 5384, 290, 5389, 5387
1799, 5296, 252, 253, 5295, 5390, 292, 5391, 5392
1800, 5296, 5295, 28, 27, 5392, 5393, 67, 5394
1801, 5297, 5296, 27, 26, 5395, 5394, 66, 5388
1802, 5297, 251, 252, 5296, 5389, 291, 5390, 5395
1803, 5294, 254, 255, 5293, 5396, 294, 5397, 5398
1804, 5294, 5293, 30, 29, 5398, 5399, 69, 5400
1805, 5295, 5294, 29, 28, 5401, 5400, 68, 5393
1806, 5295, 253, 254, 5294, 5391, 293, 5396, 5401
1807, 5292, 256, 257, 5291, 5402, 296, 5403, 5404
1808, 5292, 5291, 32, 31, 5404, 5405, 71, 5406
1809, 5293, 255, 256, 5292, 5397, 295, 5402, 5407
1810, 5293, 5292, 31, 30, 5407, 5406, 70, 5399
1811, 5291, 257, 258, 5290, 5403, 297, 5408, 5409
1812, 5291, 5290, 33, 32, 5409, 5410, 72, 5405
1813, 5290, 258, 259, 5289, 5408, 298, 5411, 5412
1814, 5290, 5289, 34, 33, 5412, 5413, 73, 5410
1815, 5289, 259, 260, 5288, 5411, 299, 5414, 5415
1816, 5289, 5288, 35, 34, 5415, 5416, 74, 5413
1817, 5288, 260, 261, 5287, 5414, 300, 5417, 5418
1818, 5288, 5287, 36, 35, 5418, 5419, 75, 5416
1819, 5286, 262, 263, 5285, 5420, 302, 5421, 5422
1820, 5286, 5285, 38, 37, 5422, 5423, 77, 5424
1821, 5287, 261, 262, 5286, 5417, 301, 5420, 5425
1822, 5287, 5286, 37, 36, 5425, 5424, 76, 5419
1823, 5285, 263, 264, 5284, 5421, 303, 5426, 5427
1824, 5285, 5284, 39, 38, 5427, 5428, 78, 5423
1825, 5284, 264, 265, 5283, 5426, 304, 5429, 5430
1826, 5284, 5283, 40, 39, 5430, 5431, 79, 5428
1827, 5283, 265, 266, 5282, 5429, 305, 5432, 5433
1828, 5283, 5282, 41, 40, 5433, 5434, 80, 5431
1829, 5278, 5281, 267, 268, 5435, 5326, 307, 5320
1830, 5278, 43, 42, 5281, 5318, 82, 5327, 5435
1831, 5282, 266, 267, 5280, 5432, 306, 5325, 5436
1832, 5282, 5280, 42, 41, 5436, 5324, 81, 5434
1833, 6, 5, 5279, 5317, 45, 5322, 5437, 5332
1834, 231, 5317, 5279, 230, 5328, 5437, 5323, 270
*ELEMENT, type=S8R, ELSET=Surface3
1835, 5452, 5443, 5453, 5451, 5762, 5763, 5764, 5765
1836, 5466, 5467, 173, 174, 5766, 5767, 213, 5768
1837, 5439, 5441, 5492, 5440, 5769, 5770, 5771, 5772
1838, 5510, 5509, 5511, 5503, 5773, 5774, 5775, 5776
1839, 5510, 5460, 5459, 5512, 5777, 5778, 5779, 5780
1840, 5479, 5481, 5512, 5480, 5781, 5782, 5783, 5784
1841, 5520, 5521, 350, 349, 5785, 5786, 389, 5787
1842, 5488, 5489, 5481, 5479, 5788, 5789, 5781, 5790
1843, 5540, 5538, 5541, 5539, 5791, 5792, 5793, 5794
1844, 5550, 5549, 5551, 5476, 5795, 5796, 5797, 5798
1845, 5495, 5496, 5489, 5488, 5799, 5800, 5788, 5801
1846, 5561, 5496, 5495, 5563, 5802, 5799, 5803, 5804
1847, 5536, 5552, 5541, 5538, 5805, 5806, 5792, 5807
1848, 5552, 5536, 5568, 5553, 5805, 5808, 5809, 5810
1849, 5567, 5568, 5536, 5535, 5811, 5808, 5812, 5813
1850, 5579, 5580, 5568, 5567, 5814, 5815, 5811, 5816
1851, 5592, 5590, 329, 5591, 5817, 5818, 5819, 5820
1852, 5596, 5597, 5603, 5598, 5821, 5822, 5823, 5824
1853, 5470, 5589, 5580, 5579, 5825, 5826, 5814, 5827
1854, 5594, 5595, 5614, 5593, 5828, 5829, 5830, 5831
1855, 5600, 5601, 5618, 5599, 5832, 5833, 5834, 5835
1856, 5622, 5623, 5630, 5624, 5836, 5837, 5838, 5839
1857, 5564, 5537, 5540, 5555, 5840, 5841, 5842, 5843
1858, 5536, 5538, 5540, 5537, 5807, 5791, 5841, 5844
1859, 5555, 5540, 5636, 5554, 5842, 5845, 5846, 5847
1860, 5471, 5472, 5463, 5462, 5848, 5849, 5850, 5851
1861, 5462, 5463, 5452, 5451, 5850, 5852, 5765, 5853
1862, 5637, 5638, 5639, 5522, 5854, 5855, 5856, 5857
1863, 5448, 5445, 5446, 5449, 5858, 5859, 5860, 5861
1864, 5441, 5439, 5642, 5461, 5769, 5862, 5863, 5864
1865, 5598, 5616, 5644, 5596, 5865, 5866, 5867, 5824
1866, 5475, 5476, 5645, 5474, 5868, 5869, 5870, 5871
1867, 5620, 5621, 5440, 5492, 5872, 5873, 5771, 5874
1868, 5485, 5486, 5493, 5484, 5875, 5876, 5877, 5878
1869, 5441, 5493, 5486, 5492, 5879, 5876, 5880, 5770
1870, 5497, 5498, 5493, 5499, 5881, 5882, 5883, 5884
1871, 5461, 5499, 5493, 5441, 5885, 5883, 5879, 5864
1872, 5503, 5497, 5499, 5504, 5886, 5884, 5887, 5888
1873, 5513, 5509, 5510, 5514, 5889, 5773, 5890, 5891
1874, 5532, 5513, 5514, 5533, 5892, 5891, 5893, 5894
1875, 5489, 5533, 5514, 5481, 5895, 5893, 5896, 5789
1876, 5542, 5532, 5533, 5543, 5897, 5894, 5898, 5899
1877, 5496, 5543, 5533, 5489, 5900, 5898, 5895, 5800
1878, 5542, 5543, 5496, 5561, 5899, 5900, 5802, 5901
1879, 5542, 5561, 5648, 5560, 5901, 5902, 5903, 5904
1880, 5575, 5553, 5586, 5581, 5905, 5906, 5907, 5908
1881, 5580, 5586, 5553, 5568, 5909, 5906, 5809, 5815
1882, 5581, 5586, 5608, 5585, 5907, 5910, 5911, 5912
1883, 5589, 5608, 5586, 5580, 5913, 5910, 5909, 5826
1884, 5585, 5608, 5647, 5607, 5911, 5914, 5915, 5916
1885, 5607, 5647, 5651, 5646, 5915, 5917, 5918, 5919
1886, 5557, 5558, 5657, 5556, 5920, 5921, 5922, 5923
1887, 5608, 5589, 5519, 5647, 5913, 5924, 5925, 5914
1888, 5674, 5672, 5675, 5673, 5926, 5927, 5928, 5929
1889, 5469, 5519, 5589, 5470, 5930, 5924, 5825, 5931
1890, 5651, 5676, 5677, 5646, 5932, 5933, 5934, 5918
1891, 5654, 5652, 5676, 5653, 5935, 5936, 5937, 5938
1892, 5468, 5610, 5631, 5633, 5939, 5940, 5941, 5942
1893, 5657, 5656, 5652, 5654, 5943, 5944, 5935, 5945
1894, 5530, 5531, 313, 312, 5946, 5947, 320, 5948
1895, 5657, 5654, 5680, 5528, 5945, 5949, 5950, 5951
1896, 5633, 5631, 5684, 5632, 5941, 5952, 5953, 5954
1897, 5558, 5658, 5656, 5657, 5955, 5956, 5943, 5921
1898, 5657, 5528, 5527, 5556, 5951, 5957, 5958, 5922
1899, 5661, 5659, 5689, 5660, 5959, 5960, 5961, 5962
1900, 5663, 5662, 5659, 5661, 5963, 5964, 5959, 5965
1901, 5660, 5626, 5635, 5661, 5966, 5967, 5968, 5962
1902, 5623, 5622, 5635, 5626, 5836, 5969, 5967, 5970
1903, 5678, 5634, 5632, 5680, 5971, 5972, 5973, 5974
1904, 5665, 5664, 5662, 5663, 5975, 5976, 5963, 5977
1905, 5667, 5666, 5664, 5665, 5978, 5979, 5975, 5980
1906, 5663, 5523, 5639, 5665, 5981, 5982, 5983, 5977
1907, 5524, 5522, 5639, 5523, 5984, 5856, 5982, 5985
1908, 5624, 5630, 5695, 5629, 5838, 5986, 5987, 5988
1909, 5628, 5705, 5707, 5627, 5989, 5990, 5991, 5992
1910, 5592, 5613, 5688, 5612, 5993, 5994, 5995, 5996
1911, 5628, 5627, 5710, 5524, 5992, 5997, 5998, 5999
1912, 5637, 5710, 5715, 5714, 6000, 6001, 6002, 6003
1913, 5643, 5712, 5719, 5713, 6004, 6005, 6006, 6007
1914, 5702, 5704, 5701, 5700, 6008, 6009, 6010, 6011
1915, 5700, 5701, 5698, 5666, 6010, 6012, 6013, 6014
1916, 5666, 5698, 5697, 5664, 6013, 6015, 6016, 5979
1917, 5664, 5697, 5694, 5662, 6016, 6017, 6018, 5976
1918, 5662, 5694, 5693, 5659, 6018, 6019, 6020, 5964
1919, 5659, 5693, 5690, 5689, 6020, 6021, 6022, 5960
1920, 5689, 5690, 5686, 5658, 6022, 6023, 6024, 6025
1921, 5658, 5686, 5682, 5656, 6024, 6026, 6027, 5956
1922, 5656, 5682, 5679, 5652, 6027, 6028, 6029, 5944
1923, 5652, 5679, 5677, 5676, 6029, 6030, 5933, 5936
1924, 5607, 5646, 5677, 5655, 5919, 5934, 6031, 6032
1925, 5585, 5607, 5655, 5609, 5916, 6032, 6033, 6034
1926, 5581, 5585, 5609, 5587, 5912, 6034, 6035, 6036
1927, 5581, 5587, 170, 5582, 6036, 6037, 6038, 6039
1928, 5581, 5582, 5577, 5575, 6039, 6040, 6041, 5908
1929, 5614, 5641, 5640, 5719, 6042, 6043, 6044, 6045
1930, 5575, 5577, 5574, 5571, 6041, 6046, 6047, 6048
1931, 5476, 5548, 5620, 5645, 6049, 6050, 6051, 5869
1932, 5725, 5466, 5562, 5560, 6052, 6053, 6054, 6055
1933, 5560, 5562, 5544, 5542, 6054, 6056, 6057, 5904
1934, 5621, 5620, 5548, 5547, 5872, 6050, 6058, 6059
1935, 5486, 5485, 5474, 5645, 5875, 6060, 5870, 6061
1936, 5542, 5544, 5534, 5532, 6057, 6062, 6063, 5897
1937, 5532, 5534, 5515, 5513, 6063, 6064, 6065, 5892
1938, 5484, 5493, 5498, 5545, 5877, 5882, 6066, 6067
1939, 5513, 5515, 5511, 5509, 6065, 6068, 5774, 5889
1940, 5497, 5503, 5511, 5505, 5886, 5775, 6069, 6070
1941, 5498, 5497, 5505, 5500, 5881, 6070, 6071, 6072
1942, 5460, 5461, 5642, 5459, 6073, 5863, 6074, 5778
1943, 5546, 5487, 5484, 5545, 6075, 6076, 6067, 6077
1944, 5439, 5452, 5463, 5642, 6078, 5852, 6079, 5862
1945, 5484, 5487, 5727, 5485, 6076, 6080, 6081, 5878
1946, 5472, 5459, 5642, 5463, 6082, 6074, 6079, 5849
1947, 5477, 5474, 5485, 5727, 6083, 6060, 6081, 6084
1948, 5454, 5456, 5450, 5448, 6085, 6086, 6087, 6088
1949, 5448, 5450, 5447, 5445, 6087, 6089, 6090, 5858
1950, 5445, 5447, 5444, 5442, 6090, 6091, 6092, 6093
1951, 5442, 5444, 5453, 5443, 6092, 6094, 5763, 6095
1952, 5451, 5453, 356, 5464, 5764, 6096, 6097, 6098
1953, 5451, 5464, 5473, 5462, 6098, 6099, 6100, 5853
1954, 5462, 5473, 5483, 5471, 6100, 6101, 6102, 5851
1955, 5471, 5483, 5491, 5482, 6102, 6103, 6104, 6105
1956, 5482, 5491, 5502, 5490, 6104, 6106, 6107, 6108
1957, 5490, 5502, 5508, 5501, 6107, 6109, 6110, 6111
1958, 5554, 5559, 5565, 5555, 6112, 6113, 6114, 5847
1959, 5555, 5565, 5570, 5564, 6114, 6115, 6116, 5843
1960, 5564, 5570, 5584, 5569, 6116, 6117, 6118, 6119
1961, 5569, 5584, 5606, 5583, 6118, 6120, 6121, 6122
1962, 5583, 5606, 5611, 5605, 6121, 6123, 6124, 6125
1963, 5605, 5611, 5681, 5610, 6124, 6126, 6127, 6128
1964, 5610, 5681, 5685, 5631, 6127, 6129, 6130, 5940
1965, 5631, 5685, 5692, 5684, 6130, 6131, 6132, 5952
1966, 5684, 5692, 5696, 5691, 6132, 6133, 6134, 6135
1967, 5691, 5696, 5699, 5695, 6134, 6136, 6137, 6138
1968, 5629, 5706, 5707, 5705, 6139, 6140, 5990, 6141
1969, 5627, 5711, 5715, 5710, 6142, 6143, 6001, 5997
1970, 5716, 5714, 5715, 5718, 6144, 6002, 6145, 6146
1971, 5720, 5716, 5718, 5722, 6147, 6146, 6148, 6149
1972, 5729, 5465, 5703, 5728, 6150, 6151, 6152, 6153
1973, 5723, 5720, 5722, 5724, 6154, 6149, 6155, 6156
1974, 5732, 5730, 5615, 5731, 6157, 6158, 6159, 6160
1975, 5669, 5733, 5619, 5650, 6161, 6162, 6163, 6164
1976, 5700, 5703, 5465, 5702, 6165, 6151, 6166, 6011
1977, 5678, 5519, 5469, 5634, 6167, 5930, 6168, 5971
1978, 5666, 5667, 5703, 5700, 5978, 6169, 6165, 6014
1979, 5658, 5558, 5660, 5689, 5955, 6170, 5961, 6025
1980, 5527, 5526, 5557, 5556, 6171, 6172, 5923, 5958
1981, 5676, 5651, 5678, 5653, 5932, 6173, 6174, 5937
1982, 5571, 5576, 5553, 5575, 6175, 6176, 5905, 6048
1983, 5541, 5552, 5553, 5576, 5806, 5810, 6176, 6177
1984, 5571, 5573, 5541, 5576, 6178, 6179, 6177, 6175
1985, 5503, 5504, 5460, 5510, 5888, 6180, 5777, 5776
1986, 5454, 5448, 5449, 5455, 6088, 5861, 6181, 6182
1987, 5548, 5455, 5449, 5547, 6183, 6181, 6184, 6058
1988, 5445, 5442, 5438, 5446, 6093, 6185, 6186, 5859
1989, 5621, 5446, 5438, 5440, 6187, 6186, 6188, 5873
1990, 5442, 5443, 5452, 5438, 6095, 5762, 6189, 6185
1991, 5470, 5468, 5633, 5469, 6190, 5942, 6191, 5931
1992, 5440, 5438, 5452, 5439, 6188, 6189, 6078, 5772
1993, 5632, 5634, 5469, 5633, 5972, 6168, 6191, 5954
1994, 5482, 5478, 5472, 5471, 6192, 6193, 5848, 6105
1995, 5479, 5480, 5472, 5478, 5784, 6194, 6193, 6195
1996, 5490, 5494, 5478, 5482, 6196, 6197, 6192, 6108
1997, 5488, 5479, 5478, 5494, 5790, 6195, 6197, 6198
1998, 5498, 5500, 5546, 5545, 6072, 6199, 6077, 6066
1999, 5490, 5501, 5507, 5494, 6111, 6200, 6201, 6196
2000, 5488, 5494, 5507, 5495, 6198, 6201, 6202, 5801
2001, 5569, 5566, 5537, 5564, 6203, 6204, 5840, 6119
2002, 5536, 5537, 5566, 5535, 5844, 6204, 6205, 5812
2003, 5583, 5578, 5566, 5569, 6206, 6207, 6203, 6122
2004, 5535, 5566, 5578, 5567, 6205, 6207, 6208, 5813
2005, 5605, 5588, 5578, 5583, 6209, 6210, 6206, 6125
2006, 5567, 5578, 5588, 5579, 6208, 6210, 6211, 5816
2007, 5610, 5468, 5588, 5605, 5939, 6212, 6209, 6128
2008, 5579, 5588, 5468, 5470, 6211, 6212, 6190, 5827
2009, 5684, 5529, 5683, 5632, 6213, 6214, 6215, 5953
2010, 5684, 5691, 5525, 5529, 6135, 6216, 6217, 6213
2011, 5526, 5527, 5529, 5525, 6171, 6218, 6217, 6219
2012, 5691, 5695, 5630, 5525, 6138, 5986, 6220, 6216
2013, 5629, 5705, 5628, 5624, 6141, 5989, 6221, 5988
2014, 5524, 5622, 5624, 5628, 6222, 5839, 6221, 5999
2015, 5710, 5637, 5522, 5524, 6000, 5857, 5984, 5998
2016, 5716, 5717, 5637, 5714, 6223, 6224, 6003, 6144
2017, 5720, 5721, 5717, 5716, 6225, 6226, 6223, 6147
2018, 5720, 5517, 5729, 5721, 6227, 6228, 6229, 6225
2019, 5500, 181, 182, 5546, 6230, 221, 6231, 6199
2020, 5688, 5613, 5673, 5687, 5994, 6232, 6233, 6234
2021, 5674, 5673, 5613, 5737, 5929, 6232, 6235, 6236
2022, 5674, 316, 315, 5672, 6237, 323, 6238, 5926
2023, 5455, 5548, 5476, 5551, 6183, 6049, 5797, 6239
2024, 5481, 5514, 5510, 5512, 5896, 5890, 5780, 5782
2025, 5459, 5472, 5480, 5512, 6082, 6194, 5783, 5779
2026, 5678, 5680, 5654, 5653, 5974, 5949, 5938, 6174
2027, 5528, 5680, 5632, 5683, 5950, 5973, 6215, 6240
2028, 5670, 314, 313, 5671, 6241, 321, 6242, 6243
2029, 5748, 155, 156, 5726, 6244, 195, 6245, 6246
2030, 5674, 5736, 317, 316, 6247, 6248, 324, 6237
2031, 5540, 5539, 5563, 5636, 5794, 6249, 6250, 5845
2032, 5732, 316, 317, 5738, 6251, 324, 6252, 6253
2033, 5561, 5563, 5539, 5648, 5804, 6249, 6254, 5902
2034, 5739, 5740, 313, 314, 6255, 6256, 321, 6257
2035, 5661, 5635, 5523, 5663, 5968, 6258, 5981, 5965
2036, 5622, 5524, 5523, 5635, 6222, 5985, 6258, 5969
2037, 5637, 5717, 5728, 5638, 6224, 6259, 6260, 5854
2038, 5667, 5638, 5728, 5703, 6261, 6260, 6152, 6169
2039, 5724, 5722, 333, 332, 6155, 6262, 372, 6263
2040, 5717, 5721, 5729, 5728, 6226, 6229, 6153, 6259
2041, 5517, 5516, 5734, 5729, 6264, 6265, 6266, 6228
2042, 313, 5531, 5733, 5671, 5947, 6267, 6268, 6242
2043, 5670, 5671, 5733, 5669, 6243, 6268, 6161, 6269
2044, 5742, 5736, 5674, 5737, 6270, 6247, 6236, 6271
2045, 5602, 5730, 5732, 5738, 6272, 6157, 6253, 6273
2046, 5745, 5740, 5739, 5746, 6274, 6255, 6275, 6276
2047, 5616, 5598, 5603, 5617, 5865, 5823, 6277, 6278
2048, 5618, 5619, 5604, 5599, 6279, 6280, 6281, 5834
2049, 5592, 5742, 5737, 5613, 6282, 6271, 6235, 5993
2050, 5593, 5615, 5730, 5602, 6283, 6158, 6272, 6284
2051, 5745, 5746, 5617, 5603, 6276, 6285, 6277, 6286
2052, 5531, 5604, 5619, 5733, 6287, 6280, 6162, 6267
2053, 5604, 5531, 5530, 5747, 6287, 5946, 6288, 6289
2054, 5741, 5749, 5736, 5742, 6290, 6291, 6270, 6292
2055, 318, 317, 5736, 5749, 325, 6248, 6291, 6293
2056, 5744, 5751, 5740, 5745, 6294, 6295, 6274, 6296
2057, 5593, 5614, 5731, 5615, 5830, 6297, 6159, 6283
2058, 5550, 5616, 5617, 5643, 6298, 6278, 6299, 6300
2059, 5592, 5612, 5625, 5590, 5996, 6301, 6302, 5817
2060, 5492, 5486, 5645, 5620, 5880, 6061, 6051, 5874
2061, 5649, 5650, 5619, 5618, 6303, 6163, 6279, 6304
2062, 5625, 330, 329, 5590, 6305, 369, 5818, 6302
2063, 5732, 5753, 315, 316, 6306, 6307, 323, 6251
2064, 5597, 5596, 186, 187, 5821, 6308, 226, 6309
2065, 312, 313, 5740, 5751, 320, 6256, 6295, 6310
2066, 5600, 153, 154, 5601, 6311, 193, 6312, 5832
2067, 184, 5727, 5487, 183, 6313, 6080, 6314, 223
2068, 5743, 5602, 5738, 5750, 6315, 6273, 6316, 6317
2069, 5458, 5457, 5702, 5465, 6318, 6319, 6166, 6320
2070, 5704, 5702, 5457, 5726, 6008, 6319, 6321, 6322
2071, 5739, 314, 315, 5753, 6257, 322, 6307, 6323
2072, 318, 5750, 5738, 317, 6324, 6316, 6252, 325
2073, 5559, 5554, 5754, 5520, 6112, 6325, 6326, 6327
2074, 5640, 5549, 5713, 5719, 6328, 6329, 6006, 6044
2075, 5614, 5595, 5755, 5641, 5829, 6330, 6331, 6042
2076, 5592, 5591, 5741, 5742, 5820, 6332, 6292, 6282
2077, 5594, 363, 362, 5595, 6333, 402, 6334, 5828
2078, 329, 328, 5741, 5591, 368, 6335, 6332, 5819
2079, 5593, 5602, 5743, 5594, 6284, 6315, 6336, 5831
2080, 363, 5594, 5743, 364, 6333, 6336, 6337, 403
2081, 5745, 5603, 5597, 5744, 6286, 5822, 6338, 6296
2082, 187, 188, 5744, 5597, 227, 6339, 6338, 6309
2083, 5599, 5604, 5747, 5600, 6281, 6289, 6340, 5835
2084, 153, 5600, 5747, 152, 6311, 6340, 6341, 192
2085, 318, 5749, 327, 4, 6293, 6342, 366, 326
2086, 365, 5750, 318, 4, 6343, 6324, 326, 405
2087, 312, 5751, 189, 2, 6310, 6344, 229, 319
2088, 312, 2, 151, 5530, 319, 190, 6345, 5948
2089, 5749, 5741, 328, 327, 6290, 6335, 367, 6342
2090, 5750, 365, 364, 5743, 6343, 404, 6337, 6317
2091, 5751, 5744, 188, 189, 6294, 6339, 228, 6344
2092, 5530, 151, 152, 5747, 6345, 191, 6341, 6288
2093, 5518, 5688, 5687, 5756, 6346, 6234, 6347, 6348
2094, 5752, 5612, 5688, 5518, 6349, 5995, 6346, 6350
2095, 5726, 156, 157, 5704, 6245, 196, 6351, 6322
2096, 5704, 157, 158, 5701, 6351, 197, 6352, 6009
2097, 5665, 5639, 5638, 5667, 5983, 5855, 6261, 5980
2098, 5701, 158, 159, 5698, 6352, 198, 6353, 6012
2099, 5698, 159, 160, 5697, 6353, 199, 6354, 6015
2100, 5697, 160, 161, 5694, 6354, 200, 6355, 6017
2101, 5694, 161, 162, 5693, 6355, 201, 6356, 6019
2102, 5693, 162, 163, 5690, 6356, 202, 6357, 6021
2103, 5690, 163, 164, 5686, 6357, 203, 6358, 6023
2104, 5686, 164, 165, 5682, 6358, 204, 6359, 6026
2105, 5682, 165, 166, 5679, 6359, 205, 6360, 6028
2106, 5679, 166, 167, 5677, 6360, 206, 6361, 6030
2107, 5618, 5601, 5748, 5708, 5833, 6362, 6363, 6364
2108, 5677, 167, 168, 5655, 6361, 207, 6365, 6031
2109, 5647, 5519, 5678, 5651, 5925, 6167, 6173, 5917
2110, 5655, 168, 169, 5609, 6365, 208, 6366, 6033
2111, 5609, 169, 170, 5587, 6366, 209, 6037, 6035
2112, 5577, 5582, 170, 171, 6040, 6038, 210, 6367
2113, 5574, 5577, 171, 172, 6046, 6367, 211, 6368
2114, 5648, 5539, 5541, 5573, 6254, 5793, 6179, 6369
2115, 5466, 174, 175, 5562, 5768, 214, 6370, 6053
2116, 5562, 175, 176, 5544, 6370, 215, 6371, 6056
2117, 5544, 176, 177, 5534, 6371, 216, 6372, 6062
2118, 5534, 177, 178, 5515, 6372, 217, 6373, 6064
2119, 5515, 178, 179, 5511, 6373, 218, 6374, 6068
2120, 5511, 179, 180, 5505, 6374, 219, 6375, 6069
2121, 5499, 5461, 5460, 5504, 5885, 6073, 6180, 5887
2122, 5505, 180, 181, 5500, 6375, 220, 6230, 6071
2123, 5546, 182, 183, 5487, 6231, 222, 6314, 6075
2124, 5625, 5758, 331, 330, 6376, 6377, 370, 6305
2125, 5695, 5699, 5706, 5629, 6137, 6378, 6139, 5987
2126, 5727, 184, 185, 5477, 6313, 224, 6379, 6084
2127, 5722, 5718, 334, 333, 6148, 6380, 373, 6262
2128, 5718, 5715, 335, 334, 6145, 6381, 374, 6380
2129, 5715, 5711, 336, 335, 6143, 6382, 375, 6381
2130, 5706, 337, 336, 5707, 6383, 376, 6384, 6140
2131, 5525, 5630, 5623, 5526, 6220, 5837, 6385, 6219
2132, 5699, 338, 337, 5706, 6386, 377, 6383, 6378
2133, 5627, 5707, 336, 5711, 5991, 6384, 6382, 6142
2134, 5696, 339, 338, 5699, 6387, 378, 6386, 6136
2135, 5527, 5528, 5683, 5529, 5957, 6240, 6214, 6218
2136, 5692, 340, 339, 5696, 6388, 379, 6387, 6133
2137, 5455, 5640, 5641, 5454, 6389, 6043, 6390, 6182
2138, 5685, 341, 340, 5692, 6391, 380, 6388, 6131
2139, 5681, 342, 341, 5685, 6392, 381, 6391, 6129
2140, 5611, 343, 342, 5681, 6393, 382, 6392, 6126
2141, 5455, 5551, 5549, 5640, 6239, 5796, 6328, 6389
2142, 5606, 344, 343, 5611, 6394, 383, 6393, 6123
2143, 5456, 360, 359, 5450, 6395, 399, 6396, 6086
2144, 5584, 345, 344, 5606, 6397, 384, 6394, 6120
2145, 5570, 346, 345, 5584, 6398, 385, 6397, 6117
2146, 5450, 359, 358, 5447, 6396, 398, 6399, 6089
2147, 5446, 5621, 5547, 5449, 6187, 6059, 6184, 5860
2148, 5565, 347, 346, 5570, 6400, 386, 6398, 6115
2149, 5447, 358, 357, 5444, 6399, 397, 6401, 6091
2150, 5559, 348, 347, 5565, 6402, 387, 6400, 6113
2151, 5444, 357, 356, 5453, 6401, 396, 6096, 6094
2152, 5520, 349, 348, 5559, 5787, 388, 6402, 6327
2153, 5636, 5563, 5495, 5507, 6250, 5803, 6202, 6403
2154, 5473, 5464, 356, 355, 6099, 6097, 395, 6404
2155, 5508, 5502, 352, 351, 6109, 6405, 391, 6406
2156, 5483, 5473, 355, 354, 6101, 6404, 394, 6407
2157, 5502, 5491, 353, 352, 6106, 6408, 392, 6405
2158, 5491, 5483, 354, 353, 6103, 6407, 393, 6408
2159, 5596, 5644, 5761, 186, 5867, 6409, 6410, 6308
2160, 5732, 5735, 5739, 5753, 6411, 6412, 6323, 6306
2161, 5669, 5650, 5668, 5675, 6164, 6413, 6414, 6415
2162, 5673, 5675, 5668, 5687, 5928, 6414, 6416, 6233
2163, 5725, 5572, 5467, 5466, 6417, 6418, 5766, 6052
2164, 5595, 362, 361, 5755, 6334, 401, 6419, 6330
2165, 5454, 5641, 5755, 5456, 6390, 6331, 6420, 6085
2166, 5732, 5731, 5712, 5735, 6160, 6421, 6422, 6411
2167, 360, 5456, 5755, 361, 6395, 6420, 6419, 400
2168, 5650, 5649, 5760, 5668, 6303, 6423, 6424, 6413
2169, 5760, 5516, 5518, 5756, 6425, 6426, 6348, 6427
2170, 5760, 5756, 5687, 5668, 6427, 6347, 6416, 6424
2171, 5516, 5760, 5649, 5734, 6425, 6423, 6428, 6265
2172, 5643, 5713, 5549, 5550, 6007, 6329, 5795, 6300
2173, 5571, 5572, 5725, 5573, 6429, 6417, 6430, 6178
2174, 5746, 5759, 5643, 5617, 6431, 6432, 6299, 6285
2175, 5746, 5739, 5735, 5759, 6275, 6412, 6433, 6431
2176, 5644, 5616, 5550, 5757, 5866, 6298, 6434, 6435
2177, 5724, 5758, 5625, 5723, 6436, 6376, 6437, 6156
2178, 332, 331, 5758, 5724, 371, 6377, 6436, 6263
2179, 5560, 5648, 5573, 5725, 5903, 6369, 6430, 6055
2180, 5474, 5477, 5761, 5475, 6083, 6438, 6439, 5871
2181, 5757, 5475, 5761, 5644, 6440, 6439, 6409, 6435
2182, 186, 5761, 5477, 185, 6410, 6438, 6379, 225
2183, 5601, 154, 155, 5748, 6312, 194, 6244, 6362
2184, 351, 350, 5521, 5508, 390, 5786, 6441, 6406
2185, 5501, 5508, 5521, 5506, 6110, 6441, 6442, 6443
2186, 172, 173, 5467, 5574, 212, 5767, 6444, 6368
2187, 5748, 5726, 5457, 5708, 6246, 6321, 6445, 6363
2188, 5475, 5757, 5550, 5476, 6440, 6434, 5798, 5868
2189, 5708, 5709, 5649, 5618, 6446, 6447, 6304, 6364
2190, 5720, 5723, 5752, 5517, 6154, 6448, 6449, 6227
2191, 5501, 5506, 5754, 5507, 6443, 6450, 6451, 6200
2192, 5521, 5520, 5754, 5506, 5785, 6326, 6450, 6442
2193, 5554, 5636, 5507, 5754, 5846, 6403, 6451, 6325
2194, 5612, 5752, 5723, 5625, 6349, 6448, 6437, 6301
2195, 5516, 5517, 5752, 5518, 6264, 6449, 6350, 6426
2196, 5649, 5709, 5458, 5734, 6447, 6452, 6453, 6428
2197, 5708, 5457, 5458, 5709, 6445, 6318, 6452, 6446
2198, 5729, 5734, 5458, 5465, 6266, 6453, 6320, 6150
2199, 5571, 5574, 5467, 5572, 6047, 6444, 6418, 6429
2200, 5675, 5672, 5670, 5669, 5927, 6454, 6269, 6415
2201, 5672, 315, 314, 5670, 6238, 322, 6241, 6454
2202, 5614, 5719, 5712, 5731, 6045, 6005, 6421, 6297
2203, 5759, 5735, 5712, 5643, 6433, 6422, 6004, 6432
2204, 5626, 5557, 5526, 5623, 6455, 6172, 6385, 5970
2205, 5626, 5660, 5558, 5557, 5966, 6170, 5920, 6455
*ELSET,ELSET=base_plate_center_YFIX
1, 2, 3, 4, 5, 6, 7, 8, 9, 10, 
11, 12, 13, 14, 15, 16, 17, 18, 19, 20, 
21, 22, 23, 24, 25, 26, 27, 28, 29, 30, 
31, 32, 33, 34, 35, 36, 37, 38, 39, 40, 
*ELSET,ELSET=skir_sless_top_LOAD
41, 42, 43, 44, 45, 46, 47, 48, 49, 50, 
51, 52, 53, 54, 55, 56, 57, 58, 59, 60, 
61, 62, 63, 64, 65, 66, 67, 68, 69, 70, 
71, 72, 73, 74, 75, 76, 77, 78, 79, 80, 
*ELSET,ELSET=skir_sless
1835, 1836, 1837, 1838, 1839, 1840, 1841, 1842, 1843, 1844, 
1845, 1846, 1847, 1848, 1849, 1850, 1851, 1852, 1853, 1854, 
1855, 1856, 1857, 1858, 1859, 1860, 1861, 1862, 1863, 1864, 
1865, 1866, 1867, 1868, 1869, 1870, 1871, 1872, 1873, 1874, 
1875, 1876, 1877, 1878, 1879, 1880, 1881, 1882, 1883, 1884, 
1885, 1886, 1887, 1888, 1889, 1890, 1891, 1892, 1893, 1894, 
1895, 1896, 1897, 1898, 1899, 1900, 1901, 1902, 1903, 1904, 
1905, 1906, 1907, 1908, 1909, 1910, 1911, 1912, 1913, 1914, 
1915, 1916, 1917, 1918, 1919, 1920, 1921, 1922, 1923, 1924, 
1925, 1926, 1927, 1928, 1929, 1930, 1931, 1932, 1933, 1934, 
1935, 1936, 1937, 1938, 1939, 1940, 1941, 1942, 1943, 1944, 
1945, 1946, 1947, 1948, 1949, 1950, 1951, 1952, 1953, 1954, 
1955, 1956, 1957, 1958, 1959, 1960, 1961, 1962, 1963, 1964, 
1965, 1966, 1967, 1968, 1969, 1970, 1971, 1972, 1973, 1974, 
1975, 1976, 1977, 1978, 1979, 1980, 1981, 1982, 1983, 1984, 
1985, 1986, 1987, 1988, 1989, 1990, 1991, 1992, 1993, 1994, 
1995, 1996, 1997, 1998, 1999, 2000, 2001, 2002, 2003, 2004, 
2005, 2006, 2007, 2008, 2009, 2010, 2011, 2012, 2013, 2014, 
2015, 2016, 2017, 2018, 2019, 2020, 2021, 2022, 2023, 2024, 
2025, 2026, 2027, 2028, 2029, 2030, 2031, 2032, 2033, 2034, 
2035, 2036, 2037, 2038, 2039, 2040, 2041, 2042, 2043, 2044, 
2045, 2046, 2047, 2048, 2049, 2050, 2051, 2052, 2053, 2054, 
2055, 2056, 2057, 2058, 2059, 2060, 2061, 2062, 2063, 2064, 
2065, 2066, 2067, 2068, 2069, 2070, 2071, 2072, 2073, 2074, 
2075, 2076, 2077, 2078, 2079, 2080, 2081, 2082, 2083, 2084, 
2085, 2086, 2087, 2088, 2089, 2090, 2091, 2092, 2093, 2094, 
2095, 2096, 2097, 2098, 2099, 2100, 2101, 2102, 2103, 2104, 
2105, 2106, 2107, 2108, 2109, 2110, 2111, 2112, 2113, 2114, 
2115, 2116, 2117, 2118, 2119, 2120, 2121, 2122, 2123, 2124, 
2125, 2126, 2127, 2128, 2129, 2130, 2131, 2132, 2133, 2134, 
2135, 2136, 2137, 2138, 2139, 2140, 2141, 2142, 2143, 2144, 
2145, 2146, 2147, 2148, 2149, 2150, 2151, 2152, 2153, 2154, 
2155, 2156, 2157, 2158, 2159, 2160, 2161, 2162, 2163, 2164, 
2165, 2166, 2167, 2168, 2169, 2170, 2171, 2172, 2173, 2174, 
2175, 2176, 2177, 2178, 2179, 2180, 2181, 2182, 2183, 2184, 
2185, 2186, 2187, 2188, 2189, 2190, 2191, 2192, 2193, 2194, 
2195, 2196, 2197, 2198, 2199, 2200, 2201, 2202, 2203, 2204, 
2205, 
*ELSET,ELSET=skir_carbo_mid
81, 82, 83, 84, 85, 86, 87, 88, 89, 90, 
91, 92, 93, 94, 95, 96, 97, 98, 99, 100, 
101, 102, 103, 104, 105, 106, 107, 108, 109, 110, 
111, 112, 113, 114, 115, 116, 117, 118, 119, 120, 
121, 122, 123, 124, 125, 126, 127, 128, 129, 130, 
131, 132, 133, 134, 135, 136, 137, 138, 139, 140, 
141, 142, 143, 144, 145, 146, 147, 148, 149, 150, 
151, 152, 153, 154, 155, 156, 157, 158, 159, 160, 
161, 162, 163, 164, 165, 166, 167, 168, 169, 170, 
171, 172, 173, 174, 175, 176, 177, 178, 179, 180, 
181, 182, 183, 184, 185, 186, 187, 188, 189, 190, 
191, 192, 193, 194, 195, 196, 197, 198, 199, 200, 
201, 202, 203, 204, 205, 206, 207, 208, 209, 210, 
211, 212, 213, 214, 215, 216, 217, 218, 219, 220, 
221, 222, 223, 224, 225, 226, 227, 228, 229, 230, 
231, 232, 233, 234, 235, 236, 237, 238, 239, 240, 
241, 242, 243, 244, 245, 246, 247, 248, 249, 250, 
251, 252, 253, 254, 255, 256, 257, 258, 259, 260, 
261, 262, 263, 264, 265, 266, 267, 268, 269, 270, 
271, 272, 273, 274, 275, 276, 277, 278, 279, 280, 
281, 282, 283, 284, 285, 286, 287, 288, 289, 290, 
291, 292, 293, 294, 295, 296, 297, 298, 299, 300, 
301, 302, 303, 304, 305, 306, 307, 308, 309, 310, 
311, 312, 313, 314, 315, 316, 317, 318, 319, 320, 
321, 322, 323, 324, 325, 326, 327, 328, 329, 330, 
331, 332, 333, 334, 335, 336, 337, 338, 339, 340, 
341, 342, 343, 344, 345, 346, 347, 348, 349, 350, 
351, 352, 353, 354, 355, 356, 357, 358, 359, 360, 
361, 362, 363, 364, 365, 366, 367, 368, 369, 370, 
371, 372, 373, 374, 375, 376, 377, 378, 379, 380, 
381, 382, 383, 384, 385, 386, 387, 388, 389, 390, 
391, 392, 393, 394, 395, 396, 397, 398, 399, 400, 
401, 402, 403, 404, 405, 406, 407, 408, 409, 410, 
411, 412, 413, 414, 415, 416, 417, 418, 419, 420, 
421, 422, 423, 424, 425, 426, 427, 428, 429, 430, 
431, 432, 433, 434, 435, 436, 437, 438, 439, 440, 
441, 442, 443, 444, 445, 446, 447, 448, 449, 450, 
451, 452, 453, 454, 455, 456, 457, 458, 459, 460, 
461, 462, 463, 464, 465, 466, 467, 468, 469, 470, 
471, 472, 473, 474, 475, 476, 477, 478, 479, 480, 
481, 482, 483, 484, 485, 486, 487, 488, 489, 490, 
491, 492, 493, 494, 495, 496, 497, 498, 499, 500, 
501, 502, 503, 504, 505, 506, 507, 508, 509, 510, 
511, 512, 513, 514, 515, 516, 517, 518, 519, 520, 
521, 522, 523, 524, 525, 526, 527, 528, 529, 530, 
531, 532, 533, 534, 535, 536, 537, 538, 539, 540, 
541, 542, 543, 544, 545, 546, 547, 548, 549, 550, 
551, 552, 553, 554, 555, 556, 557, 558, 559, 560, 
561, 562, 563, 564, 565, 566, 567, 568, 569, 570, 
571, 572, 573, 574, 575, 576, 577, 578, 579, 580, 
581, 582, 583, 584, 585, 586, 587, 588, 589, 590, 
591, 592, 593, 594, 595, 596, 597, 598, 599, 600, 
601, 602, 603, 604, 605, 606, 607, 608, 609, 610, 
611, 612, 613, 614, 615, 616, 617, 618, 619, 620, 
621, 622, 623, 624, 625, 626, 627, 628, 629, 630, 
631, 632, 633, 634, 635, 636, 637, 638, 639, 640, 
641, 642, 643, 644, 645, 646, 647, 648, 649, 650, 
651, 652, 653, 654, 655, 656, 657, 658, 659, 660, 
661, 662, 663, 664, 665, 666, 667, 668, 669, 670, 
671, 672, 673, 674, 675, 676, 677, 678, 679, 680, 
681, 682, 683, 684, 685, 686, 687, 688, 689, 690, 
691, 692, 693, 694, 695, 696, 697, 698, 699, 700, 
701, 702, 703, 704, 705, 706, 707, 708, 709, 710, 
711, 712, 713, 714, 715, 716, 717, 718, 719, 720, 
721, 722, 723, 724, 725, 726, 727, 728, 729, 730, 
731, 732, 733, 734, 735, 736, 737, 738, 739, 740, 
741, 742, 743, 744, 745, 746, 747, 748, 749, 750, 
751, 752, 753, 754, 755, 756, 757, 758, 759, 760, 
761, 762, 763, 764, 765, 766, 767, 768, 769, 770, 
771, 772, 773, 774, 775, 776, 777, 778, 779, 780, 
781, 782, 783, 784, 785, 786, 787, 788, 789, 790, 
791, 792, 793, 794, 795, 796, 797, 798, 799, 800, 
801, 802, 803, 804, 805, 806, 807, 808, 809, 810, 
811, 812, 813, 814, 815, 816, 817, 818, 819, 820, 
821, 822, 823, 824, 825, 826, 827, 828, 829, 830, 
831, 832, 833, 834, 835, 836, 837, 838, 839, 840, 
841, 842, 843, 844, 845, 846, 847, 848, 849, 850, 
851, 852, 853, 854, 855, 856, 857, 858, 859, 860, 
861, 862, 863, 864, 865, 866, 867, 868, 869, 870, 
871, 872, 873, 874, 875, 876, 877, 878, 879, 880, 
881, 882, 883, 884, 885, 886, 887, 888, 889, 890, 
891, 892, 893, 894, 895, 896, 897, 898, 899, 900, 
901, 902, 903, 904, 905, 906, 907, 908, 909, 910, 
911, 912, 913, 914, 915, 916, 917, 918, 919, 920, 
921, 922, 923, 924, 925, 926, 927, 928, 929, 930, 
931, 932, 933, 934, 935, 936, 937, 938, 939, 940, 
941, 942, 943, 944, 945, 946, 947, 948, 949, 950, 
951, 952, 953, 954, 955, 956, 957, 958, 959, 960, 
961, 962, 963, 964, 965, 966, 967, 968, 969, 970, 
971, 972, 973, 974, 975, 976, 977, 978, 979, 980, 
981, 982, 983, 984, 985, 986, 987, 988, 989, 990, 
991, 992, 993, 994, 995, 996, 997, 998, 999, 1000, 
1001, 1002, 1003, 1004, 1005, 1006, 1007, 1008, 1009, 1010, 
1011, 1012, 1013, 1014, 1015, 1016, 1017, 1018, 1019, 1020, 
1021, 1022, 1023, 1024, 1025, 1026, 1027, 1028, 1029, 1030, 
1031, 1032, 1033, 1034, 1035, 1036, 1037, 1038, 1039, 1040, 
1041, 1042, 1043, 1044, 1045, 1046, 1047, 1048, 1049, 1050, 
1051, 1052, 1053, 1054, 1055, 1056, 1057, 1058, 1059, 1060, 
1061, 1062, 1063, 1064, 1065, 1066, 1067, 1068, 1069, 1070, 
1071, 1072, 1073, 1074, 1075, 1076, 1077, 1078, 1079, 1080, 
1081, 1082, 1083, 1084, 1085, 1086, 1087, 1088, 1089, 1090, 
1091, 1092, 1093, 1094, 1095, 1096, 1097, 1098, 1099, 1100, 
1101, 1102, 1103, 1104, 1105, 1106, 1107, 1108, 1109, 1110, 
1111, 1112, 1113, 1114, 1115, 1116, 1117, 1118, 1119, 1120, 
1121, 1122, 1123, 1124, 1125, 1126, 1127, 1128, 1129, 1130, 
1131, 1132, 1133, 1134, 1135, 1136, 1137, 1138, 1139, 1140, 
1141, 1142, 1143, 1144, 1145, 1146, 1147, 1148, 1149, 1150, 
1151, 1152, 1153, 1154, 1155, 1156, 1157, 1158, 1159, 1160, 
1161, 1162, 1163, 1164, 1165, 1166, 1167, 1168, 1169, 1170, 
1171, 1172, 1173, 1174, 1175, 1176, 1177, 1178, 1179, 1180, 
1181, 1182, 1183, 1184, 1185, 1186, 1187, 1188, 1189, 1190, 
1191, 1192, 1193, 1194, 1195, 1196, 1197, 1198, 1199, 1200, 
1201, 1202, 1203, 1204, 1205, 1206, 1207, 1208, 1209, 1210, 
1211, 1212, 1213, 1214, 1215, 1216, 1217, 1218, 1219, 1220, 
1221, 1222, 1223, 1224, 1225, 1226, 1227, 1228, 1229, 1230, 
1231, 1232, 1233, 1234, 1235, 1236, 1237, 1238, 1239, 1240, 
1241, 1242, 1243, 1244, 1245, 1246, 1247, 1248, 1249, 1250, 
1251, 1252, 1253, 1254, 1255, 1256, 1257, 1258, 1259, 1260, 
1261, 1262, 1263, 1264, 1265, 1266, 1267, 1268, 1269, 1270, 
1271, 1272, 1273, 1274, 1275, 1276, 1277, 1278, 1279, 1280, 
1281, 1282, 1283, 1284, 1285, 1286, 1287, 1288, 1289, 1290, 
1291, 1292, 1293, 1294, 1295, 1296, 1297, 1298, 1299, 1300, 
1301, 1302, 1303, 1304, 1305, 1306, 1307, 1308, 1309, 1310, 
1311, 1312, 1313, 1314, 1315, 1316, 1317, 1318, 1319, 1320, 
1321, 1322, 1323, 1324, 1325, 1326, 1327, 1328, 1329, 1330, 
1331, 1332, 1333, 1334, 1335, 1336, 1337, 1338, 1339, 1340, 
1341, 1342, 1343, 1344, 1345, 1346, 1347, 1348, 1349, 1350, 
1351, 1352, 1353, 1354, 1355, 1356, 1357, 1358, 1359, 1360, 
1361, 1362, 1363, 1364, 1365, 1366, 1367, 1368, 1369, 1370, 
1371, 1372, 1373, 1374, 1375, 1376, 1377, 1378, 1379, 1380, 
1381, 1382, 1383, 1384, 1385, 1386, 1387, 1388, 1389, 1390, 
1391, 1392, 1393, 1394, 1395, 1396, 1397, 1398, 1399, 1400, 
1401, 1402, 1403, 1404, 1405, 1406, 1407, 1408, 1409, 1410, 
1411, 1412, 1413, 1414, 1415, 1416, 1417, 1418, 1419, 1420, 
1421, 1422, 1423, 1424, 1425, 1426, 1427, 1428, 1429, 1430, 
1431, 1432, 1433, 1434, 1435, 1436, 1437, 1438, 1439, 1440, 
1441, 1442, 1443, 1444, 1445, 1446, 1447, 1448, 1449, 1450, 
1451, 1452, 1453, 1454, 1455, 1456, 1457, 1458, 1459, 1460, 
1461, 1462, 1463, 1464, 1465, 1466, 1467, 1468, 1469, 1470, 
1471, 1472, 1473, 1474, 1475, 1476, 1477, 1478, 1479, 1480, 
1481, 1482, 1483, 1484, 1485, 1486, 1487, 1488, 1489, 1490, 
1491, 1492, 1493, 1494, 1495, 1496, 1497, 1498, 1499, 1500, 
1501, 1502, 1503, 1504, 1505, 1506, 1507, 1508, 1509, 1510, 
1511, 1512, 1513, 1514, 1515, 1516, 1517, 1518, 1519, 1520, 
1521, 1522, 1523, 1524, 1525, 1526, 1527, 1528, 1529, 1530, 
1531, 1532, 1533, 1534, 1535, 1536, 1537, 1538, 1539, 1540, 
1541, 1542, 1543, 1544, 1545, 1546, 1547, 1548, 1549, 1550, 
1551, 1552, 1553, 1554, 1555, 1556, 1557, 1558, 1559, 1560, 
1561, 1562, 1563, 1564, 1565, 1566, 1567, 1568, 1569, 1570, 
1571, 1572, 1573, 1574, 1575, 1576, 1577, 1578, 1579, 1580, 
1581, 1582, 1583, 1584, 1585, 1586, 1587, 1588, 1589, 1590, 
1591, 1592, 1593, 1594, 1595, 1596, 1597, 1598, 1599, 1600, 
1601, 1602, 1603, 1604, 1605, 1606, 1607, 1608, 1609, 1610, 
1611, 1612, 1613, 1614, 1615, 1616, 1617, 1618, 1619, 1620, 
1621, 1622, 1623, 1624, 1625, 1626, 1627, 1628, 1629, 1630, 
1631, 1632, 1633, 1634, 1635, 1636, 1637, 1638, 1639, 1640, 
1641, 1642, 1643, 1644, 1645, 1646, 1647, 1648, 1649, 1650, 
1651, 1652, 1653, 1654, 1655, 1656, 1657, 1658, 1659, 1660, 
1661, 1662, 1663, 1664, 1665, 1666, 1667, 1668, 1669, 1670, 
1671, 1672, 1673, 1674, 1675, 1676, 1677, 1678, 1679, 1680, 
1681, 1682, 1683, 1684, 1685, 1686, 1687, 1688, 1689, 1690, 
1691, 1692, 1693, 1694, 1695, 1696, 1697, 1698, 1699, 1700, 
1701, 1702, 1703, 1704, 1705, 1706, 1707, 1708, 1709, 1710, 
1711, 1712, 1713, 1714, 1715, 1716, 1717, 1718, 1719, 1720, 
1721, 1722, 1723, 1724, 1725, 1726, 1727, 1728, 1729, 1730, 
1731, 1732, 1733, 1734, 1735, 1736, 1737, 1738, 1739, 1740, 
1741, 1742, 1743, 1744, 1745, 1746, 1747, 1748, 1749, 1750, 
1751, 1752, 1753, 
*ELSET,ELSET=skir_carbo_und
1754, 1755, 1756, 1757, 1758, 1759, 1760, 1761, 1762, 1763, 
1764, 1765, 1766, 1767, 1768, 1769, 1770, 1771, 1772, 1773, 
1774, 1775, 1776, 1777, 1778, 1779, 1780, 1781, 1782, 1783, 
1784, 1785, 1786, 1787, 1788, 1789, 1790, 1791, 1792, 1793, 
1794, 1795, 1796, 1797, 1798, 1799, 1800, 1801, 1802, 1803, 
1804, 1805, 1806, 1807, 1808, 1809, 1810, 1811, 1812, 1813, 
1814, 1815, 1816, 1817, 1818, 1819, 1820, 1821, 1822, 1823, 
1824, 1825, 1826, 1827, 1828, 1829, 1830, 1831, 1832, 1833, 
1834, 
*NSET,NSET=base_plate_center_YFIX
3, 230, 231, 232, 233, 234, 235, 236, 237, 238, 
239, 240, 241, 242, 243, 244, 245, 246, 247, 248, 
249, 250, 251, 252, 253, 254, 255, 256, 257, 258, 
259, 260, 261, 262, 263, 264, 265, 266, 267, 268, 
269, 270, 271, 272, 273, 274, 275, 276, 277, 278, 
279, 280, 281, 282, 283, 284, 285, 286, 287, 288, 
289, 290, 291, 292, 293, 294, 295, 296, 297, 298, 
299, 300, 301, 302, 303, 304, 305, 306, 307, 308, 
*NSET,NSET=skir_sless_top_LOAD
4, 327, 328, 329, 330, 331, 332, 333, 334, 335, 
336, 337, 338, 339, 340, 341, 342, 343, 344, 345, 
346, 347, 348, 349, 350, 351, 352, 353, 354, 355, 
356, 357, 358, 359, 360, 361, 362, 363, 364, 365, 
366, 367, 368, 369, 370, 371, 372, 373, 374, 375, 
376, 377, 378, 379, 380, 381, 382, 383, 384, 385, 
386, 387, 388, 389, 390, 391, 392, 393, 394, 395, 
396, 397, 398, 399, 400, 401, 402, 403, 404, 405, 
*NSET,NSET=skir_sless
2, 4, 151, 152, 153, 154, 155, 156, 157, 158, 
159, 160, 161, 162, 163, 164, 165, 166, 167, 168, 
169, 170, 171, 172, 173, 174, 175, 176, 177, 178, 
179, 180, 181, 182, 183, 184, 185, 186, 187, 188, 
189, 190, 191, 192, 193, 194, 195, 196, 197, 198, 
199, 200, 201, 202, 203, 204, 205, 206, 207, 208, 
209, 210, 211, 212, 213, 214, 215, 216, 217, 218, 
219, 220, 221, 222, 223, 224, 225, 226, 227, 228, 
229, 312, 313, 314, 315, 316, 317, 318, 319, 320, 
321, 322, 323, 324, 325, 326, 327, 328, 329, 330, 
331, 332, 333, 334, 335, 336, 337, 338, 339, 340, 
341, 342, 343, 344, 345, 346, 347, 348, 349, 350, 
351, 352, 353, 354, 355, 356, 357, 358, 359, 360, 
361, 362, 363, 364, 365, 366, 367, 368, 369, 370, 
371, 372, 373, 374, 375, 376, 377, 378, 379, 380, 
381, 382, 383, 384, 385, 386, 387, 388, 389, 390, 
391, 392, 393, 394, 395, 396, 397, 398, 399, 400, 
401, 402, 403, 404, 405, 5438, 5439, 5440, 5441, 5442, 
5443, 5444, 5445, 5446, 5447, 5448, 5449, 5450, 5451, 5452, 
5453, 5454, 5455, 5456, 5457, 5458, 5459, 5460, 5461, 5462, 
5463, 5464, 5465, 5466, 5467, 5468, 5469, 5470, 5471, 5472, 
5473, 5474, 5475, 5476, 5477, 5478, 5479, 5480, 5481, 5482, 
5483, 5484, 5485, 5486, 5487, 5488, 5489, 5490, 5491, 5492, 
5493, 5494, 5495, 5496, 5497, 5498, 5499, 5500, 5501, 5502, 
5503, 5504, 5505, 5506, 5507, 5508, 5509, 5510, 5511, 5512, 
5513, 5514, 5515, 5516, 5517, 5518, 5519, 5520, 5521, 5522, 
5523, 5524, 5525, 5526, 5527, 5528, 5529, 5530, 5531, 5532, 
5533, 5534, 5535, 5536, 5537, 5538, 5539, 5540, 5541, 5542, 
5543, 5544, 5545, 5546, 5547, 5548, 5549, 5550, 5551, 5552, 
5553, 5554, 5555, 5556, 5557, 5558, 5559, 5560, 5561, 5562, 
5563, 5564, 5565, 5566, 5567, 5568, 5569, 5570, 5571, 5572, 
5573, 5574, 5575, 5576, 5577, 5578, 5579, 5580, 5581, 5582, 
5583, 5584, 5585, 5586, 5587, 5588, 5589, 5590, 5591, 5592, 
5593, 5594, 5595, 5596, 5597, 5598, 5599, 5600, 5601, 5602, 
5603, 5604, 5605, 5606, 5607, 5608, 5609, 5610, 5611, 5612, 
5613, 5614, 5615, 5616, 5617, 5618, 5619, 5620, 5621, 5622, 
5623, 5624, 5625, 5626, 5627, 5628, 5629, 5630, 5631, 5632, 
5633, 5634, 5635, 5636, 5637, 5638, 5639, 5640, 5641, 5642, 
5643, 5644, 5645, 5646, 5647, 5648, 5649, 5650, 5651, 5652, 
5653, 5654, 5655, 5656, 5657, 5658, 5659, 5660, 5661, 5662, 
5663, 5664, 5665, 5666, 5667, 5668, 5669, 5670, 5671, 5672, 
5673, 5674, 5675, 5676, 5677, 5678, 5679, 5680, 5681, 5682, 
5683, 5684, 5685, 5686, 5687, 5688, 5689, 5690, 5691, 5692, 
5693, 5694, 5695, 5696, 5697, 5698, 5699, 5700, 5701, 5702, 
5703, 5704, 5705, 5706, 5707, 5708, 5709, 5710, 5711, 5712, 
5713, 5714, 5715, 5716, 5717, 5718, 5719, 5720, 5721, 5722, 
5723, 5724, 5725, 5726, 5727, 5728, 5729, 5730, 5731, 5732, 
5733, 5734, 5735, 5736, 5737, 5738, 5739, 5740, 5741, 5742, 
5743, 5744, 5745, 5746, 5747, 5748, 5749, 5750, 5751, 5752, 
5753, 5754, 5755, 5756, 5757, 5758, 5759, 5760, 5761, 5762, 
5763, 5764, 5765, 5766, 5767, 5768, 5769, 5770, 5771, 5772, 
5773, 5774, 5775, 5776, 5777, 5778, 5779, 5780, 5781, 5782, 
5783, 5784, 5785, 5786, 5787, 5788, 5789, 5790, 5791, 5792, 
5793, 5794, 5795, 5796, 5797, 5798, 5799, 5800, 5801, 5802, 
5803, 5804, 5805, 5806, 5807, 5808, 5809, 5810, 5811, 5812, 
5813, 5814, 5815, 5816, 5817, 5818, 5819, 5820, 5821, 5822, 
5823, 5824, 5825, 5826, 5827, 5828, 5829, 5830, 5831, 5832, 
5833, 5834, 5835, 5836, 5837, 5838, 5839, 5840, 5841, 5842, 
5843, 5844, 5845, 5846, 5847, 5848, 5849, 5850, 5851, 5852, 
5853, 5854, 5855, 5856, 5857, 5858, 5859, 5860, 5861, 5862, 
5863, 5864, 5865, 5866, 5867, 5868, 5869, 5870, 5871, 5872, 
5873, 5874, 5875, 5876, 5877, 5878, 5879, 5880, 5881, 5882, 
5883, 5884, 5885, 5886, 5887, 5888, 5889, 5890, 5891, 5892, 
5893, 5894, 5895, 5896, 5897, 5898, 5899, 5900, 5901, 5902, 
5903, 5904, 5905, 5906, 5907, 5908, 5909, 5910, 5911, 5912, 
5913, 5914, 5915, 5916, 5917, 5918, 5919, 5920, 5921, 5922, 
5923, 5924, 5925, 5926, 5927, 5928, 5929, 5930, 5931, 5932, 
5933, 5934, 5935, 5936, 5937, 5938, 5939, 5940, 5941, 5942, 
5943, 5944, 5945, 5946, 5947, 5948, 5949, 5950, 5951, 5952, 
5953, 5954, 5955, 5956, 5957, 5958, 5959, 5960, 5961, 5962, 
5963, 5964, 5965, 5966, 5967, 5968, 5969, 5970, 5971, 5972, 
5973, 5974, 5975, 5976, 5977, 5978, 5979, 5980, 5981, 5982, 
5983, 5984, 5985, 5986, 5987, 5988, 5989, 5990, 5991, 5992, 
5993, 5994, 5995, 5996, 5997, 5998, 5999, 6000, 6001, 6002, 
6003, 6004, 6005, 6006, 6007, 6008, 6009, 6010, 6011, 6012, 
6013, 6014, 6015, 6016, 6017, 6018, 6019, 6020, 6021, 6022, 
6023, 6024, 6025, 6026, 6027, 6028, 6029, 6030, 6031, 6032, 
6033, 6034, 6035, 6036, 6037, 6038, 6039, 6040, 6041, 6042, 
6043, 6044, 6045, 6046, 6047, 6048, 6049, 6050, 6051, 6052, 
6053, 6054, 6055, 6056, 6057, 6058, 6059, 6060, 6061, 6062, 
6063, 6064, 6065, 6066, 6067, 6068, 6069, 6070, 6071, 6072, 
6073, 6074, 6075, 6076, 6077, 6078, 6079, 6080, 6081, 6082, 
6083, 6084, 6085, 6086, 6087, 6088, 6089, 6090, 6091, 6092, 
6093, 6094, 6095, 6096, 6097, 6098, 6099, 6100, 6101, 6102, 
6103, 6104, 6105, 6106, 6107, 6108, 6109, 6110, 6111, 6112, 
6113, 6114, 6115, 6116, 6117, 6118, 6119, 6120, 6121, 6122, 
6123, 6124, 6125, 6126, 6127, 6128, 6129, 6130, 6131, 6132, 
6133, 6134, 6135, 6136, 6137, 6138, 6139, 6140, 6141, 6142, 
6143, 6144, 6145, 6146, 6147, 6148, 6149, 6150, 6151, 6152, 
6153, 6154, 6155, 6156, 6157, 6158, 6159, 6160, 6161, 6162, 
6163, 6164, 6165, 6166, 6167, 6168, 6169, 6170, 6171, 6172, 
6173, 6174, 6175, 6176, 6177, 6178, 6179, 6180, 6181, 6182, 
6183, 6184, 6185, 6186, 6187, 6188, 6189, 6190, 6191, 6192, 
6193, 6194, 6195, 6196, 6197, 6198, 6199, 6200, 6201, 6202, 
6203, 6204, 6205, 6206, 6207, 6208, 6209, 6210, 6211, 6212, 
6213, 6214, 6215, 6216, 6217, 6218, 6219, 6220, 6221, 6222, 
6223, 6224, 6225, 6226, 6227, 6228, 6229, 6230, 6231, 6232, 
6233, 6234, 6235, 6236, 6237, 6238, 6239, 6240, 6241, 6242, 
6243, 6244, 6245, 6246, 6247, 6248, 6249, 6250, 6251, 6252, 
6253, 6254, 6255, 6256, 6257, 6258, 6259, 6260, 6261, 6262, 
6263, 6264, 6265, 6266, 6267, 6268, 6269, 6270, 6271, 6272, 
6273, 6274, 6275, 6276, 6277, 6278, 6279, 6280, 6281, 6282, 
6283, 6284, 6285, 6286, 6287, 6288, 6289, 6290, 6291, 6292, 
6293, 6294, 6295, 6296, 6297, 6298, 6299, 6300, 6301, 6302, 
6303, 6304, 6305, 6306, 6307, 6308, 6309, 6310, 6311, 6312, 
6313, 6314, 6315, 6316, 6317, 6318, 6319, 6320, 6321, 6322, 
6323, 6324, 6325, 6326, 6327, 6328, 6329, 6330, 6331, 6332, 
6333, 6334, 6335, 6336, 6337, 6338, 6339, 6340, 6341, 6342, 
6343, 6344, 6345, 6346, 6347, 6348, 6349, 6350, 6351, 6352, 
6353, 6354, 6355, 6356, 6357, 6358, 6359, 6360, 6361, 6362, 
6363, 6364, 6365, 6366, 6367, 6368, 6369, 6370, 6371, 6372, 
6373, 6374, 6375, 6376, 6377, 6378, 6379, 6380, 6381, 6382, 
6383, 6384, 6385, 6386, 6387, 6388, 6389, 6390, 6391, 6392, 
6393, 6394, 6395, 6396, 6397, 6398, 6399, 6400, 6401, 6402, 
6403, 6404, 6405, 6406, 6407, 6408, 6409, 6410, 6411, 6412, 
6413, 6414, 6415, 6416, 6417, 6418, 6419, 6420, 6421, 6422, 
6423, 6424, 6425, 6426, 6427, 6428, 6429, 6430, 6431, 6432, 
6433, 6434, 6435, 6436, 6437, 6438, 6439, 6440, 6441, 6442, 
6443, 6444, 6445, 6446, 6447, 6448, 6449, 6450, 6451, 6452, 
6453, 6454, 6455, 
*NSET,NSET=skir_carbo_mid
1, 2, 5, 6, 7, 8, 9, 10, 11, 12, 
13, 14, 15, 16, 17, 18, 19, 20, 21, 22, 
23, 24, 25, 26, 27, 28, 29, 30, 31, 32, 
33, 34, 35, 36, 37, 38, 39, 40, 41, 42, 
43, 44, 45, 46, 47, 48, 49, 50, 51, 52, 
53, 54, 55, 56, 57, 58, 59, 60, 61, 62, 
63, 64, 65, 66, 67, 68, 69, 70, 71, 72, 
73, 74, 75, 76, 77, 78, 79, 80, 81, 82, 
83, 84, 85, 86, 87, 88, 89, 90, 91, 92, 
93, 94, 95, 96, 97, 98, 99, 100, 101, 102, 
103, 104, 105, 106, 107, 108, 109, 110, 111, 112, 
113, 114, 115, 116, 117, 118, 119, 120, 121, 122, 
123, 124, 125, 126, 127, 128, 129, 130, 131, 132, 
133, 134, 135, 136, 137, 138, 139, 140, 141, 142, 
143, 144, 145, 146, 147, 148, 149, 150, 151, 152, 
153, 154, 155, 156, 157, 158, 159, 160, 161, 162, 
163, 164, 165, 166, 167, 168, 169, 170, 171, 172, 
173, 174, 175, 176, 177, 178, 179, 180, 181, 182, 
183, 184, 185, 186, 187, 188, 189, 190, 191, 192, 
193, 194, 195, 196, 197, 198, 199, 200, 201, 202, 
203, 204, 205, 206, 207, 208, 209, 210, 211, 212, 
213, 214, 215, 216, 217, 218, 219, 220, 221, 222, 
223, 224, 225, 226, 227, 228, 229, 406, 407, 408, 
409, 410, 411, 412, 413, 414, 415, 416, 417, 418, 
419, 420, 421, 422, 423, 424, 425, 426, 427, 428, 
429, 430, 431, 432, 433, 434, 435, 436, 437, 438, 
439, 440, 441, 442, 443, 444, 445, 446, 447, 448, 
449, 450, 451, 452, 453, 454, 455, 456, 457, 458, 
459, 460, 461, 462, 463, 464, 465, 466, 467, 468, 
469, 470, 471, 472, 473, 474, 475, 476, 477, 478, 
479, 480, 481, 482, 483, 484, 485, 486, 487, 488, 
489, 490, 491, 492, 493, 494, 495, 496, 497, 498, 
499, 500, 501, 502, 503, 504, 505, 506, 507, 508, 
509, 510, 511, 512, 513, 514, 515, 516, 517, 518, 
519, 520, 521, 522, 523, 524, 525, 526, 527, 528, 
529, 530, 531, 532, 533, 534, 535, 536, 537, 538, 
539, 540, 541, 542, 543, 544, 545, 546, 547, 548, 
549, 550, 551, 552, 553, 554, 555, 556, 557, 558, 
559, 560, 561, 562, 563, 564, 565, 566, 567, 568, 
569, 570, 571, 572, 573, 574, 575, 576, 577, 578, 
579, 580, 581, 582, 583, 584, 585, 586, 587, 588, 
589, 590, 591, 592, 593, 594, 595, 596, 597, 598, 
599, 600, 601, 602, 603, 604, 605, 606, 607, 608, 
609, 610, 611, 612, 613, 614, 615, 616, 617, 618, 
619, 620, 621, 622, 623, 624, 625, 626, 627, 628, 
629, 630, 631, 632, 633, 634, 635, 636, 637, 638, 
639, 640, 641, 642, 643, 644, 645, 646, 647, 648, 
649, 650, 651, 652, 653, 654, 655, 656, 657, 658, 
659, 660, 661, 662, 663, 664, 665, 666, 667, 668, 
669, 670, 671, 672, 673, 674, 675, 676, 677, 678, 
679, 680, 681, 682, 683, 684, 685, 686, 687, 688, 
689, 690, 691, 692, 693, 694, 695, 696, 697, 698, 
699, 700, 701, 702, 703, 704, 705, 706, 707, 708, 
709, 710, 711, 712, 713, 714, 715, 716, 717, 718, 
719, 720, 721, 722, 723, 724, 725, 726, 727, 728, 
729, 730, 731, 732, 733, 734, 735, 736, 737, 738, 
739, 740, 741, 742, 743, 744, 745, 746, 747, 748, 
749, 750, 751, 752, 753, 754, 755, 756, 757, 758, 
759, 760, 761, 762, 763, 764, 765, 766, 767, 768, 
769, 770, 771, 772, 773, 774, 775, 776, 777, 778, 
779, 780, 781, 782, 783, 784, 785, 786, 787, 788, 
789, 790, 791, 792, 793, 794, 795, 796, 797, 798, 
799, 800, 801, 802, 803, 804, 805, 806, 807, 808, 
809, 810, 811, 812, 813, 814, 815, 816, 817, 818, 
819, 820, 821, 822, 823, 824, 825, 826, 827, 828, 
829, 830, 831, 832, 833, 834, 835, 836, 837, 838, 
839, 840, 841, 842, 843, 844, 845, 846, 847, 848, 
849, 850, 851, 852, 853, 854, 855, 856, 857, 858, 
859, 860, 861, 862, 863, 864, 865, 866, 867, 868, 
869, 870, 871, 872, 873, 874, 875, 876, 877, 878, 
879, 880, 881, 882, 883, 884, 885, 886, 887, 888, 
889, 890, 891, 892, 893, 894, 895, 896, 897, 898, 
899, 900, 901, 902, 903, 904, 905, 906, 907, 908, 
909, 910, 911, 912, 913, 914, 915, 916, 917, 918, 
919, 920, 921, 922, 923, 924, 925, 926, 927, 928, 
929, 930, 931, 932, 933, 934, 935, 936, 937, 938, 
939, 940, 941, 942, 943, 944, 945, 946, 947, 948, 
949, 950, 951, 952, 953, 954, 955, 956, 957, 958, 
959, 960, 961, 962, 963, 964, 965, 966, 967, 968, 
969, 970, 971, 972, 973, 974, 975, 976, 977, 978, 
979, 980, 981, 982, 983, 984, 985, 986, 987, 988, 
989, 990, 991, 992, 993, 994, 995, 996, 997, 998, 
999, 1000, 1001, 1002, 1003, 1004, 1005, 1006, 1007, 1008, 
1009, 1010, 1011, 1012, 1013, 1014, 1015, 1016, 1017, 1018, 
1019, 1020, 1021, 1022, 1023, 1024, 1025, 1026, 1027, 1028, 
1029, 1030, 1031, 1032, 1033, 1034, 1035, 1036, 1037, 1038, 
1039, 1040, 1041, 1042, 1043, 1044, 1045, 1046, 1047, 1048, 
1049, 1050, 1051, 1052, 1053, 1054, 1055, 1056, 1057, 1058, 
1059, 1060, 1061, 1062, 1063, 1064, 1065, 1066, 1067, 1068, 
1069, 1070, 1071, 1072, 1073, 1074, 1075, 1076, 1077, 1078, 
1079, 1080, 1081, 1082, 1083, 1084, 1085, 1086, 1087, 1088, 
1089, 1090, 1091, 1092, 1093, 1094, 1095, 1096, 1097, 1098, 
1099, 1100, 1101, 1102, 1103, 1104, 1105, 1106, 1107, 1108, 
1109, 1110, 1111, 1112, 1113, 1114, 1115, 1116, 1117, 1118, 
1119, 1120, 1121, 1122, 1123, 1124, 1125, 1126, 1127, 1128, 
1129, 1130, 1131, 1132, 1133, 1134, 1135, 1136, 1137, 1138, 
1139, 1140, 1141, 1142, 1143, 1144, 1145, 1146, 1147, 1148, 
1149, 1150, 1151, 1152, 1153, 1154, 1155, 1156, 1157, 1158, 
1159, 1160, 1161, 1162, 1163, 1164, 1165, 1166, 1167, 1168, 
1169, 1170, 1171, 1172, 1173, 1174, 1175, 1176, 1177, 1178, 
1179, 1180, 1181, 1182, 1183, 1184, 1185, 1186, 1187, 1188, 
1189, 1190, 1191, 1192, 1193, 1194, 1195, 1196, 1197, 1198, 
1199, 1200, 1201, 1202, 1203, 1204, 1205, 1206, 1207, 1208, 
1209, 1210, 1211, 1212, 1213, 1214, 1215, 1216, 1217, 1218, 
1219, 1220, 1221, 1222, 1223, 1224, 1225, 1226, 1227, 1228, 
1229, 1230, 1231, 1232, 1233, 1234, 1235, 1236, 1237, 1238, 
1239, 1240, 1241, 1242, 1243, 1244, 1245, 1246, 1247, 1248, 
1249, 1250, 1251, 1252, 1253, 1254, 1255, 1256, 1257, 1258, 
1259, 1260, 1261, 1262, 1263, 1264, 1265, 1266, 1267, 1268, 
1269, 1270, 1271, 1272, 1273, 1274, 1275, 1276, 1277, 1278, 
1279, 1280, 1281, 1282, 1283, 1284, 1285, 1286, 1287, 1288, 
1289, 1290, 1291, 1292, 1293, 1294, 1295, 1296, 1297, 1298, 
1299, 1300, 1301, 1302, 1303, 1304, 1305, 1306, 1307, 1308, 
1309, 1310, 1311, 1312, 1313, 1314, 1315, 1316, 1317, 1318, 
1319, 1320, 1321, 1322, 1323, 1324, 1325, 1326, 1327, 1328, 
1329, 1330, 1331, 1332, 1333, 1334, 1335, 1336, 1337, 1338, 
1339, 1340, 1341, 1342, 1343, 1344, 1345, 1346, 1347, 1348, 
1349, 1350, 1351, 1352, 1353, 1354, 1355, 1356, 1357, 1358, 
1359, 1360, 1361, 1362, 1363, 1364, 1365, 1366, 1367, 1368, 
1369, 1370, 1371, 1372, 1373, 1374, 1375, 1376, 1377, 1378, 
1379, 1380, 1381, 1382, 1383, 1384, 1385, 1386, 1387, 1388, 
1389, 1390, 1391, 1392, 1393, 1394, 1395, 1396, 1397, 1398, 
1399, 1400, 1401, 1402, 1403, 1404, 1405, 1406, 1407, 1408, 
1409, 1410, 1411, 1412, 1413, 1414, 1415, 1416, 1417, 1418, 
1419, 1420, 1421, 1422, 1423, 1424, 1425, 1426, 1427, 1428, 
1429, 1430, 1431, 1432, 1433, 1434, 1435, 1436, 1437, 1438, 
1439, 1440, 1441, 1442, 1443, 1444, 1445, 1446, 1447, 1448, 
1449, 1450, 1451, 1452, 1453, 1454, 1455, 1456, 1457, 1458, 
1459, 1460, 1461, 1462, 1463, 1464, 1465, 1466, 1467, 1468, 
1469, 1470, 1471, 1472, 1473, 1474, 1475, 1476, 1477, 1478, 
1479, 1480, 1481, 1482, 1483, 1484, 1485, 1486, 1487, 1488, 
1489, 1490, 1491, 1492, 1493, 1494, 1495, 1496, 1497, 1498, 
1499, 1500, 1501, 1502, 1503, 1504, 1505, 1506, 1507, 1508, 
1509, 1510, 1511, 1512, 1513, 1514, 1515, 1516, 1517, 1518, 
1519, 1520, 1521, 1522, 1523, 1524, 1525, 1526, 1527, 1528, 
1529, 1530, 1531, 1532, 1533, 1534, 1535, 1536, 1537, 1538, 
1539, 1540, 1541, 1542, 1543, 1544, 1545, 1546, 1547, 1548, 
1549, 1550, 1551, 1552, 1553, 1554, 1555, 1556, 1557, 1558, 
1559, 1560, 1561, 1562, 1563, 1564, 1565, 1566, 1567, 1568, 
1569, 1570, 1571, 1572, 1573, 1574, 1575, 1576, 1577, 1578, 
1579, 1580, 1581, 1582, 1583, 1584, 1585, 1586, 1587, 1588, 
1589, 1590, 1591, 1592, 1593, 1594, 1595, 1596, 1597, 1598, 
1599, 1600, 1601, 1602, 1603, 1604, 1605, 1606, 1607, 1608, 
1609, 1610, 1611, 1612, 1613, 1614, 1615, 1616, 1617, 1618, 
1619, 1620, 1621, 1622, 1623, 1624, 1625, 1626, 1627, 1628, 
1629, 1630, 1631, 1632, 1633, 1634, 1635, 1636, 1637, 1638, 
1639, 1640, 1641, 1642, 1643, 1644, 1645, 1646, 1647, 1648, 
1649, 1650, 1651, 1652, 1653, 1654, 1655, 1656, 1657, 1658, 
1659, 1660, 1661, 1662, 1663, 1664, 1665, 1666, 1667, 1668, 
1669, 1670, 1671, 1672, 1673, 1674, 1675, 1676, 1677, 1678, 
1679, 1680, 1681, 1682, 1683, 1684, 1685, 1686, 1687, 1688, 
1689, 1690, 1691, 1692, 1693, 1694, 1695, 1696, 1697, 1698, 
1699, 1700, 1701, 1702, 1703, 1704, 1705, 1706, 1707, 1708, 
1709, 1710, 1711, 1712, 1713, 1714, 1715, 1716, 1717, 1718, 
1719, 1720, 1721, 1722, 1723, 1724, 1725, 1726, 1727, 1728, 
1729, 1730, 1731, 1732, 1733, 1734, 1735, 1736, 1737, 1738, 
1739, 1740, 1741, 1742, 1743, 1744, 1745, 1746, 1747, 1748, 
1749, 1750, 1751, 1752, 1753, 1754, 1755, 1756, 1757, 1758, 
1759, 1760, 1761, 1762, 1763, 1764, 1765, 1766, 1767, 1768, 
1769, 1770, 1771, 1772, 1773, 1774, 1775, 1776, 1777, 1778, 
1779, 1780, 1781, 1782, 1783, 1784, 1785, 1786, 1787, 1788, 
1789, 1790, 1791, 1792, 1793, 1794, 1795, 1796, 1797, 1798, 
1799, 1800, 1801, 1802, 1803, 1804, 1805, 1806, 1807, 1808, 
1809, 1810, 1811, 1812, 1813, 1814, 1815, 1816, 1817, 1818, 
1819, 1820, 1821, 1822, 1823, 1824, 1825, 1826, 1827, 1828, 
1829, 1830, 1831, 1832, 1833, 1834, 1835, 1836, 1837, 1838, 
1839, 1840, 1841, 1842, 1843, 1844, 1845, 1846, 1847, 1848, 
1849, 1850, 1851, 1852, 1853, 1854, 1855, 1856, 1857, 1858, 
1859, 1860, 1861, 1862, 1863, 1864, 1865, 1866, 1867, 1868, 
1869, 1870, 1871, 1872, 1873, 1874, 1875, 1876, 1877, 1878, 
1879, 1880, 1881, 1882, 1883, 1884, 1885, 1886, 1887, 1888, 
1889, 1890, 1891, 1892, 1893, 1894, 1895, 1896, 1897, 1898, 
1899, 1900, 1901, 1902, 1903, 1904, 1905, 1906, 1907, 1908, 
1909, 1910, 1911, 1912, 1913, 1914, 1915, 1916, 1917, 1918, 
1919, 1920, 1921, 1922, 1923, 1924, 1925, 1926, 1927, 1928, 
1929, 1930, 1931, 1932, 1933, 1934, 1935, 1936, 1937, 1938, 
1939, 1940, 1941, 1942, 1943, 1944, 1945, 1946, 1947, 1948, 
1949, 1950, 1951, 1952, 1953, 1954, 1955, 1956, 1957, 1958, 
1959, 1960, 1961, 1962, 1963, 1964, 1965, 1966, 1967, 1968, 
1969, 1970, 1971, 1972, 1973, 1974, 1975, 1976, 1977, 1978, 
1979, 1980, 1981, 1982, 1983, 1984, 1985, 1986, 1987, 1988, 
1989, 1990, 1991, 1992, 1993, 1994, 1995, 1996, 1997, 1998, 
1999, 2000, 2001, 2002, 2003, 2004, 2005, 2006, 2007, 2008, 
2009, 2010, 2011, 2012, 2013, 2014, 2015, 2016, 2017, 2018, 
2019, 2020, 2021, 2022, 2023, 2024, 2025, 2026, 2027, 2028, 
2029, 2030, 2031, 2032, 2033, 2034, 2035, 2036, 2037, 2038, 
2039, 2040, 2041, 2042, 2043, 2044, 2045, 2046, 2047, 2048, 
2049, 2050, 2051, 2052, 2053, 2054, 2055, 2056, 2057, 2058, 
2059, 2060, 2061, 2062, 2063, 2064, 2065, 2066, 2067, 2068, 
2069, 2070, 2071, 2072, 2073, 2074, 2075, 2076, 2077, 2078, 
2079, 2080, 2081, 2082, 2083, 2084, 2085, 2086, 2087, 2088, 
2089, 2090, 2091, 2092, 2093, 2094, 2095, 2096, 2097, 2098, 
2099, 2100, 2101, 2102, 2103, 2104, 2105, 2106, 2107, 2108, 
2109, 2110, 2111, 2112, 2113, 2114, 2115, 2116, 2117, 2118, 
2119, 2120, 2121, 2122, 2123, 2124, 2125, 2126, 2127, 2128, 
2129, 2130, 2131, 2132, 2133, 2134, 2135, 2136, 2137, 2138, 
2139, 2140, 2141, 2142, 2143, 2144, 2145, 2146, 2147, 2148, 
2149, 2150, 2151, 2152, 2153, 2154, 2155, 2156, 2157, 2158, 
2159, 2160, 2161, 2162, 2163, 2164, 2165, 2166, 2167, 2168, 
2169, 2170, 2171, 2172, 2173, 2174, 2175, 2176, 2177, 2178, 
2179, 2180, 2181, 2182, 2183, 2184, 2185, 2186, 2187, 2188, 
2189, 2190, 2191, 2192, 2193, 2194, 2195, 2196, 2197, 2198, 
2199, 2200, 2201, 2202, 2203, 2204, 2205, 2206, 2207, 2208, 
2209, 2210, 2211, 2212, 2213, 2214, 2215, 2216, 2217, 2218, 
2219, 2220, 2221, 2222, 2223, 2224, 2225, 2226, 2227, 2228, 
2229, 2230, 2231, 2232, 2233, 2234, 2235, 2236, 2237, 2238, 
2239, 2240, 2241, 2242, 2243, 2244, 2245, 2246, 2247, 2248, 
2249, 2250, 2251, 2252, 2253, 2254, 2255, 2256, 2257, 2258, 
2259, 2260, 2261, 2262, 2263, 2264, 2265, 2266, 2267, 2268, 
2269, 2270, 2271, 2272, 2273, 2274, 2275, 2276, 2277, 2278, 
2279, 2280, 2281, 2282, 2283, 2284, 2285, 2286, 2287, 2288, 
2289, 2290, 2291, 2292, 2293, 2294, 2295, 2296, 2297, 2298, 
2299, 2300, 2301, 2302, 2303, 2304, 2305, 2306, 2307, 2308, 
2309, 2310, 2311, 2312, 2313, 2314, 2315, 2316, 2317, 2318, 
2319, 2320, 2321, 2322, 2323, 2324, 2325, 2326, 2327, 2328, 
2329, 2330, 2331, 2332, 2333, 2334, 2335, 2336, 2337, 2338, 
2339, 2340, 2341, 2342, 2343, 2344, 2345, 2346, 2347, 2348, 
2349, 2350, 2351, 2352, 2353, 2354, 2355, 2356, 2357, 2358, 
2359, 2360, 2361, 2362, 2363, 2364, 2365, 2366, 2367, 2368, 
2369, 2370, 2371, 2372, 2373, 2374, 2375, 2376, 2377, 2378, 
2379, 2380, 2381, 2382, 2383, 2384, 2385, 2386, 2387, 2388, 
2389, 2390, 2391, 2392, 2393, 2394, 2395, 2396, 2397, 2398, 
2399, 2400, 2401, 2402, 2403, 2404, 2405, 2406, 2407, 2408, 
2409, 2410, 2411, 2412, 2413, 2414, 2415, 2416, 2417, 2418, 
2419, 2420, 2421, 2422, 2423, 2424, 2425, 2426, 2427, 2428, 
2429, 2430, 2431, 2432, 2433, 2434, 2435, 2436, 2437, 2438, 
2439, 2440, 2441, 2442, 2443, 2444, 2445, 2446, 2447, 2448, 
2449, 2450, 2451, 2452, 2453, 2454, 2455, 2456, 2457, 2458, 
2459, 2460, 2461, 2462, 2463, 2464, 2465, 2466, 2467, 2468, 
2469, 2470, 2471, 2472, 2473, 2474, 2475, 2476, 2477, 2478, 
2479, 2480, 2481, 2482, 2483, 2484, 2485, 2486, 2487, 2488, 
2489, 2490, 2491, 2492, 2493, 2494, 2495, 2496, 2497, 2498, 
2499, 2500, 2501, 2502, 2503, 2504, 2505, 2506, 2507, 2508, 
2509, 2510, 2511, 2512, 2513, 2514, 2515, 2516, 2517, 2518, 
2519, 2520, 2521, 2522, 2523, 2524, 2525, 2526, 2527, 2528, 
2529, 2530, 2531, 2532, 2533, 2534, 2535, 2536, 2537, 2538, 
2539, 2540, 2541, 2542, 2543, 2544, 2545, 2546, 2547, 2548, 
2549, 2550, 2551, 2552, 2553, 2554, 2555, 2556, 2557, 2558, 
2559, 2560, 2561, 2562, 2563, 2564, 2565, 2566, 2567, 2568, 
2569, 2570, 2571, 2572, 2573, 2574, 2575, 2576, 2577, 2578, 
2579, 2580, 2581, 2582, 2583, 2584, 2585, 2586, 2587, 2588, 
2589, 2590, 2591, 2592, 2593, 2594, 2595, 2596, 2597, 2598, 
2599, 2600, 2601, 2602, 2603, 2604, 2605, 2606, 2607, 2608, 
2609, 2610, 2611, 2612, 2613, 2614, 2615, 2616, 2617, 2618, 
2619, 2620, 2621, 2622, 2623, 2624, 2625, 2626, 2627, 2628, 
2629, 2630, 2631, 2632, 2633, 2634, 2635, 2636, 2637, 2638, 
2639, 2640, 2641, 2642, 2643, 2644, 2645, 2646, 2647, 2648, 
2649, 2650, 2651, 2652, 2653, 2654, 2655, 2656, 2657, 2658, 
2659, 2660, 2661, 2662, 2663, 2664, 2665, 2666, 2667, 2668, 
2669, 2670, 2671, 2672, 2673, 2674, 2675, 2676, 2677, 2678, 
2679, 2680, 2681, 2682, 2683, 2684, 2685, 2686, 2687, 2688, 
2689, 2690, 2691, 2692, 2693, 2694, 2695, 2696, 2697, 2698, 
2699, 2700, 2701, 2702, 2703, 2704, 2705, 2706, 2707, 2708, 
2709, 2710, 2711, 2712, 2713, 2714, 2715, 2716, 2717, 2718, 
2719, 2720, 2721, 2722, 2723, 2724, 2725, 2726, 2727, 2728, 
2729, 2730, 2731, 2732, 2733, 2734, 2735, 2736, 2737, 2738, 
2739, 2740, 2741, 2742, 2743, 2744, 2745, 2746, 2747, 2748, 
2749, 2750, 2751, 2752, 2753, 2754, 2755, 2756, 2757, 2758, 
2759, 2760, 2761, 2762, 2763, 2764, 2765, 2766, 2767, 2768, 
2769, 2770, 2771, 2772, 2773, 2774, 2775, 2776, 2777, 2778, 
2779, 2780, 2781, 2782, 2783, 2784, 2785, 2786, 2787, 2788, 
2789, 2790, 2791, 2792, 2793, 2794, 2795, 2796, 2797, 2798, 
2799, 2800, 2801, 2802, 2803, 2804, 2805, 2806, 2807, 2808, 
2809, 2810, 2811, 2812, 2813, 2814, 2815, 2816, 2817, 2818, 
2819, 2820, 2821, 2822, 2823, 2824, 2825, 2826, 2827, 2828, 
2829, 2830, 2831, 2832, 2833, 2834, 2835, 2836, 2837, 2838, 
2839, 2840, 2841, 2842, 2843, 2844, 2845, 2846, 2847, 2848, 
2849, 2850, 2851, 2852, 2853, 2854, 2855, 2856, 2857, 2858, 
2859, 2860, 2861, 2862, 2863, 2864, 2865, 2866, 2867, 2868, 
2869, 2870, 2871, 2872, 2873, 2874, 2875, 2876, 2877, 2878, 
2879, 2880, 2881, 2882, 2883, 2884, 2885, 2886, 2887, 2888, 
2889, 2890, 2891, 2892, 2893, 2894, 2895, 2896, 2897, 2898, 
2899, 2900, 2901, 2902, 2903, 2904, 2905, 2906, 2907, 2908, 
2909, 2910, 2911, 2912, 2913, 2914, 2915, 2916, 2917, 2918, 
2919, 2920, 2921, 2922, 2923, 2924, 2925, 2926, 2927, 2928, 
2929, 2930, 2931, 2932, 2933, 2934, 2935, 2936, 2937, 2938, 
2939, 2940, 2941, 2942, 2943, 2944, 2945, 2946, 2947, 2948, 
2949, 2950, 2951, 2952, 2953, 2954, 2955, 2956, 2957, 2958, 
2959, 2960, 2961, 2962, 2963, 2964, 2965, 2966, 2967, 2968, 
2969, 2970, 2971, 2972, 2973, 2974, 2975, 2976, 2977, 2978, 
2979, 2980, 2981, 2982, 2983, 2984, 2985, 2986, 2987, 2988, 
2989, 2990, 2991, 2992, 2993, 2994, 2995, 2996, 2997, 2998, 
2999, 3000, 3001, 3002, 3003, 3004, 3005, 3006, 3007, 3008, 
3009, 3010, 3011, 3012, 3013, 3014, 3015, 3016, 3017, 3018, 
3019, 3020, 3021, 3022, 3023, 3024, 3025, 3026, 3027, 3028, 
3029, 3030, 3031, 3032, 3033, 3034, 3035, 3036, 3037, 3038, 
3039, 3040, 3041, 3042, 3043, 3044, 3045, 3046, 3047, 3048, 
3049, 3050, 3051, 3052, 3053, 3054, 3055, 3056, 3057, 3058, 
3059, 3060, 3061, 3062, 3063, 3064, 3065, 3066, 3067, 3068, 
3069, 3070, 3071, 3072, 3073, 3074, 3075, 3076, 3077, 3078, 
3079, 3080, 3081, 3082, 3083, 3084, 3085, 3086, 3087, 3088, 
3089, 3090, 3091, 3092, 3093, 3094, 3095, 3096, 3097, 3098, 
3099, 3100, 3101, 3102, 3103, 3104, 3105, 3106, 3107, 3108, 
3109, 3110, 3111, 3112, 3113, 3114, 3115, 3116, 3117, 3118, 
3119, 3120, 3121, 3122, 3123, 3124, 3125, 3126, 3127, 3128, 
3129, 3130, 3131, 3132, 3133, 3134, 3135, 3136, 3137, 3138, 
3139, 3140, 3141, 3142, 3143, 3144, 3145, 3146, 3147, 3148, 
3149, 3150, 3151, 3152, 3153, 3154, 3155, 3156, 3157, 3158, 
3159, 3160, 3161, 3162, 3163, 3164, 3165, 3166, 3167, 3168, 
3169, 3170, 3171, 3172, 3173, 3174, 3175, 3176, 3177, 3178, 
3179, 3180, 3181, 3182, 3183, 3184, 3185, 3186, 3187, 3188, 
3189, 3190, 3191, 3192, 3193, 3194, 3195, 3196, 3197, 3198, 
3199, 3200, 3201, 3202, 3203, 3204, 3205, 3206, 3207, 3208, 
3209, 3210, 3211, 3212, 3213, 3214, 3215, 3216, 3217, 3218, 
3219, 3220, 3221, 3222, 3223, 3224, 3225, 3226, 3227, 3228, 
3229, 3230, 3231, 3232, 3233, 3234, 3235, 3236, 3237, 3238, 
3239, 3240, 3241, 3242, 3243, 3244, 3245, 3246, 3247, 3248, 
3249, 3250, 3251, 3252, 3253, 3254, 3255, 3256, 3257, 3258, 
3259, 3260, 3261, 3262, 3263, 3264, 3265, 3266, 3267, 3268, 
3269, 3270, 3271, 3272, 3273, 3274, 3275, 3276, 3277, 3278, 
3279, 3280, 3281, 3282, 3283, 3284, 3285, 3286, 3287, 3288, 
3289, 3290, 3291, 3292, 3293, 3294, 3295, 3296, 3297, 3298, 
3299, 3300, 3301, 3302, 3303, 3304, 3305, 3306, 3307, 3308, 
3309, 3310, 3311, 3312, 3313, 3314, 3315, 3316, 3317, 3318, 
3319, 3320, 3321, 3322, 3323, 3324, 3325, 3326, 3327, 3328, 
3329, 3330, 3331, 3332, 3333, 3334, 3335, 3336, 3337, 3338, 
3339, 3340, 3341, 3342, 3343, 3344, 3345, 3346, 3347, 3348, 
3349, 3350, 3351, 3352, 3353, 3354, 3355, 3356, 3357, 3358, 
3359, 3360, 3361, 3362, 3363, 3364, 3365, 3366, 3367, 3368, 
3369, 3370, 3371, 3372, 3373, 3374, 3375, 3376, 3377, 3378, 
3379, 3380, 3381, 3382, 3383, 3384, 3385, 3386, 3387, 3388, 
3389, 3390, 3391, 3392, 3393, 3394, 3395, 3396, 3397, 3398, 
3399, 3400, 3401, 3402, 3403, 3404, 3405, 3406, 3407, 3408, 
3409, 3410, 3411, 3412, 3413, 3414, 3415, 3416, 3417, 3418, 
3419, 3420, 3421, 3422, 3423, 3424, 3425, 3426, 3427, 3428, 
3429, 3430, 3431, 3432, 3433, 3434, 3435, 3436, 3437, 3438, 
3439, 3440, 3441, 3442, 3443, 3444, 3445, 3446, 3447, 3448, 
3449, 3450, 3451, 3452, 3453, 3454, 3455, 3456, 3457, 3458, 
3459, 3460, 3461, 3462, 3463, 3464, 3465, 3466, 3467, 3468, 
3469, 3470, 3471, 3472, 3473, 3474, 3475, 3476, 3477, 3478, 
3479, 3480, 3481, 3482, 3483, 3484, 3485, 3486, 3487, 3488, 
3489, 3490, 3491, 3492, 3493, 3494, 3495, 3496, 3497, 3498, 
3499, 3500, 3501, 3502, 3503, 3504, 3505, 3506, 3507, 3508, 
3509, 3510, 3511, 3512, 3513, 3514, 3515, 3516, 3517, 3518, 
3519, 3520, 3521, 3522, 3523, 3524, 3525, 3526, 3527, 3528, 
3529, 3530, 3531, 3532, 3533, 3534, 3535, 3536, 3537, 3538, 
3539, 3540, 3541, 3542, 3543, 3544, 3545, 3546, 3547, 3548, 
3549, 3550, 3551, 3552, 3553, 3554, 3555, 3556, 3557, 3558, 
3559, 3560, 3561, 3562, 3563, 3564, 3565, 3566, 3567, 3568, 
3569, 3570, 3571, 3572, 3573, 3574, 3575, 3576, 3577, 3578, 
3579, 3580, 3581, 3582, 3583, 3584, 3585, 3586, 3587, 3588, 
3589, 3590, 3591, 3592, 3593, 3594, 3595, 3596, 3597, 3598, 
3599, 3600, 3601, 3602, 3603, 3604, 3605, 3606, 3607, 3608, 
3609, 3610, 3611, 3612, 3613, 3614, 3615, 3616, 3617, 3618, 
3619, 3620, 3621, 3622, 3623, 3624, 3625, 3626, 3627, 3628, 
3629, 3630, 3631, 3632, 3633, 3634, 3635, 3636, 3637, 3638, 
3639, 3640, 3641, 3642, 3643, 3644, 3645, 3646, 3647, 3648, 
3649, 3650, 3651, 3652, 3653, 3654, 3655, 3656, 3657, 3658, 
3659, 3660, 3661, 3662, 3663, 3664, 3665, 3666, 3667, 3668, 
3669, 3670, 3671, 3672, 3673, 3674, 3675, 3676, 3677, 3678, 
3679, 3680, 3681, 3682, 3683, 3684, 3685, 3686, 3687, 3688, 
3689, 3690, 3691, 3692, 3693, 3694, 3695, 3696, 3697, 3698, 
3699, 3700, 3701, 3702, 3703, 3704, 3705, 3706, 3707, 3708, 
3709, 3710, 3711, 3712, 3713, 3714, 3715, 3716, 3717, 3718, 
3719, 3720, 3721, 3722, 3723, 3724, 3725, 3726, 3727, 3728, 
3729, 3730, 3731, 3732, 3733, 3734, 3735, 3736, 3737, 3738, 
3739, 3740, 3741, 3742, 3743, 3744, 3745, 3746, 3747, 3748, 
3749, 3750, 3751, 3752, 3753, 3754, 3755, 3756, 3757, 3758, 
3759, 3760, 3761, 3762, 3763, 3764, 3765, 3766, 3767, 3768, 
3769, 3770, 3771, 3772, 3773, 3774, 3775, 3776, 3777, 3778, 
3779, 3780, 3781, 3782, 3783, 3784, 3785, 3786, 3787, 3788, 
3789, 3790, 3791, 3792, 3793, 3794, 3795, 3796, 3797, 3798, 
3799, 3800, 3801, 3802, 3803, 3804, 3805, 3806, 3807, 3808, 
3809, 3810, 3811, 3812, 3813, 3814, 3815, 3816, 3817, 3818, 
3819, 3820, 3821, 3822, 3823, 3824, 3825, 3826, 3827, 3828, 
3829, 3830, 3831, 3832, 3833, 3834, 3835, 3836, 3837, 3838, 
3839, 3840, 3841, 3842, 3843, 3844, 3845, 3846, 3847, 3848, 
3849, 3850, 3851, 3852, 3853, 3854, 3855, 3856, 3857, 3858, 
3859, 3860, 3861, 3862, 3863, 3864, 3865, 3866, 3867, 3868, 
3869, 3870, 3871, 3872, 3873, 3874, 3875, 3876, 3877, 3878, 
3879, 3880, 3881, 3882, 3883, 3884, 3885, 3886, 3887, 3888, 
3889, 3890, 3891, 3892, 3893, 3894, 3895, 3896, 3897, 3898, 
3899, 3900, 3901, 3902, 3903, 3904, 3905, 3906, 3907, 3908, 
3909, 3910, 3911, 3912, 3913, 3914, 3915, 3916, 3917, 3918, 
3919, 3920, 3921, 3922, 3923, 3924, 3925, 3926, 3927, 3928, 
3929, 3930, 3931, 3932, 3933, 3934, 3935, 3936, 3937, 3938, 
3939, 3940, 3941, 3942, 3943, 3944, 3945, 3946, 3947, 3948, 
3949, 3950, 3951, 3952, 3953, 3954, 3955, 3956, 3957, 3958, 
3959, 3960, 3961, 3962, 3963, 3964, 3965, 3966, 3967, 3968, 
3969, 3970, 3971, 3972, 3973, 3974, 3975, 3976, 3977, 3978, 
3979, 3980, 3981, 3982, 3983, 3984, 3985, 3986, 3987, 3988, 
3989, 3990, 3991, 3992, 3993, 3994, 3995, 3996, 3997, 3998, 
3999, 4000, 4001, 4002, 4003, 4004, 4005, 4006, 4007, 4008, 
4009, 4010, 4011, 4012, 4013, 4014, 4015, 4016, 4017, 4018, 
4019, 4020, 4021, 4022, 4023, 4024, 4025, 4026, 4027, 4028, 
4029, 4030, 4031, 4032, 4033, 4034, 4035, 4036, 4037, 4038, 
4039, 4040, 4041, 4042, 4043, 4044, 4045, 4046, 4047, 4048, 
4049, 4050, 4051, 4052, 4053, 4054, 4055, 4056, 4057, 4058, 
4059, 4060, 4061, 4062, 4063, 4064, 4065, 4066, 4067, 4068, 
4069, 4070, 4071, 4072, 4073, 4074, 4075, 4076, 4077, 4078, 
4079, 4080, 4081, 4082, 4083, 4084, 4085, 4086, 4087, 4088, 
4089, 4090, 4091, 4092, 4093, 4094, 4095, 4096, 4097, 4098, 
4099, 4100, 4101, 4102, 4103, 4104, 4105, 4106, 4107, 4108, 
4109, 4110, 4111, 4112, 4113, 4114, 4115, 4116, 4117, 4118, 
4119, 4120, 4121, 4122, 4123, 4124, 4125, 4126, 4127, 4128, 
4129, 4130, 4131, 4132, 4133, 4134, 4135, 4136, 4137, 4138, 
4139, 4140, 4141, 4142, 4143, 4144, 4145, 4146, 4147, 4148, 
4149, 4150, 4151, 4152, 4153, 4154, 4155, 4156, 4157, 4158, 
4159, 4160, 4161, 4162, 4163, 4164, 4165, 4166, 4167, 4168, 
4169, 4170, 4171, 4172, 4173, 4174, 4175, 4176, 4177, 4178, 
4179, 4180, 4181, 4182, 4183, 4184, 4185, 4186, 4187, 4188, 
4189, 4190, 4191, 4192, 4193, 4194, 4195, 4196, 4197, 4198, 
4199, 4200, 4201, 4202, 4203, 4204, 4205, 4206, 4207, 4208, 
4209, 4210, 4211, 4212, 4213, 4214, 4215, 4216, 4217, 4218, 
4219, 4220, 4221, 4222, 4223, 4224, 4225, 4226, 4227, 4228, 
4229, 4230, 4231, 4232, 4233, 4234, 4235, 4236, 4237, 4238, 
4239, 4240, 4241, 4242, 4243, 4244, 4245, 4246, 4247, 4248, 
4249, 4250, 4251, 4252, 4253, 4254, 4255, 4256, 4257, 4258, 
4259, 4260, 4261, 4262, 4263, 4264, 4265, 4266, 4267, 4268, 
4269, 4270, 4271, 4272, 4273, 4274, 4275, 4276, 4277, 4278, 
4279, 4280, 4281, 4282, 4283, 4284, 4285, 4286, 4287, 4288, 
4289, 4290, 4291, 4292, 4293, 4294, 4295, 4296, 4297, 4298, 
4299, 4300, 4301, 4302, 4303, 4304, 4305, 4306, 4307, 4308, 
4309, 4310, 4311, 4312, 4313, 4314, 4315, 4316, 4317, 4318, 
4319, 4320, 4321, 4322, 4323, 4324, 4325, 4326, 4327, 4328, 
4329, 4330, 4331, 4332, 4333, 4334, 4335, 4336, 4337, 4338, 
4339, 4340, 4341, 4342, 4343, 4344, 4345, 4346, 4347, 4348, 
4349, 4350, 4351, 4352, 4353, 4354, 4355, 4356, 4357, 4358, 
4359, 4360, 4361, 4362, 4363, 4364, 4365, 4366, 4367, 4368, 
4369, 4370, 4371, 4372, 4373, 4374, 4375, 4376, 4377, 4378, 
4379, 4380, 4381, 4382, 4383, 4384, 4385, 4386, 4387, 4388, 
4389, 4390, 4391, 4392, 4393, 4394, 4395, 4396, 4397, 4398, 
4399, 4400, 4401, 4402, 4403, 4404, 4405, 4406, 4407, 4408, 
4409, 4410, 4411, 4412, 4413, 4414, 4415, 4416, 4417, 4418, 
4419, 4420, 4421, 4422, 4423, 4424, 4425, 4426, 4427, 4428, 
4429, 4430, 4431, 4432, 4433, 4434, 4435, 4436, 4437, 4438, 
4439, 4440, 4441, 4442, 4443, 4444, 4445, 4446, 4447, 4448, 
4449, 4450, 4451, 4452, 4453, 4454, 4455, 4456, 4457, 4458, 
4459, 4460, 4461, 4462, 4463, 4464, 4465, 4466, 4467, 4468, 
4469, 4470, 4471, 4472, 4473, 4474, 4475, 4476, 4477, 4478, 
4479, 4480, 4481, 4482, 4483, 4484, 4485, 4486, 4487, 4488, 
4489, 4490, 4491, 4492, 4493, 4494, 4495, 4496, 4497, 4498, 
4499, 4500, 4501, 4502, 4503, 4504, 4505, 4506, 4507, 4508, 
4509, 4510, 4511, 4512, 4513, 4514, 4515, 4516, 4517, 4518, 
4519, 4520, 4521, 4522, 4523, 4524, 4525, 4526, 4527, 4528, 
4529, 4530, 4531, 4532, 4533, 4534, 4535, 4536, 4537, 4538, 
4539, 4540, 4541, 4542, 4543, 4544, 4545, 4546, 4547, 4548, 
4549, 4550, 4551, 4552, 4553, 4554, 4555, 4556, 4557, 4558, 
4559, 4560, 4561, 4562, 4563, 4564, 4565, 4566, 4567, 4568, 
4569, 4570, 4571, 4572, 4573, 4574, 4575, 4576, 4577, 4578, 
4579, 4580, 4581, 4582, 4583, 4584, 4585, 4586, 4587, 4588, 
4589, 4590, 4591, 4592, 4593, 4594, 4595, 4596, 4597, 4598, 
4599, 4600, 4601, 4602, 4603, 4604, 4605, 4606, 4607, 4608, 
4609, 4610, 4611, 4612, 4613, 4614, 4615, 4616, 4617, 4618, 
4619, 4620, 4621, 4622, 4623, 4624, 4625, 4626, 4627, 4628, 
4629, 4630, 4631, 4632, 4633, 4634, 4635, 4636, 4637, 4638, 
4639, 4640, 4641, 4642, 4643, 4644, 4645, 4646, 4647, 4648, 
4649, 4650, 4651, 4652, 4653, 4654, 4655, 4656, 4657, 4658, 
4659, 4660, 4661, 4662, 4663, 4664, 4665, 4666, 4667, 4668, 
4669, 4670, 4671, 4672, 4673, 4674, 4675, 4676, 4677, 4678, 
4679, 4680, 4681, 4682, 4683, 4684, 4685, 4686, 4687, 4688, 
4689, 4690, 4691, 4692, 4693, 4694, 4695, 4696, 4697, 4698, 
4699, 4700, 4701, 4702, 4703, 4704, 4705, 4706, 4707, 4708, 
4709, 4710, 4711, 4712, 4713, 4714, 4715, 4716, 4717, 4718, 
4719, 4720, 4721, 4722, 4723, 4724, 4725, 4726, 4727, 4728, 
4729, 4730, 4731, 4732, 4733, 4734, 4735, 4736, 4737, 4738, 
4739, 4740, 4741, 4742, 4743, 4744, 4745, 4746, 4747, 4748, 
4749, 4750, 4751, 4752, 4753, 4754, 4755, 4756, 4757, 4758, 
4759, 4760, 4761, 4762, 4763, 4764, 4765, 4766, 4767, 4768, 
4769, 4770, 4771, 4772, 4773, 4774, 4775, 4776, 4777, 4778, 
4779, 4780, 4781, 4782, 4783, 4784, 4785, 4786, 4787, 4788, 
4789, 4790, 4791, 4792, 4793, 4794, 4795, 4796, 4797, 4798, 
4799, 4800, 4801, 4802, 4803, 4804, 4805, 4806, 4807, 4808, 
4809, 4810, 4811, 4812, 4813, 4814, 4815, 4816, 4817, 4818, 
4819, 4820, 4821, 4822, 4823, 4824, 4825, 4826, 4827, 4828, 
4829, 4830, 4831, 4832, 4833, 4834, 4835, 4836, 4837, 4838, 
4839, 4840, 4841, 4842, 4843, 4844, 4845, 4846, 4847, 4848, 
4849, 4850, 4851, 4852, 4853, 4854, 4855, 4856, 4857, 4858, 
4859, 4860, 4861, 4862, 4863, 4864, 4865, 4866, 4867, 4868, 
4869, 4870, 4871, 4872, 4873, 4874, 4875, 4876, 4877, 4878, 
4879, 4880, 4881, 4882, 4883, 4884, 4885, 4886, 4887, 4888, 
4889, 4890, 4891, 4892, 4893, 4894, 4895, 4896, 4897, 4898, 
4899, 4900, 4901, 4902, 4903, 4904, 4905, 4906, 4907, 4908, 
4909, 4910, 4911, 4912, 4913, 4914, 4915, 4916, 4917, 4918, 
4919, 4920, 4921, 4922, 4923, 4924, 4925, 4926, 4927, 4928, 
4929, 4930, 4931, 4932, 4933, 4934, 4935, 4936, 4937, 4938, 
4939, 4940, 4941, 4942, 4943, 4944, 4945, 4946, 4947, 4948, 
4949, 4950, 4951, 4952, 4953, 4954, 4955, 4956, 4957, 4958, 
4959, 4960, 4961, 4962, 4963, 4964, 4965, 4966, 4967, 4968, 
4969, 4970, 4971, 4972, 4973, 4974, 4975, 4976, 4977, 4978, 
4979, 4980, 4981, 4982, 4983, 4984, 4985, 4986, 4987, 4988, 
4989, 4990, 4991, 4992, 4993, 4994, 4995, 4996, 4997, 4998, 
4999, 5000, 5001, 5002, 5003, 5004, 5005, 5006, 5007, 5008, 
5009, 5010, 5011, 5012, 5013, 5014, 5015, 5016, 5017, 5018, 
5019, 5020, 5021, 5022, 5023, 5024, 5025, 5026, 5027, 5028, 
5029, 5030, 5031, 5032, 5033, 5034, 5035, 5036, 5037, 5038, 
5039, 5040, 5041, 5042, 5043, 5044, 5045, 5046, 5047, 5048, 
5049, 5050, 5051, 5052, 5053, 5054, 5055, 5056, 5057, 5058, 
5059, 5060, 5061, 5062, 5063, 5064, 5065, 5066, 5067, 5068, 
5069, 5070, 5071, 5072, 5073, 5074, 5075, 5076, 5077, 5078, 
5079, 5080, 5081, 5082, 5083, 5084, 5085, 5086, 5087, 5088, 
5089, 5090, 5091, 5092, 5093, 5094, 5095, 5096, 5097, 5098, 
5099, 5100, 5101, 5102, 5103, 5104, 5105, 5106, 5107, 5108, 
5109, 5110, 5111, 5112, 5113, 5114, 5115, 5116, 5117, 5118, 
5119, 5120, 5121, 5122, 5123, 5124, 5125, 5126, 5127, 5128, 
5129, 5130, 5131, 5132, 5133, 5134, 5135, 5136, 5137, 5138, 
5139, 5140, 5141, 5142, 5143, 5144, 5145, 5146, 5147, 5148, 
5149, 5150, 5151, 5152, 5153, 5154, 5155, 5156, 5157, 5158, 
5159, 5160, 5161, 5162, 5163, 5164, 5165, 5166, 5167, 5168, 
5169, 5170, 5171, 5172, 5173, 5174, 5175, 5176, 5177, 5178, 
5179, 5180, 5181, 5182, 5183, 5184, 5185, 5186, 5187, 5188, 
5189, 5190, 5191, 5192, 5193, 5194, 5195, 5196, 5197, 5198, 
5199, 5200, 5201, 5202, 5203, 5204, 5205, 5206, 5207, 5208, 
5209, 5210, 5211, 5212, 5213, 5214, 5215, 5216, 5217, 5218, 
5219, 5220, 5221, 5222, 5223, 5224, 5225, 5226, 5227, 5228, 
5229, 5230, 5231, 5232, 5233, 5234, 5235, 5236, 5237, 5238, 
5239, 5240, 5241, 5242, 5243, 5244, 5245, 5246, 5247, 5248, 
5249, 5250, 5251, 5252, 5253, 5254, 5255, 5256, 5257, 5258, 
5259, 5260, 5261, 5262, 5263, 5264, 5265, 5266, 5267, 5268, 
5269, 5270, 5271, 5272, 5273, 5274, 5275, 5276, 5277, 
*NSET,NSET=skir_carbo_und
1, 3, 5, 6, 7, 8, 9, 10, 11, 12, 
13, 14, 15, 16, 17, 18, 19, 20, 21, 22, 
23, 24, 25, 26, 27, 28, 29, 30, 31, 32, 
33, 34, 35, 36, 37, 38, 39, 40, 41, 42, 
43, 44, 45, 46, 47, 48, 49, 50, 51, 52, 
53, 54, 55, 56, 57, 58, 59, 60, 61, 62, 
63, 64, 65, 66, 67, 68, 69, 70, 71, 72, 
73, 74, 75, 76, 77, 78, 79, 80, 81, 82, 
83, 230, 231, 232, 233, 234, 235, 236, 237, 238, 
239, 240, 241, 242, 243, 244, 245, 246, 247, 248, 
249, 250, 251, 252, 253, 254, 255, 256, 257, 258, 
259, 260, 261, 262, 263, 264, 265, 266, 267, 268, 
269, 270, 271, 272, 273, 274, 275, 276, 277, 278, 
279, 280, 281, 282, 283, 284, 285, 286, 287, 288, 
289, 290, 291, 292, 293, 294, 295, 296, 297, 298, 
299, 300, 301, 302, 303, 304, 305, 306, 307, 308, 
309, 310, 311, 5278, 5279, 5280, 5281, 5282, 5283, 5284, 
5285, 5286, 5287, 5288, 5289, 5290, 5291, 5292, 5293, 5294, 
5295, 5296, 5297, 5298, 5299, 5300, 5301, 5302, 5303, 5304, 
5305, 5306, 5307, 5308, 5309, 5310, 5311, 5312, 5313, 5314, 
5315, 5316, 5317, 5318, 5319, 5320, 5321, 5322, 5323, 5324, 
5325, 5326, 5327, 5328, 5329, 5330, 5331, 5332, 5333, 5334, 
5335, 5336, 5337, 5338, 5339, 5340, 5341, 5342, 5343, 5344, 
5345, 5346, 5347, 5348, 5349, 5350, 5351, 5352, 5353, 5354, 
5355, 5356, 5357, 5358, 5359, 5360, 5361, 5362, 5363, 5364, 
5365, 5366, 5367, 5368, 5369, 5370, 5371, 5372, 5373, 5374, 
5375, 5376, 5377, 5378, 5379, 5380, 5381, 5382, 5383, 5384, 
5385, 5386, 5387, 5388, 5389, 5390, 5391, 5392, 5393, 5394, 
5395, 5396, 5397, 5398, 5399, 5400, 5401, 5402, 5403, 5404, 
5405, 5406, 5407, 5408, 5409, 5410, 5411, 5412, 5413, 5414, 
5415, 5416, 5417, 5418, 5419, 5420, 5421, 5422, 5423, 5424, 
5425, 5426, 5427, 5428, 5429, 5430, 5431, 5432, 5433, 5434, 
5435, 5436, 5437, 
