**Heading
nonlinear buckling analysis, skirt  with openings and holes under load, shell mesh
*INCLUDE, INPUT=noholes_S4_128.inp 
*BOUNDARY
base_plate_center_YFIX,1,3
skir_sless_top_LOAD,1,2

*MATERIAL,NAME=STEEL
*ELASTIC
210000,0.3
*DENSITY
7.8E-9

*SHELL SECTION, ELSET=skir_sless, MATERIAL=STEEL
25
*SHELL SECTION, ELSET=skir_carbo_mid, MATERIAL=STEEL
25
*SHELL SECTION, ELSET=skir_carbo_und, MATERIAL=STEEL
25

** step 1, nonlinear displacement control buckling analysis 
*STEP,NLGEOM,INC=10000
*STATIC
**0.02,1,1e-4,0.1 
0.001, 1, 0.001, 0.001
*BOUNDARY, 
skir_sless_top_LOAD,3,3,100
*NODE FILE, OUTPUT=2D
U
*EL FILE
S
*NODE PRINT, NSET=skir_sless_top_LOAD
U
*NODE PRINT, NSET=base_plate_center_YFIX, TOTALS=ONLY
RF

*END STEP